&CONTROL
   calculation      = 'vc-relax'
   tstress          = .true.
   tprnfor          = .true.
   outdir           = './'
   pseudo_dir       = '/home/ppiaggi/pseudos'
/
&SYSTEM
   ecutwfc          = 20
   input_dft        = 'PBE'
   ntyp             = 1
   nat              = 64
   ibrav            = 0
/
&ELECTRONS
   electron_maxstep = 1000
   mixing_beta      = 0.5
/
&IONS
/
&CELL
/

ATOMIC_SPECIES
Si 28.085500007224834 Si_ONCV_PBE_sr.upf

K_POINTS gamma

CELL_PARAMETERS angstrom
10.86140000000000 0.00000000000000 0.00000000000000
0.00000000000000 10.86140000000000 0.00000000000000
0.00000000000000 0.00000000000000 10.86140000000000

ATOMIC_POSITIONS angstrom
Si 0.0000000000 0.0000000000 0.0000000000 
Si 0.0000000000 2.7153500000 2.7153500000 
Si 2.7153500000 0.0000000000 2.7153500000 
Si 2.7153500000 2.7153500000 0.0000000000 
Si 1.3576750000 1.3576750000 1.3576750000 
Si 5.4307000000 0.0000000000 0.0000000000 
Si 5.4307000000 2.7153500000 2.7153500000 
Si 6.7883750000 1.3576750000 1.3576750000 
Si 8.1460500000 0.0000000000 2.7153500000 
Si 8.1460500000 2.7153500000 0.0000000000 
Si 0.0000000000 5.4307000000 0.0000000000 
Si 2.7153500000 5.4307000000 2.7153500000 
Si 1.3576750000 6.7883750000 1.3576750000 
Si 4.0730250000 4.0730250000 1.3576750000 
Si 5.4307000000 5.4307000000 0.0000000000 
Si 6.7883750000 6.7883750000 1.3576750000 
Si 9.5037250000 4.0730250000 1.3576750000 
Si 8.1460500000 5.4307000000 2.7153500000 
Si 0.0000000000 8.1460500000 2.7153500000 
Si 2.7153500000 8.1460500000 0.0000000000 
Si 4.0730250000 9.5037250000 1.3576750000 
Si 5.4307000000 8.1460500000 2.7153500000 
Si 8.1460500000 8.1460500000 0.0000000000 
Si 9.5037250000 9.5037250000 1.3576750000 
Si 0.0000000000 0.0000000000 5.4307000000 
Si 2.7153500000 2.7153500000 5.4307000000 
Si 1.3576750000 1.3576750000 6.7883750000 
Si 4.0730250000 1.3576750000 4.0730250000 
Si 5.4307000000 0.0000000000 5.4307000000 
Si 6.7883750000 1.3576750000 6.7883750000 
Si 9.5037250000 1.3576750000 4.0730250000 
Si 8.1460500000 2.7153500000 5.4307000000 
Si 1.3576750000 4.0730250000 4.0730250000 
Si 0.0000000000 5.4307000000 5.4307000000 
Si 1.3576750000 6.7883750000 6.7883750000 
Si 6.7883750000 4.0730250000 4.0730250000 
Si 4.0730250000 6.7883750000 4.0730250000 
Si 4.0730250000 4.0730250000 6.7883750000 
Si 5.4307000000 5.4307000000 5.4307000000 
Si 6.7883750000 6.7883750000 6.7883750000 
Si 9.5037250000 6.7883750000 4.0730250000 
Si 9.5037250000 4.0730250000 6.7883750000 
Si 1.3576750000 9.5037250000 4.0730250000 
Si 2.7153500000 8.1460500000 5.4307000000 
Si 6.7883750000 9.5037250000 4.0730250000 
Si 4.0730250000 9.5037250000 6.7883750000 
Si 8.1460500000 8.1460500000 5.4307000000 
Si 9.5037250000 9.5037250000 6.7883750000 
Si 0.0000000000 2.7153500000 8.1460500000 
Si 2.7153500000 0.0000000000 8.1460500000 
Si 4.0730250000 1.3576750000 9.5037250000 
Si 5.4307000000 2.7153500000 8.1460500000 
Si 8.1460500000 0.0000000000 8.1460500000 
Si 9.5037250000 1.3576750000 9.5037250000 
Si 1.3576750000 4.0730250000 9.5037250000 
Si 2.7153500000 5.4307000000 8.1460500000 
Si 6.7883750000 4.0730250000 9.5037250000 
Si 4.0730250000 6.7883750000 9.5037250000 
Si 8.1460500000 5.4307000000 8.1460500000 
Si 9.5037250000 6.7883750000 9.5037250000 
Si 0.0000000000 8.1460500000 8.1460500000 
Si 1.3576750000 9.5037250000 9.5037250000 
Si 5.4307000000 8.1460500000 8.1460500000 
Si 6.7883750000 9.5037250000 9.5037250000 

