&CONTROL
   calculation      = 'scf'
   tstress          = .true.
   tprnfor          = .true.
   outdir           = './'
   disk_io          = 'none'
   pseudo_dir       = '/home/ppiaggi/pseudos'
/
&SYSTEM
   ecutwfc          = 30
   occupations      = 'smearing'
   degauss          = 0.01
   smearing         = 'fermi-dirac'
   input_dft        = 'PBE'
   ntyp             = 1
   nat              = 64
   ibrav            = 0
/
&ELECTRONS
   electron_maxstep = 100
   mixing_beta      = 0.5
/
&IONS
/
&CELL
/

ATOMIC_SPECIES
Si 28.085 Si_ONCV_PBE_sr.upf

K_POINTS gamma

CELL_PARAMETERS angstrom
10.93808064159069 0.00000000000000 0.00000000000000
0.00000000000000 10.93808064159069 0.00000000000000
0.00000000000000 0.00000000000000 10.93808064159069

ATOMIC_POSITIONS angstrom
Si 6.3217621495 7.9159764650 5.8447415147 
Si 8.6061256011 3.1501234725 2.4207285030 
Si 7.9477406511 9.4222814263 4.9350541620 
Si 9.5647936790 5.1203999384 4.0371799363 
Si 2.3530108457 1.7528602371 6.3493917412 
Si 4.1393306714 5.8903533109 9.4441904018 
Si 9.2463970896 2.4289867538 5.1643053941 
Si 2.8598049361 9.1671835096 0.2196902559 
Si 5.7236569620 9.5853244563 9.9363602784 
Si 3.1971462811 10.1439869251 8.9689745502 
Si 10.6658208763 1.0484489375 7.3092739460 
Si 1.1861145267 7.8788854335 0.4334903553 
Si 8.2563039060 5.9397168689 8.9029851097 
Si 7.7744486395 4.6567018858 5.6920677851 
Si 7.2362294435 1.7903997298 9.1809217388 
Si 5.4087058680 10.7670965650 4.7084171311 
Si 4.7166863200 10.2840709239 1.4104545607 
Si 7.2996921874 3.9383215635 7.9969729521 
Si 7.3090333082 8.6846828963 8.0256635376 
Si 3.7940045275 1.2251525365 8.0257182280 
Si 4.3878985540 1.8900675206 4.4849083912 
Si 8.5709596719 10.5978297671 8.1496357436 
Si 5.3881532145 8.4074791186 3.0649595766 
Si 4.7922903334 3.5643376483 10.5929404450 
Si 2.9937745478 3.9827411090 3.2942764372 
Si 0.3795153026 2.6442919332 1.6550628580 
Si 1.1756686597 0.4983356726 9.3637080044 
Si 7.0660657230 10.8123036523 2.4961137547 
Si 7.4302381798 6.5331514960 1.4224864494 
Si 7.0899873053 2.5118427147 3.9546958702 
Si 4.2148143659 5.7213818412 5.7602229656 
Si 0.7297603014 3.4539724146 4.0415770447 
Si 4.9889570234 9.9406370679 7.0987487079 
Si 5.7031808750 1.6595802853 0.5150042137 
Si 10.3221354445 9.6868626589 10.3790572162 
Si 4.8069473615 3.4198784172 8.1537156477 
Si 4.9005554556 7.2288571771 0.2068117597 
Si 0.4067084649 0.3007064316 2.8964584443 
Si 4.2006823658 7.4104074396 7.2998343824 
Si 10.5457863794 3.7984672644 6.8683380392 
Si 1.2809695620 10.0956624848 5.8011313872 
Si 9.0414830868 4.8483589348 0.1704820187 
Si 2.0378191139 0.8760275972 1.0664344235 
Si 1.0047447425 7.6355459535 4.7769332682 
Si 1.6722247066 6.0581762822 9.6420930949 
Si 1.6916288616 6.9729498424 7.0548870045 
Si 6.0608451739 6.8737086368 9.0812211338 
Si 1.9097123135 4.1621146934 6.3038783877 
Si 8.4924570671 1.4752626885 0.4035167329 
Si 7.4802252084 8.0787132287 3.2014230707 
Si 10.4697339047 5.5799305823 8.5847854058 
Si 9.8334001253 10.9346242081 4.9296288740 
Si 3.3804356984 1.6940789917 2.5906297096 
Si 2.4655199432 7.6449964551 2.4742047792 
Si 5.7244554419 4.4490424248 2.2939889626 
Si 10.7033931833 2.3433634586 10.0733488003 
Si 6.0576403163 5.5248464082 4.5473101413 
Si 10.3943924052 7.9102339726 6.5732614377 
Si 8.1786325954 8.6763262027 0.0334813555 
Si 9.5013746874 7.7089623507 4.0079315087 
Si 9.3521464532 10.4104385695 1.7412877477 
Si 0.6825548268 9.2388826282 8.1498545052 
Si 10.2961028126 6.6203389368 1.7544900111 
Si 4.2715939426 6.2477550959 2.3768011711 

