&CONTROL
   calculation      = 'scf'
   tstress          = .true.
   tprnfor          = .true.
   outdir           = './'
   disk_io          = 'none'
   pseudo_dir       = '/home/ppiaggi/pseudos'
/
&SYSTEM
   ecutwfc          = 30
   occupations      = 'smearing'
   degauss          = 0.01
   smearing         = 'fermi-dirac'
   input_dft        = 'PBE'
   ntyp             = 1
   nat              = 64
   ibrav            = 0
/
&ELECTRONS
   electron_maxstep = 100
   mixing_beta      = 0.5
/
&IONS
/
&CELL
/

ATOMIC_SPECIES
Si 28.085 Si_ONCV_PBE_sr.upf

K_POINTS gamma

CELL_PARAMETERS angstrom
10.66447697301229 0.00000000000000 0.00000000000000
0.00000000000000 10.66447697301229 0.00000000000000
0.00000000000000 0.00000000000000 10.66447697301229

ATOMIC_POSITIONS angstrom
Si 7.2249805242 7.6956145574 5.4362064725 
Si 8.0082756933 3.2804144459 2.7490355517 
Si 8.8527742959 10.0385148326 4.8364042941 
Si 9.1649875237 5.0664050690 4.5344822865 
Si 2.3980676145 1.9928814764 5.2977282390 
Si 3.3624775962 5.2873623674 9.6053131135 
Si 8.7652829268 1.5641268442 5.3067717155 
Si 3.4597909485 10.0703589608 0.0945142471 
Si 5.2994452198 10.2307420300 9.4441941954 
Si 2.5202398627 8.8510786440 8.7781229571 
Si 0.0689370988 0.9554123624 6.7608731508 
Si 10.6206459727 7.8815070556 1.1384329169 
Si 8.3008982770 5.5788758455 9.3060998831 
Si 8.3292871147 3.6333659758 6.2809716870 
Si 8.0247629747 2.1104253416 8.8966266252 
Si 4.0721878742 9.8767027235 5.3083713870 
Si 5.7746969716 10.3218806503 1.4352039821 
Si 6.5596238058 4.3059318805 8.0169139197 
Si 9.0245150331 8.4519605933 6.9867041151 
Si 3.4585965271 0.2977074063 7.7609558079 
Si 4.6691533018 2.1903769255 6.0057428653 
Si 8.8922648541 0.0577743774 8.3963346814 
Si 3.5900681992 8.1150804302 3.5806408016 
Si 4.5624765386 3.2781002543 10.4158133634 
Si 2.5896016210 4.1579409336 3.1745055250 
Si 10.3487977901 2.8882389696 2.1471004779 
Si 0.6461841216 0.0164976259 9.0984945098 
Si 7.4229558747 10.2184885460 2.8332422619 
Si 7.2259296626 6.5202718858 0.4427357615 
Si 6.3953268736 2.9992668394 4.4825462837 
Si 1.8345459868 6.1105640094 4.1231747386 
Si 0.4625610242 2.9842939137 4.6686414069 
Si 5.9124180273 8.4396644514 7.1572717599 
Si 6.1625746636 1.4059833152 10.3239282298 
Si 9.8314000253 8.6504265098 9.4374755749 
Si 4.5366898333 3.4096039199 7.9454832529 
Si 5.0320227952 7.7826580185 1.0747339959 
Si 10.5163580523 0.3791488176 1.9214081518 
Si 3.8111321424 6.3573506711 5.4691703708 
Si 9.7484410589 3.0373283577 8.0382748671 
Si 1.7273573287 10.1553975002 5.9531350004 
Si 9.7138774891 4.2767858650 0.4308150092 
Si 1.8737486042 0.9333806194 1.1773369289 
Si 0.9950383595 8.4930294942 3.8787129330 
Si 2.1091349399 7.1962717521 10.1797764946 
Si 2.4860282206 6.1502038703 7.5767802905 
Si 4.3680524589 7.6344004596 9.2474772531 
Si 1.2379644805 3.7592707909 6.5843227345 
Si 8.6898210877 1.9608773810 0.4751120472 
Si 7.3448599098 7.9713552741 2.2566246564 
Si 0.1082561722 5.5236125258 9.0092648310 
Si 0.4774337038 10.6501545804 4.1288482404 
Si 3.3422150899 2.4066098606 2.0262826183 
Si 1.9682038767 9.4072737761 1.8808618103 
Si 5.5434377885 3.3529328893 1.5945206036 
Si 0.8903494548 2.4017575236 9.9099119048 
Si 5.5858077555 6.5574375880 4.2571099049 
Si 10.6319289893 5.8309414232 6.0588519606 
Si 7.3839452179 7.5045497880 8.6809162495 
Si 9.5395026261 7.6895677990 4.6378104039 
Si 8.7655068808 9.6894025144 0.9132098277 
Si 0.6382422856 8.2392682646 7.5325120466 
Si 8.9867307911 6.5870208472 2.2629913492 
Si 3.9839073339 5.9600242525 2.0902801446 

