&CONTROL
   calculation      = 'scf'
   tstress          = .true.
   tprnfor          = .true.
   outdir           = './'
   disk_io          = 'none'
   pseudo_dir       = '/home/ppiaggi/pseudos'
/
&SYSTEM
   ecutwfc          = 30
   occupations      = 'smearing'
   degauss          = 0.01
   smearing         = 'fermi-dirac'
   input_dft        = 'PBE'
   ntyp             = 1
   nat              = 64
   ibrav            = 0
/
&ELECTRONS
   electron_maxstep = 100
   mixing_beta      = 0.5
/
&IONS
/
&CELL
/

ATOMIC_SPECIES
Si 28.085 Si_ONCV_PBE_sr.upf

K_POINTS gamma

CELL_PARAMETERS angstrom
11.30286101773456 0.00000000000000 0.00000000000000
0.00000000000000 11.30286101773456 0.00000000000000
0.00000000000000 0.00000000000000 11.30286101773456

ATOMIC_POSITIONS angstrom
Si 6.8152974107 7.5762060144 7.0255419285 
Si 9.1822973536 4.2380642529 2.0898650936 
Si 8.9874247268 10.6579084652 5.1506459486 
Si 8.3643884218 5.8534578467 4.0088083229 
Si 1.1737342995 2.0908710482 7.4288167068 
Si 3.7173075372 5.3064332820 9.7579294595 
Si 10.3889907959 2.3593705117 2.6798179244 
Si 2.8198829781 8.4154773536 0.5685146943 
Si 7.0716462986 9.9542601554 0.2960716626 
Si 3.2727773163 10.6195804635 10.2696551892 
Si 10.5597996316 1.4362319438 8.8074718765 
Si 1.8229480307 7.6880930357 9.9360964577 
Si 7.1609728092 4.6603956548 8.8923224542 
Si 9.6749551568 3.4378556014 4.8974618618 
Si 7.2432802432 1.1738247224 9.5234403049 
Si 8.3212567041 1.4515473205 6.0816513078 
Si 5.1892000075 0.2765561428 0.7073974688 
Si 7.7340391657 2.8249466599 8.0306827531 
Si 6.4629985357 10.5524301662 7.3515503488 
Si 4.2083716370 1.1955149127 8.5898578934 
Si 4.9867092524 0.9954927024 6.0951582267 
Si 9.0689748691 9.5954734381 7.5777545064 
Si 5.9769642090 8.7721391330 5.0963243986 
Si 5.3704300811 4.7954874497 1.0341304025 
Si 3.5931456090 5.8059745276 3.1532495610 
Si 0.6725778751 2.6285481468 0.9900311600 
Si 11.1817282562 0.0499707398 11.0865355607 
Si 6.8235032878 0.3971734939 2.3756127230 
Si 5.8892653104 7.1293247984 2.6503852743 
Si 7.4465848043 2.0588726487 4.0692221150 
Si 3.8668443885 4.7718079559 6.5493071824 
Si 2.2169883715 3.7999314513 3.3557403161 
Si 3.0401983451 10.4491220165 6.7245467396 
Si 6.0515970003 2.4198973325 0.5269133841 
Si 11.0761256257 9.2743026423 9.7267561688 
Si 5.3730297391 3.0733722422 9.0720944587 
Si 4.9349195432 7.1250975284 0.1889770545 
Si 10.6754392026 9.8792430668 3.3132641644 
Si 4.8636210959 8.6058966532 7.8684640918 
Si 0.2589869756 5.1985813822 4.4779561751 
Si 1.8220551046 9.1813931247 4.4156774109 
Si 9.3023111319 5.0064553506 10.0477574217 
Si 0.1345933387 8.8474274902 0.9517359366 
Si 2.5306879761 6.7334873027 5.1241859510 
Si 1.6767455234 6.0364172580 7.4185989204 
Si 2.4711218986 8.2714449956 7.9186487947 
Si 5.6802641073 6.5715399100 9.2980612562 
Si 2.7046955215 3.0975942734 5.6653104222 
Si 8.2280307065 1.8211282700 0.7268169143 
Si 8.2220854016 8.3523734805 4.6229040648 
Si 9.5070398535 6.0066342192 6.0429164031 
Si 11.2014065372 1.5348607090 5.4728000933 
Si 4.8825420853 3.4272535178 3.6015436347 
Si 11.2177052628 6.6975894161 2.0051840589 
Si 7.1515349203 4.5596984660 2.7489688281 
Si 10.1579151052 3.0016103776 10.9527435948 
Si 5.5863938466 5.8655971194 5.0731083220 
Si 0.1770174973 8.9338039541 7.4667491083 
Si 7.9344388915 8.3435233403 1.7561933335 
Si 11.0227987274 7.9174959029 5.3281347752 
Si 9.2676678629 0.1130862548 2.2524906579 
Si 1.5242473225 0.1857263517 8.8329259196 
Si 9.5291030382 6.6629800556 0.5667932686 
Si 3.7110796608 8.5090085285 2.9718160359 

