&CONTROL
   calculation      = 'scf'
   tstress          = .true.
   tprnfor          = .true.
   outdir           = './'
   disk_io          = 'none'
   pseudo_dir       = '/home/ppiaggi/pseudos'
/
&SYSTEM
   ecutwfc          = 30
   occupations      = 'smearing'
   degauss          = 0.01
   smearing         = 'fermi-dirac'
   input_dft        = 'PBE'
   ntyp             = 1
   nat              = 64
   ibrav            = 0
/
&ELECTRONS
   electron_maxstep = 100
   mixing_beta      = 0.5
/
&IONS
/
&CELL
/

ATOMIC_SPECIES
Si 28.085 Si_ONCV_PBE_sr.upf

K_POINTS gamma

CELL_PARAMETERS angstrom
10.80762341309387 0.00000000000000 0.00000000000000
0.00000000000000 10.80762341309387 0.00000000000000
0.00000000000000 0.00000000000000 10.80762341309387

ATOMIC_POSITIONS angstrom
Si 6.9383213092 7.9389991611 5.4360400396 
Si 7.1922572289 3.9987666247 1.8875406215 
Si 10.0207635829 10.5519258508 4.2816453599 
Si 8.6925931264 4.8216158409 3.9172663366 
Si 3.2895811840 2.1429031475 4.3479609372 
Si 2.2502768861 6.5234382616 10.6868914519 
Si 8.2812441717 1.0873657992 5.0720825135 
Si 3.2558289761 10.4713117877 10.6104491315 
Si 7.0706066198 9.1632975489 8.0282593228 
Si 1.9045842436 8.9277778195 9.1307774101 
Si 10.7625340082 0.8628493112 6.8282780876 
Si 10.7737415137 8.9286856599 0.7229478684 
Si 7.9849099453 5.0600968591 10.5492023297 
Si 8.2014731033 3.5100567016 6.4901075510 
Si 8.5234970505 2.5969962528 8.8651908723 
Si 3.5540437289 9.4347418186 5.8484697566 
Si 6.1039619741 0.6623711392 1.9536292386 
Si 7.3443096827 4.8676671243 8.1350602574 
Si 8.9125606857 7.8480422024 6.8975441461 
Si 4.5032124475 0.8574919723 8.6590786862 
Si 4.8467435653 0.6168721254 6.4262669195 
Si 8.9824535863 0.2132290061 8.1752321936 
Si 3.2656963362 8.2607637253 3.8079039953 
Si 4.0953867780 3.0740771731 10.4177600137 
Si 2.2397286456 4.4609438324 3.4870688866 
Si 0.1380198356 3.0116523403 2.3545488368 
Si 10.3992681701 0.8785106383 9.9440726871 
Si 7.9891141108 0.1139080277 2.9915825836 
Si 6.6223604387 6.9576777628 0.8812860360 
Si 6.4328703774 2.2943287591 6.2821904918 
Si 0.5537577662 5.8757698134 2.4777017056 
Si 0.0233774298 3.4423037104 4.7081682179 
Si 5.1162316551 7.8703491371 6.9647135256 
Si 6.3205683626 2.4087814911 0.0537236152 
Si 9.5060072873 7.7039981976 9.3258117822 
Si 4.8144395790 3.9034974243 8.4520802750 
Si 5.5169567161 9.1525331560 10.7262636240 
Si 9.5736413947 0.0034015482 1.0650956104 
Si 3.6800281950 6.3451016677 4.9046075811 
Si 0.0186843274 3.3852070359 7.9779066053 
Si 1.4954184288 9.9235273950 7.1226237113 
Si 10.7811231205 4.4122446813 0.1359512564 
Si 1.7184985837 1.2973579221 1.1279808480 
Si 0.7878606161 8.8254080105 3.2893974544 
Si 2.4406639801 7.1944619841 2.1646048553 
Si 3.4524628764 5.6288156184 7.2992310855 
Si 3.7812415883 7.5305250342 9.0478829385 
Si 2.9090123407 2.9149457260 7.2793990965 
Si 8.9111016566 2.1898730788 0.3993211506 
Si 6.5834421868 8.7718994670 2.5755971584 
Si 0.6744389315 5.9321964152 9.2558540358 
Si 1.6444123252 0.8787105793 3.4894897943 
Si 3.7860077502 2.8455499761 2.0330220402 
Si 2.5163497669 9.7463256016 1.9215414047 
Si 6.3399464313 3.9423724458 3.9930926224 
Si 1.3391510019 2.7876643451 10.1365024220 
Si 6.0467896463 6.4071698490 3.7945349651 
Si 10.1139361043 5.7394208364 6.5889432672 
Si 7.4585030317 6.8989167143 9.1218611207 
Si 9.2809493374 7.3134106874 4.6408367241 
Si 7.8785629309 8.9037092421 0.4438971934 
Si 1.2188729609 6.9446005384 7.0138557893 
Si 9.1969741035 6.1894178524 1.5182549371 
Si 4.4639591593 5.7406961360 1.8712859559 

