&CONTROL
   calculation      = 'scf'
   tstress          = .true.
   tprnfor          = .true.
   outdir           = './'
   disk_io          = 'none'
   pseudo_dir       = '/home/ppiaggi/pseudos'
/
&SYSTEM
   ecutwfc          = 30
   occupations      = 'smearing'
   degauss          = 0.01
   smearing         = 'fermi-dirac'
   input_dft        = 'PBE'
   ntyp             = 1
   nat              = 64
   ibrav            = 0
/
&ELECTRONS
   electron_maxstep = 100
   mixing_beta      = 0.5
/
&IONS
/
&CELL
/

ATOMIC_SPECIES
Si 28.085 Si_ONCV_PBE_sr.upf

K_POINTS gamma

CELL_PARAMETERS angstrom
11.34021210201690 0.00000000000000 0.00000000000000
0.00000000000000 11.34021210201690 0.00000000000000
0.00000000000000 0.00000000000000 11.34021210201690

ATOMIC_POSITIONS angstrom
Si 10.6497065871 4.8331303566 7.3848028219 
Si 8.7895715960 5.9020020483 1.5111059430 
Si 8.5964251035 10.4975322809 4.4941940973 
Si 8.0916949433 5.6959163738 3.8807793443 
Si 10.4906601124 2.3304816282 6.4437353206 
Si 2.5963415608 5.2639223339 9.4069781037 
Si 10.5208590972 2.1428011179 0.9769331901 
Si 3.1200098752 9.3949801593 11.2604563903 
Si 6.7974251959 9.5895781990 2.7045045038 
Si 3.4978884229 0.6194273335 0.3023413949 
Si 11.0689315481 1.2626985969 9.3847626282 
Si 1.1802892756 7.5425451722 10.8677108246 
Si 6.3584682658 4.1500413404 7.9073938162 
Si 10.8573685511 2.6275611647 3.8949999703 
Si 7.2904182366 2.2086423894 10.6248715226 
Si 8.4820930851 4.7926231190 6.3938610678 
Si 5.6733153310 1.5128636759 1.3404697715 
Si 8.8841036041 2.9825098035 9.0911191760 
Si 7.4682554428 9.0257768739 6.1957475624 
Si 3.1200212154 1.7173390403 9.0965171170 
Si 5.0953274006 1.0936681995 8.0244021247 
Si 9.5051730003 7.1097346371 6.4049404550 
Si 5.0513387179 10.1357341540 6.2185073680 
Si 3.1366573066 4.6844261553 1.0662056078 
Si 1.8515844712 6.5470106322 2.3353352390 
Si 2.6376312730 2.2767630435 1.4816554122 
Si 10.7084488858 10.6700395874 10.7292128142 
Si 7.2603666745 1.1391469861 2.8977417180 
Si 5.0117613776 8.4765590616 0.7797802006 
Si 8.2874723650 2.9678355690 4.8233324134 
Si 3.2308944691 3.6627070656 6.5694869326 
Si 3.7001864666 3.0164397181 3.4331811726 
Si 1.4025687730 9.0807655624 6.7129179353 
Si 5.2558254225 3.8789649103 0.1414237851 
Si 10.6609333971 8.6164405779 1.0437655961 
Si 4.4603322240 3.6993019300 9.2772914381 
Si 3.7221751378 6.9463221808 10.8781551599 
Si 10.6643468009 9.6674174148 3.0471490124 
Si 5.8276896384 10.0508866871 8.3108445421 
Si 1.1721583435 5.2602707856 4.3859971336 
Si 2.8617025239 10.5009570250 3.9789629007 
Si 9.2478068866 4.7096581272 10.9582964388 
Si 1.6523936456 9.1892346911 2.0527938545 
Si 3.2396491129 7.2921532890 4.7454931975 
Si 1.5451832804 5.8258185034 7.4202976858 
Si 3.5881338308 8.3217311458 8.0752629759 
Si 5.0287716958 6.2605908952 9.1132552701 
Si 1.5036781041 2.9127674990 5.1144243178 
Si 8.4159342877 3.0902418184 1.6916080990 
Si 7.3383873338 7.7759380775 4.3638837200 
Si 10.3985095489 5.6509864534 4.7747736251 
Si 0.6596374576 0.6181697040 5.7873411637 
Si 4.3916332191 5.0074747775 5.0304046863 
Si 0.8849561318 4.1093753398 1.7349617299 
Si 6.5760529154 3.8458855116 3.0025706387 
Si 0.9903191765 3.5662245410 10.7457468434 
Si 4.2535094356 6.6919272027 2.5353879207 
Si 0.3268974901 7.5610183777 8.4790539083 
Si 7.9679732292 7.7116957759 11.2777048529 
Si 0.1471517263 7.8151525310 5.2589666612 
Si 9.6819328863 11.1909862510 1.7690390673 
Si 1.5346255429 10.8515510223 9.6508833856 
Si 7.3553522911 5.7925463211 10.0552526687 
Si 4.6812282155 8.7260664083 3.7487339146 

