&CONTROL
   calculation      = 'scf'
   tstress          = '.true.'
   tprnfor          = '.true.'
   outdir           = './'
   disk_io          = 'none'
   pseudo_dir       = './'
/
&SYSTEM
   ecutwfc          = 30
   input_dft        = 'PBE'
   ntyp             = 1
   nat              = 64
   ibrav            = 0
/
&ELECTRONS
   electron_maxstep = 1000
   mixing_beta      = 0.5
/
&IONS
/
&CELL
/

ATOMIC_SPECIES
Si 28.085 Si_ONCV_PBE-1.0.upf

K_POINTS gamma

CELL_PARAMETERS angstrom
10.96665736041866 0.00000000000000 0.00000000000000
0.00000000000000 10.95313024573826 0.00000000000000
0.00000000000000 0.00000000000000 10.89739051083948

ATOMIC_POSITIONS angstrom
Si 4.0947373833 4.0672738295 1.3721859049 
Si -0.0092139967 2.7125194330 2.7275118151 
Si 4.0830037219 1.3504466183 4.0997443519 
Si -0.0076704586 -0.0021461473 0.0033324488 
Si 1.3630458323 4.0652765188 4.1071273915 
Si 2.7284484106 2.7110329774 0.0031076997 
Si 1.3662494774 1.3501007490 1.3738615888 
Si 2.7335009285 0.0098001944 2.7387085222 
Si 4.0866429305 4.0665855684 6.8427355240 
Si 0.0031103100 2.7079456544 8.2008662435 
Si 4.0876345579 1.3496224484 9.5623023634 
Si 0.0028105251 -0.0043871694 5.4607192602 
Si 1.3672354522 4.0596604349 9.5699392915 
Si 2.7263307379 2.7210140481 5.4758794845 
Si 1.3533197772 1.3479069386 6.8239052737 
Si 2.7290451044 -0.0006440232 8.1912999472 
Si 4.0900395864 9.4935546886 1.3569033734 
Si 0.0076507660 8.1331501033 2.7266867344 
Si 4.0786119281 6.7869957185 4.1082126468 
Si 0.0081769804 5.4170730481 0.0023045785 
Si 1.3586443774 9.4837628676 4.0975365430 
Si 2.7261546092 8.1437893045 0.0036053751 
Si 1.3624179737 6.7827935589 1.3737722607 
Si 2.7341580801 5.4192354546 2.7264987598 
Si 4.0837845695 9.4869666616 6.8407372596 
Si 0.0091505174 8.1305232160 8.2014361018 
Si 4.0778688321 6.7783926971 9.5592595255 
Si -0.0059754900 5.4295320439 5.4593720403 
Si 1.3525476649 9.4893300328 9.5676420748 
Si 2.7169039035 8.1348329021 5.4631983556 
Si 1.3671040965 6.7871293645 6.8310948687 
Si 2.7258048510 5.4232590199 8.2088405788 
Si 9.5306497204 4.0650990709 1.3633796896 
Si 5.4588839559 2.7062759152 2.7293089057 
Si 9.5265352324 1.3655779349 4.1034369318 
Si 5.4548088119 0.0039200133 -0.0075819484 
Si 6.8110293095 4.0775174913 4.0967893911 
Si 8.1692014008 2.7110023770 0.0071672506 
Si 6.8104656707 1.3472557688 1.3590623716 
Si 8.1718315011 -0.0005627659 2.7379784406 
Si 9.5346470261 4.0607391559 6.8266766461 
Si 5.4509784725 2.7124730278 8.1925186993 
Si 9.5438582316 1.3654314071 9.5662587788 
Si 5.4469133462 0.0087655078 5.4636910123 
Si 6.8161993741 4.0739631703 9.5575487015 
Si 8.1712030488 2.7060994278 5.4578752213 
Si 6.8134404211 1.3540045419 6.8260721687 
Si 8.1781967363 0.0028478716 8.1944992578 
Si 9.5422728665 9.4961615247 1.3636110333 
Si 5.4499915142 8.1435836184 2.7283038926 
Si 9.5430652508 6.7840898484 4.0907214858 
Si 5.4429680133 5.4320806077 -0.0017674528 
Si 6.8160583912 9.5004224860 4.1075373981 
Si 8.1654598904 8.1363480263 -0.0068381330 
Si 6.8042325690 6.7883998113 1.3687509424 
Si 8.1779106378 5.4149457236 2.7243412831 
Si 9.5291670299 9.4945556856 6.8276708959 
Si 5.4509204759 8.1326290480 8.2031037927 
Si 9.5272839411 6.7853043202 9.5738250285 
Si 5.4478022723 5.4310378236 5.4584368669 
Si 6.8070707787 9.4880789031 9.5584406931 
Si 8.1732756660 8.1427383336 5.4625532407 
Si 6.8200545399 6.7772684299 6.8401174921 
Si 8.1759665948 5.4197743597 8.2098702155 

