&CONTROL
   calculation      = 'scf'
   tstress          = '.true.'
   tprnfor          = '.true.'
   outdir           = './'
   disk_io          = 'none'
   pseudo_dir       = './'
/
&SYSTEM
   ecutwfc          = 30
   input_dft        = 'PBE'
   ntyp             = 1
   nat              = 64
   ibrav            = 0
/
&ELECTRONS
   electron_maxstep = 1000
   mixing_beta      = 0.5
/
&IONS
/
&CELL
/

ATOMIC_SPECIES
Si 28.085 Si_ONCV_PBE-1.0.upf

K_POINTS gamma

CELL_PARAMETERS angstrom
10.87178995278950 0.00000000000000 0.00000000000000
0.00000000000000 10.97251939078583 0.00000000000000
0.00000000000000 0.00000000000000 10.91512392166828

ATOMIC_POSITIONS angstrom
Si 4.0770910040 4.1093249287 1.3623613473 
Si -0.0027724481 2.7305493093 2.7211838315 
Si 4.0805346857 1.3734715747 4.0931731789 
Si -0.0097867498 -0.0009735960 0.0060366015 
Si 1.3572258912 4.0922743066 4.0932449854 
Si 2.7252437722 2.7356323318 -0.0055529708 
Si 1.3571974071 1.3688981223 1.3684501273 
Si 2.7211675770 -0.0011540056 2.7257210473 
Si 4.0741551972 4.0905495460 6.8171681966 
Si -0.0090795984 2.7417789664 8.1654385692 
Si 4.0847779375 1.3647854212 9.5446766337 
Si -0.0044031288 0.0026168735 5.4445517948 
Si 1.3604818398 4.0913328638 9.5436661241 
Si 2.7245439435 2.7426925142 5.4570621025 
Si 1.3637538949 1.3739810981 6.8114885763 
Si 2.7121933325 0.0056371567 8.1796833087 
Si 4.0898673180 9.5562581388 1.3606771901 
Si 0.0046713635 8.1994996820 2.7274125090 
Si 4.0785606086 6.8425602062 4.0877803688 
Si -0.0029004904 5.4623065244 -0.0076209031 
Si 1.3534596341 9.5592776570 4.0874758842 
Si 2.7201504077 8.2074318581 0.0007188748 
Si 1.3611760979 6.8426398443 1.3686425078 
Si 2.7111313819 5.4709801423 2.7337221966 
Si 4.0772617770 9.5660920721 6.8105202984 
Si 0.0009306835 8.2093760661 8.1724538755 
Si 4.0874967760 6.8408222717 9.5345965706 
Si 0.0084294339 5.4735091087 5.4566957388 
Si 1.3523005903 9.5576941976 9.5330318733 
Si 2.7245783888 8.1998917734 5.4480398010 
Si 1.3562977185 6.8292139497 6.8104738062 
Si 2.7243143914 5.4585454129 8.1703588959 
Si 9.5251743677 4.1002440059 1.3683539451 
Si 5.4452181800 2.7399383925 2.7261274038 
Si 9.5125607429 1.3604618348 4.0905639404 
Si 5.4507919800 -0.0006638215 0.0003517658 
Si 6.8081679694 4.0959451125 4.0959207226 
Si 8.1582468263 2.7290393729 0.0085556090 
Si 6.8019375771 1.3608903476 1.3710983159 
Si 8.1700914523 -0.0079423474 2.7266149264 
Si 9.5126114230 4.1002427934 6.8174039431 
Si 5.4492032150 2.7291644197 8.1697673443 
Si 9.5189265243 1.3745142267 9.5347487355 
Si 5.4353212378 0.0071551121 5.4498642703 
Si 6.8010237170 4.1004386713 9.5284609324 
Si 8.1645413825 2.7344513764 5.4493213495 
Si 6.7960781969 1.3764898623 6.8032353066 
Si 8.1553221497 0.0042436236 8.1687070218 
Si 9.5266380864 9.5711945414 1.3643149731 
Si 5.4497919769 8.2016550100 2.7215702863 
Si 9.5317136720 6.8277578503 4.0934647644 
Si 5.4400518403 5.4647713939 -0.0081556350 
Si 6.7938641613 9.5754795865 4.0893048795 
Si 8.1621667522 8.1994976480 0.0013093447 
Si 6.7966276847 6.8255719771 1.3639514507 
Si 8.1646735887 5.4570545147 2.7151234606 
Si 9.5237020759 9.5701472229 6.8045161435 
Si 5.4364780659 8.1955962458 8.1644638312 
Si 9.5256041959 6.8424747221 9.5276203865 
Si 5.4498787698 5.4687600826 5.4444044730 
Si 6.7919402293 9.5683091431 9.5318369004 
Si 8.1667556035 8.1992068961 5.4478554508 
Si 6.7929064741 6.8413092334 6.8188114479 
Si 8.1668434896 5.4731842414 8.1719272171 

