&CONTROL
   calculation      = 'scf'
   tstress          = '.true.'
   tprnfor          = '.true.'
   outdir           = './'
   disk_io          = 'none'
   pseudo_dir       = './'
/
&SYSTEM
   ecutwfc          = 30
   input_dft        = 'PBE'
   ntyp             = 1
   nat              = 64
   ibrav            = 0
/
&ELECTRONS
   electron_maxstep = 1000
   mixing_beta      = 0.5
/
&IONS
/
&CELL
/

ATOMIC_SPECIES
Si 28.085 Si_ONCV_PBE-1.0.upf

K_POINTS gamma

CELL_PARAMETERS angstrom
10.98494652072254 0.00000000000000 0.00000000000000
0.00000000000000 11.02322765265988 0.00000000000000
0.00000000000000 0.00000000000000 10.91916236774310

ATOMIC_POSITIONS angstrom
Si 4.1339348968 4.1148598206 1.3647861897 
Si 0.0010587490 2.7497852723 2.7451181915 
Si 4.1168581143 1.3813722478 4.0946382282 
Si -0.0051166758 0.0063674528 -0.0082613093 
Si 1.3739437481 4.1262986299 4.1087102847 
Si 2.7583790401 2.7448131388 0.0076232237 
Si 1.3793147720 1.3639831051 1.3629393561 
Si 2.7597738494 0.0087924039 2.7288673383 
Si 4.1336798454 4.1246659284 6.8329904167 
Si -0.0056060585 2.7434774843 8.2003731882 
Si 4.1183925764 1.3693794585 9.5738931972 
Si -0.0087614853 -0.0059619005 5.4688629132 
Si 1.3672757011 4.1244546585 9.5819668135 
Si 2.7470169392 2.7439445188 5.4647632491 
Si 1.3806342710 1.3641350342 6.8469616446 
Si 2.7493383606 -0.0078370442 8.2062441157 
Si 4.1258120524 9.6160940724 1.3733688177 
Si 0.0050715646 8.2508616535 2.7366246819 
Si 4.1183554247 6.8656821726 4.1085235497 
Si -0.0074543461 5.4943233744 -0.0060367896 
Si 1.3677294260 9.6203967398 4.0993955802 
Si 2.7597174666 8.2499153778 -0.0001021406 
Si 1.3743901389 6.8731870189 1.3738585557 
Si 2.7551528511 5.5047208807 2.7390118527 
Si 4.1341988406 9.6241600292 6.8447869586 
Si 0.0095782995 8.2502613099 8.2121361567 
Si 4.1215241991 6.8762962186 9.5718958994 
Si -0.0012260674 5.4871852172 5.4798277498 
Si 1.3749022937 9.6095496265 9.5680390215 
Si 2.7552282815 8.2424575777 5.4724471564 
Si 1.3758095421 6.8774803603 6.8378985403 
Si 2.7495396034 5.4900309093 8.2074640138 
Si 9.6198059164 4.1192311148 1.3707953006 
Si 5.4992242875 2.7478434124 2.7385835792 
Si 9.6279823821 1.3777922383 4.1100366070 
Si 5.5025763134 -0.0011530543 -0.0002487018 
Si 6.8828141698 4.1234313676 4.1033851096 
Si 8.2600098509 2.7387573822 -0.0046064985 
Si 6.8672854481 1.3750107297 1.3593880353 
Si 8.2518188125 0.0052101371 2.7346672953 
Si 9.6240970280 4.1133812603 6.8431729193 
Si 5.4935187606 2.7492292385 8.2112045275 
Si 9.6346181135 1.3678400515 9.5684869224 
Si 5.4960278709 0.0052694289 5.4705922403 
Si 6.8765934092 4.1245899555 9.5719345406 
Si 8.2487808311 2.7559627060 5.4627563331 
Si 6.8663872581 1.3657778330 6.8328860664 
Si 8.2441821263 0.0068879455 8.2042366215 
Si 9.6220966945 9.6109653938 1.3588288051 
Si 5.5019530333 8.2509444412 2.7286785920 
Si 9.6221616762 6.8776257707 4.1072245313 
Si 5.4951735540 5.4863940044 -0.0069353714 
Si 6.8692806136 9.6088420254 4.1014044406 
Si 8.2590463230 8.2446506348 -0.0072753668 
Si 6.8697787418 6.8617322122 1.3735034384 
Si 8.2441803141 5.4930930039 2.7349719013 
Si 9.6324821726 9.6149030114 6.8390086187 
Si 5.5098237126 8.2456869285 8.2040560345 
Si 9.6182854327 6.8774246040 9.5725381970 
Si 5.4991063144 5.4860550142 5.4767612632 
Si 6.8823786556 9.6092461655 9.5668814775 
Si 8.2586988958 8.2474012746 5.4805996453 
Si 6.8844573458 6.8720526780 6.8465468991 
Si 8.2605818649 5.5033912909 8.2014310537 

