&CONTROL
   calculation      = 'scf'
   tstress          = '.true.'
   tprnfor          = '.true.'
   outdir           = './'
   disk_io          = 'none'
   pseudo_dir       = './'
/
&SYSTEM
   ecutwfc          = 30
   input_dft        = 'PBE'
   ntyp             = 1
   nat              = 64
   ibrav            = 0
/
&ELECTRONS
   electron_maxstep = 1000
   mixing_beta      = 0.5
/
&IONS
/
&CELL
/

ATOMIC_SPECIES
Si 28.085 Si_ONCV_PBE-1.0.upf

K_POINTS gamma

CELL_PARAMETERS angstrom
10.99878115081009 0.00000000000000 0.00000000000000
0.00000000000000 11.04139938493196 0.00000000000000
0.00000000000000 0.00000000000000 10.86935099542888

ATOMIC_POSITIONS angstrom
Si 4.0908723176 4.1427317246 1.3437117392 
Si -0.0013790943 2.7666475902 2.6989495659 
Si 4.0891020095 1.3872261782 4.0280938929 
Si 0.0030363049 0.0053099918 0.0081683071 
Si 1.3649339504 4.1367038517 4.0295876377 
Si 2.7296909547 2.7706556140 0.0034274884 
Si 1.3736822542 1.3821984677 1.3519308056 
Si 2.7357605975 -0.0064284516 2.6922379222 
Si 4.0948944423 4.1351822712 6.7372367112 
Si 0.0093387618 2.7691451542 8.0798512745 
Si 4.0960033211 1.3840628533 9.4194289097 
Si 0.0068956781 0.0089517350 5.3879625600 
Si 1.3633997468 4.1469613078 9.4287302417 
Si 2.7246274661 2.7650429115 5.3758949605 
Si 1.3567308283 1.3792898117 6.7208538014 
Si 2.7394214664 -0.0020610714 8.0804425053 
Si 4.0909839657 9.6605868939 1.3392966918 
Si -0.0018465749 8.2931892039 2.6999606988 
Si 4.0876313959 6.8956452514 4.0309333006 
Si -0.0063246591 5.5293391754 -0.0067974812 
Si 1.3702642113 9.6615867042 4.0421571421 
Si 2.7279362051 8.2824173360 -0.0023629753 
Si 1.3630968376 6.8931766656 1.3520108658 
Si 2.7225273608 5.5288940334 2.6991072820 
Si 4.0951498846 9.6631897663 6.7274853916 
Si 0.0018600632 8.2837274106 8.0820601783 
Si 4.1044380262 6.9006713846 9.4182151790 
Si -0.0032961486 5.5244447672 5.3773445845 
Si 1.3670313794 9.6680209780 9.4292525219 
Si 2.7372948901 8.2842361883 5.3881491673 
Si 1.3749618291 6.9113805660 6.7200551371 
Si 2.7378541968 5.5207837169 8.0835393622 
Si 9.5644819656 4.1411865979 1.3520423140 
Si 5.4539542571 2.7711076996 2.6891947056 
Si 9.5664510986 1.3830594411 4.0358204961 
Si 5.4642561176 -0.0033671670 -0.0037117231 
Si 6.8317810352 4.1508254536 4.0324875401 
Si 8.1849382069 2.7554801082 -0.0018323543 
Si 6.8282607894 1.3741022732 1.3384289725 
Si 8.2005721568 -0.0032199293 2.6877031499 
Si 9.5690391792 4.1429516285 6.7261589693 
Si 5.4695042243 2.7594404257 8.0652562793 
Si 9.5697606674 1.3750590501 9.4248330190 
Si 5.4612475895 0.0011400793 5.3770517230 
Si 6.8365426066 4.1383055120 9.4108702849 
Si 8.1955773694 2.7532699192 5.3778980243 
Si 6.8275323933 1.3846006479 6.7376660847 
Si 8.2023267339 0.0059304529 8.0727587199 
Si 9.5651984185 9.6729841423 1.3550577047 
Si 5.4691631963 8.2777893486 2.6989535350 
Si 9.5582302343 6.9034154918 4.0301082923 
Si 5.4645975623 5.5135235665 -0.0071792891 
Si 6.8371242760 9.6740433196 4.0403055124 
Si 8.1978252288 8.2827488475 -0.0025404848 
Si 6.8197649685 6.8946223203 1.3448995550 
Si 8.1972746505 5.5274530508 2.6905678511 
Si 9.5525215271 9.6696142528 6.7371914103 
Si 5.4672297133 8.2916231365 8.0805358380 
Si 9.5645798461 6.9059361037 9.4209224603 
Si 5.4590366769 5.5306646963 5.3822899778 
Si 6.8297981607 9.6629526594 9.4268575883 
Si 8.1916774730 8.2822184040 5.3813333477 
Si 6.8300006828 6.9060637887 6.7383141730 
Si 8.1994563037 5.5324066813 8.0791330515 

