&CONTROL
   calculation      = 'scf'
   tstress          = '.true.'
   tprnfor          = '.true.'
   outdir           = './'
   disk_io          = 'none'
   pseudo_dir       = './'
/
&SYSTEM
   ecutwfc          = 30
   input_dft        = 'PBE'
   ntyp             = 1
   nat              = 64
   ibrav            = 0
/
&ELECTRONS
   electron_maxstep = 1000
   mixing_beta      = 0.5
/
&IONS
/
&CELL
/

ATOMIC_SPECIES
Si 28.085 Si_ONCV_PBE-1.0.upf

K_POINTS gamma

CELL_PARAMETERS angstrom
10.88413750412979 0.00000000000000 0.00000000000000
0.00000000000000 10.98125782996269 0.00000000000000
0.00000000000000 0.00000000000000 10.87412169762839

ATOMIC_POSITIONS angstrom
Si 4.0917741287 4.1674618847 1.3565826401 
Si -0.0013141813 2.7771949144 2.7215170038 
Si 4.1081662061 1.3826846808 4.0864346478 
Si -0.0014403993 -0.0096536734 -0.0054186241 
Si 1.3633916403 4.1628464121 4.0799328106 
Si 2.7388850632 2.7690074899 0.0088139718 
Si 1.3736885410 1.3947935615 1.3659705552 
Si 2.7399603294 0.0037445543 2.7140748962 
Si 4.1067900385 4.1690208250 6.8096165227 
Si 0.0055509759 2.7701234347 8.1707417749 
Si 4.1029433080 1.3908052775 9.5337060718 
Si -0.0056299219 -0.0041384908 5.4490374854 
Si 1.3704581098 4.1600536053 9.5342002397 
Si 2.7394480080 2.7696819797 5.4504951397 
Si 1.3721794454 1.3829515226 6.8044971848 
Si 2.7419927360 -0.0082286971 8.1661737262 
Si 4.0937047650 9.7062601091 1.3570731916 
Si -0.0087970539 8.3089323253 2.7144711216 
Si 4.1000792998 6.9266049030 4.0855054764 
Si 0.0005415662 5.5362529750 0.0016796962 
Si 1.3754205386 9.7009107048 4.0910994484 
Si 2.7271099432 8.3102954114 0.0049727529 
Si 1.3652640909 6.9303856763 1.3575456260 
Si 2.7302912580 5.5436956971 2.7265736672 
Si 4.0934407529 9.7026586563 6.7956852906 
Si -0.0058570816 8.3261250923 8.1562504614 
Si 4.0997626389 6.9219723923 9.5161645464 
Si -0.0002444103 5.5413765316 5.4405063545 
Si 1.3722168497 9.7070942716 9.5187928279 
Si 2.7275743719 8.3122235664 5.4450872299 
Si 1.3640764311 6.9302343232 6.8104791661 
Si 2.7252337353 5.5355853385 8.1737352479 
Si 9.5712002959 4.1676253206 1.3537895284 
Si 5.4564244870 2.7802799029 2.7187155272 
Si 9.5623621536 1.3842961619 4.0779199090 
Si 5.4626983575 -0.0050400828 -0.0048023660 
Si 6.8325573480 4.1504240493 4.0764077219 
Si 8.1909993202 2.7659630879 0.0004786242 
Si 6.8360443095 1.3789463613 1.3648312090 
Si 8.1887258416 -0.0080472950 2.7285156372 
Si 9.5717556110 4.1501617666 6.8011327912 
Si 5.4549386241 2.7713352246 8.1702957592 
Si 9.5678422310 1.3823416961 9.5257351868 
Si 5.4608477222 -0.0026882221 5.4483666605 
Si 6.8348010371 4.1683777893 9.5210923898 
Si 8.2048928427 2.7702543783 5.4518286484 
Si 6.8311930253 1.3908414065 6.7950119625 
Si 8.1877649785 -0.0093096335 8.1578852700 
Si 9.5667875361 9.7054189496 1.3619071778 
Si 5.4598657799 8.3134862624 2.7289408384 
Si 9.5652138041 6.9230601406 4.0730951044 
Si 5.4658733160 5.5460351557 -0.0060420464 
Si 6.8252657810 9.6990691883 4.0879425537 
Si 8.2030053655 8.3138365717 0.0095664452 
Si 6.8271067149 6.9372776051 1.3649544991 
Si 8.1984394054 5.5405549791 2.7280443618 
Si 9.5686162111 9.6966164977 6.8010065364 
Si 5.4600404087 8.3217638123 8.1667800388 
Si 9.5609711152 6.9264924027 9.5234409776 
Si 5.4616479430 5.5360507199 5.4345277922 
Si 6.8263347360 9.7118754592 9.5309595695 
Si 8.1889633788 8.3204424606 5.4405382326 
Si 6.8294334234 6.9232776005 6.8065536917 
Si 8.1893399593 5.5438780084 8.1578567038 

