&CONTROL
   calculation      = 'scf'
   tstress          = '.true.'
   tprnfor          = '.true.'
   outdir           = './'
   disk_io          = 'none'
   pseudo_dir       = './'
/
&SYSTEM
   ecutwfc          = 30
   input_dft        = 'PBE'
   ntyp             = 1
   nat              = 64
   ibrav            = 0
/
&ELECTRONS
   electron_maxstep = 1000
   mixing_beta      = 0.5
/
&IONS
/
&CELL
/

ATOMIC_SPECIES
Si 28.085 Si_ONCV_PBE-1.0.upf

K_POINTS gamma

CELL_PARAMETERS angstrom
10.96025614253635 0.00000000000000 0.00000000000000
0.00000000000000 10.88562308410122 0.00000000000000
0.00000000000000 0.00000000000000 10.90172075653006

ATOMIC_POSITIONS angstrom
Si 4.1305565390 4.1099344401 1.3574202933 
Si -0.0026485265 2.7395191324 2.7304914973 
Si 4.1468396030 1.3732008022 4.0953622664 
Si -0.0070045524 0.0012752030 0.0055132328 
Si 1.3879997040 4.1278913944 4.0942321969 
Si 2.7539836823 2.7409774673 0.0046975158 
Si 1.3743077243 1.3661571777 1.3725389360 
Si 2.7526696718 0.0037415386 2.7243432656 
Si 4.1332899021 4.1151262398 6.8250654008 
Si -0.0009035516 2.7444536151 8.1781522972 
Si 4.1287232163 1.3649674288 9.5437534788 
Si -0.0088268311 0.0047897331 5.4600200530 
Si 1.3708642972 4.1223247313 9.5477325458 
Si 2.7545214077 2.7403780587 5.4473650878 
Si 1.3757978171 1.3721126784 6.8096127104 
Si 2.7643020802 -0.0011263038 8.1869395993 
Si 4.1350556554 9.6150173706 1.3535510144 
Si -0.0002360651 8.2369484323 2.7267177216 
Si 4.1407574525 6.8664577808 4.0869367978 
Si 0.0078133427 5.4865361100 -0.0084080984 
Si 1.3703702139 9.6123395172 4.0844668269 
Si 2.7543796070 8.2316738742 -0.0046606271 
Si 1.3726292548 6.8728584243 1.3588601356 
Si 2.7588662046 5.4826314016 2.7244558558 
Si 4.1423948583 9.6150601690 6.8097888165 
Si -0.0031958567 8.2311949980 8.1730613322 
Si 4.1334572883 6.8541713099 9.5321390412 
Si -0.0000515574 5.4966460624 5.4479176378 
Si 1.3883475677 9.6027684662 9.5511453248 
Si 2.7497145747 8.2341812395 5.4554529757 
Si 1.3844519862 6.8631253991 6.8060139684 
Si 2.7501970263 5.4823230069 8.1769000121 
Si 9.6597931784 4.1211729489 1.3624724859 
Si 5.5262978348 2.7398296736 2.7195391470 
Si 9.6530017047 1.3724501290 4.0913340262 
Si 5.5169067603 -0.0034037407 -0.0068888206 
Si 6.8893466996 4.1217601763 4.0988575450 
Si 8.2788866903 2.7476123084 -0.0071210661 
Si 6.8998644507 1.3733282802 1.3548785344 
Si 8.2688522037 -0.0074474864 2.7226195294 
Si 9.6639199914 4.1122159015 6.8149715478 
Si 5.5070715048 2.7467816490 8.1777758644 
Si 9.6493827349 1.3792327672 9.5417048749 
Si 5.5258612136 0.0017912852 5.4510810724 
Si 6.8885724987 4.1203586555 9.5512714294 
Si 8.2779360539 2.7356757101 5.4430131982 
Si 6.8927461240 1.3814279991 6.8109388831 
Si 8.2831818960 -0.0069648268 8.1733496340 
Si 9.6612436040 9.6111351016 1.3668100944 
Si 5.5070528622 8.2322759040 2.7213752407 
Si 9.6467893590 6.8681525937 4.0823485063 
Si 5.5104266838 5.4902793872 0.0007400613 
Si 6.8953866445 9.6181386935 4.0870147472 
Si 8.2707134667 8.2293406083 0.0079012144 
Si 6.8929415580 6.8597051356 1.3705756862 
Si 8.2751238986 5.4896396749 2.7311851277 
Si 9.6534908367 9.6089982601 6.8138999059 
Si 5.5120245005 8.2398912764 8.1789493992 
Si 9.6634905504 6.8608673732 9.5361667281 
Si 5.5077702738 5.4968608349 5.4425459936 
Si 6.9036075958 9.6102881280 9.5513990310 
Si 8.2690529476 8.2460111256 5.4455816434 
Si 6.8923216766 6.8674061382 6.8176670924 
Si 8.2657674708 5.4940766918 8.1828874137 

