&CONTROL
   calculation      = 'scf'
   tstress          = '.true.'
   tprnfor          = '.true.'
   outdir           = './'
   disk_io          = 'none'
   pseudo_dir       = './'
/
&SYSTEM
   ecutwfc          = 30
   input_dft        = 'PBE'
   ntyp             = 1
   nat              = 64
   ibrav            = 0
/
&ELECTRONS
   electron_maxstep = 1000
   mixing_beta      = 0.5
/
&IONS
/
&CELL
/

ATOMIC_SPECIES
Si 28.085 Si_ONCV_PBE-1.0.upf

K_POINTS gamma

CELL_PARAMETERS angstrom
10.90216357773165 0.00000000000000 0.00000000000000
0.00000000000000 10.89095140967659 0.00000000000000
0.00000000000000 0.00000000000000 10.87573995503690

ATOMIC_POSITIONS angstrom
Si 4.1289681244 4.0948034764 1.3682461618 
Si 0.0068678312 2.7349818990 2.7437527550 
Si 4.1291636933 1.3687816294 4.1021501060 
Si -0.0044900489 -0.0017596576 -0.0015234730 
Si 1.3798268021 4.0901357779 4.1121105552 
Si 2.7456930311 2.7352898438 -0.0032880769 
Si 1.3701719046 1.3693994187 1.3762065860 
Si 2.7486676039 0.0092969129 2.7377439410 
Si 4.1222116874 4.0942973074 6.8466932479 
Si -0.0073614094 2.7247861797 8.2087141777 
Si 4.1189619538 1.3572575275 9.5844564652 
Si 0.0090217179 -0.0031869054 5.4767190505 
Si 1.3725255906 4.0898874396 9.5750200820 
Si 2.7477685619 2.7391868417 5.4787078278 
Si 1.3723170570 1.3573828296 6.8379131201 
Si 2.7475221960 -0.0016200397 8.2210524517 
Si 4.1204032644 9.5607328091 1.3605008727 
Si -0.0046158730 8.1879037451 2.7446541416 
Si 4.1225820200 6.8227863550 4.0981252829 
Si -0.0008201985 5.4612558822 0.0047121568 
Si 1.3792773106 9.5554715591 4.0990024829 
Si 2.7520105107 8.1969232640 0.0062780507 
Si 1.3675562185 6.8270749514 1.3787597059 
Si 2.7518715337 5.4624785709 2.7406314674 
Si 4.1217137893 9.5462001908 6.8370859514 
Si 0.0055642825 8.1993451473 8.2177935071 
Si 4.1184844912 6.8232337434 9.5809706356 
Si -0.0049409755 5.4599208702 5.4719897525 
Si 1.3802137192 9.5551543212 9.5773753445 
Si 2.7427345874 8.1895939420 5.4836112171 
Si 1.3783538717 6.8259714724 6.8539936446 
Si 2.7584155838 5.4660392955 8.2051310651 
Si 9.6208522169 4.1025464364 1.3611315929 
Si 5.4926064507 2.7249724710 2.7331647518 
Si 9.6264472609 1.3705817122 4.0982529872 
Si 5.4963145446 -0.0045250189 0.0039529157 
Si 6.8689338585 4.1005479165 4.1010001731 
Si 8.2527266738 2.7381581024 0.0034086203 
Si 6.8681596980 1.3570608467 1.3617724448 
Si 8.2612435379 -0.0031169583 2.7424735227 
Si 9.6238939699 4.0889647903 6.8433865091 
Si 5.5018641265 2.7209153475 8.2034280440 
Si 9.6269865990 1.3700051243 9.5844142174 
Si 5.5006855842 -0.0056385736 5.4719915605 
Si 6.8814278463 4.0863553869 9.5726783325 
Si 8.2433809441 2.7296046727 5.4729849343 
Si 6.8869166976 1.3703588400 6.8347483679 
Si 8.2474604666 0.0065202265 8.2049279851 
Si 9.6320842099 9.5499116816 1.3787372583 
Si 5.5002699148 8.1929642946 2.7371340600 
Si 9.6245786980 6.8211353769 4.1001061225 
Si 5.4991316357 5.4586470040 0.0061402596 
Si 6.8787281340 9.5497397586 4.1045344240 
Si 8.2572494537 8.1996999009 -0.0005332261 
Si 6.8778892675 6.8169902285 1.3660087157 
Si 8.2568270159 5.4682468972 2.7417822947 
Si 9.6189064544 9.5594106365 6.8370834802 
Si 5.5079674275 8.1947927403 8.2082269628 
Si 9.6283469916 6.8287952396 9.5719399997 
Si 5.5102443051 5.4601727289 5.4744937378 
Si 6.8742455559 9.5465551210 9.5717883478 
Si 8.2471055814 8.1842978128 5.4759730070 
Si 6.8733602507 6.8243532534 6.8519223428 
Si 8.2572803641 5.4547386970 8.2142541793 

