&CONTROL
   calculation      = 'scf'
   tstress          = '.true.'
   tprnfor          = '.true.'
   outdir           = './'
   disk_io          = 'none'
   pseudo_dir       = './'
/
&SYSTEM
   ecutwfc          = 30
   input_dft        = 'PBE'
   ntyp             = 1
   nat              = 64
   ibrav            = 0
/
&ELECTRONS
   electron_maxstep = 1000
   mixing_beta      = 0.5
/
&IONS
/
&CELL
/

ATOMIC_SPECIES
Si 28.085 Si_ONCV_PBE-1.0.upf

K_POINTS gamma

CELL_PARAMETERS angstrom
11.05865348546672 0.00000000000000 0.00000000000000
0.00000000000000 11.04872550190343 0.00000000000000
0.00000000000000 0.00000000000000 11.00617218504274

ATOMIC_POSITIONS angstrom
Si 4.1357292204 4.1607467639 1.3839378887 
Si -0.0097496388 2.7884370647 2.7598064989 
Si 4.1451376370 1.3831110832 4.1379175083 
Si -0.0045610300 0.0091925461 0.0014942260 
Si 1.3843521216 4.1589810549 4.1502261416 
Si 2.7650957532 2.7776545967 0.0066813322 
Si 1.3857623502 1.3803961510 1.3836201898 
Si 2.7531509646 -0.0049808774 2.7722764230 
Si 4.1481560471 4.1685987870 6.9057729611 
Si 0.0017088097 2.7751296414 8.2912714806 
Si 4.1471788319 1.3803613116 9.6666286311 
Si -0.0011647018 0.0095688323 5.5298895950 
Si 1.3757169076 4.1676682160 9.6774084368 
Si 2.7652750245 2.7838142297 5.5235051144 
Si 1.3772645447 1.3891488756 6.9121389181 
Si 2.7590886894 -0.0052970703 8.3007514486 
Si 4.1509422540 9.7324616750 1.3890832690 
Si -0.0069188034 8.3374614367 2.7611406505 
Si 4.1435906585 6.9449690945 4.1378858350 
Si -0.0042461717 5.5558448296 0.0064620999 
Si 1.3841671809 9.7193399816 4.1449606460 
Si 2.7560781271 8.3390979183 0.0041591376 
Si 1.3803600565 6.9513835168 1.3847950870 
Si 2.7669448927 5.5663999437 2.7639869853 
Si 4.1355682697 9.7157263020 6.9068344788 
Si -0.0050034624 8.3308917613 8.2870737206 
Si 4.1402132262 6.9557182288 9.6713395298 
Si -0.0064465310 5.5470749412 5.5310159091 
Si 1.3725605047 9.7305208076 9.6649844827 
Si 2.7685834809 8.3379251187 5.5250588472 
Si 1.3861326812 6.9475581575 6.9149537100 
Si 2.7547796991 5.5554018408 8.3010356949 
Si 9.6703293070 4.1601703109 1.3887020851 
Si 5.5184961191 2.7853862555 2.7543860416 
Si 9.6749346582 1.3866097111 4.1408721890 
Si 5.5297991350 0.0096317495 0.0061653574 
Si 6.9044154512 4.1680030877 4.1374121447 
Si 8.2808645571 2.7775042964 0.0034617558 
Si 6.9103097972 1.3851212533 1.3804412772 
Si 8.2905118305 -0.0024659241 2.7611319390 
Si 9.6595258722 4.1663580679 6.9149433082 
Si 5.5187041582 2.7850746112 8.2872838971 
Si 9.6681001812 1.3829219840 9.6671810145 
Si 5.5309436175 0.0023882272 5.5202036909 
Si 6.9029794004 4.1698158575 9.6762393604 
Si 8.2879820908 2.7694456513 5.5287215316 
Si 6.9004482634 1.3927704124 6.9169250496 
Si 8.2827486209 0.0044379803 8.2843176783 
Si 9.6628264084 9.7150402211 1.3831341895 
Si 5.5278695521 8.3372349953 2.7640925603 
Si 9.6735403065 6.9463492439 4.1539723893 
Si 5.5227004168 5.5668665200 -0.0055224712 
Si 6.9100968306 9.7233980443 4.1431182850 
Si 8.2919741629 8.3351558291 -0.0080070580 
Si 6.9120214602 6.9367316153 1.3823525724 
Si 8.2821799649 5.5593620817 2.7653985113 
Si 9.6627551161 9.7182564930 6.9055447448 
Si 5.5180193978 8.3375167306 8.2958420269 
Si 9.6665380524 6.9378799592 9.6650167532 
Si 5.5188994664 5.5585356575 5.5253864588 
Si 6.8968467321 9.7273851162 9.6831374539 
Si 8.2774055795 8.3424534296 5.5322885221 
Si 6.8973501534 6.9455641303 6.9142060355 
Si 8.2957662328 5.5584727216 8.2999540135 

