&CONTROL
   calculation      = 'scf'
   tstress          = '.true.'
   tprnfor          = '.true.'
   outdir           = './'
   disk_io          = 'none'
   pseudo_dir       = './'
/
&SYSTEM
   ecutwfc          = 30
   input_dft        = 'PBE'
   ntyp             = 1
   nat              = 64
   ibrav            = 0
/
&ELECTRONS
   electron_maxstep = 1000
   mixing_beta      = 0.5
/
&IONS
/
&CELL
/

ATOMIC_SPECIES
Si 28.085 Si_ONCV_PBE-1.0.upf

K_POINTS gamma

CELL_PARAMETERS angstrom
10.95473642257344 0.00000000000000 0.00000000000000
0.00000000000000 10.96835578936159 0.00000000000000
0.00000000000000 0.00000000000000 11.04209130580314

ATOMIC_POSITIONS angstrom
Si 4.0736287225 4.1272272341 1.3912949985 
Si -0.0039991600 2.7587524483 2.7954073197 
Si 4.0636699425 1.3848567381 4.1818832274 
Si -0.0043350584 0.0019171519 0.0004500735 
Si 1.3646161157 4.1273168955 4.1807205823 
Si 2.7231768274 2.7579204016 0.0094689266 
Si 1.3639565564 1.3881930064 1.3989688505 
Si 2.7103926885 -0.0026499134 2.7849171184 
Si 4.0686905808 4.1268779367 6.9586000028 
Si 0.0032345121 2.7669293412 8.3662872915 
Si 4.0759612550 1.3844694748 9.7425983774 
Si -0.0090021868 0.0081619203 5.5710148159 
Si 1.3537842766 4.1334798873 9.7524139381 
Si 2.7161248145 2.7673190615 5.5796521514 
Si 1.3643435540 1.3858992337 6.9634825769 
Si 2.7132080406 -0.0060987349 8.3651138039 
Si 4.0629811732 9.6602457153 1.3968287150 
Si -0.0044074443 8.2706102573 2.7915135785 
Si 4.0821610549 6.9015108681 4.1813029151 
Si 0.0085870989 5.5200862393 0.0068360605 
Si 1.3526865338 9.6493849571 4.1712531289 
Si 2.7138152182 8.2794607422 0.0024405346 
Si 1.3542259148 6.8973374891 1.3841886565 
Si 2.7058426267 5.5243034272 2.7858867754 
Si 4.0669515495 9.6410034404 6.9704827288 
Si 0.0059229225 8.2731608383 8.3610985018 
Si 4.0715107228 6.8968826241 9.7531684956 
Si -0.0056172274 5.5223753653 5.5774469285 
Si 1.3626830636 9.6480702846 9.7483431467 
Si 2.7182961702 8.2814400205 5.5785222947 
Si 1.3599652271 6.8963116032 6.9613138690 
Si 2.7229350716 5.5156697352 8.3609957856 
Si 9.4969201997 4.1274304370 1.3898424991 
Si 5.4269431638 2.7581051545 2.7891084496 
Si 9.4927942045 1.3781228288 4.1831991647 
Si 5.4240707130 0.0039347553 -0.0096053066 
Si 6.7774164074 4.1302039995 4.1879076656 
Si 8.1505685582 2.7649581414 -0.0030790555 
Si 6.7898252651 1.3793213638 1.3975537311 
Si 8.1516404126 -0.0007077682 2.7874343420 
Si 9.5011929092 4.1340236436 6.9605513104 
Si 5.4305185007 2.7562272171 8.3540530263 
Si 9.4995020212 1.3740259440 9.7571754111 
Si 5.4280518598 -0.0018320671 5.5734231773 
Si 6.7951681786 4.1275460817 9.7431951780 
Si 8.1521661486 2.7528085052 5.5691123065 
Si 6.7823415698 1.3770436221 6.9591256973 
Si 8.1355171329 -0.0060476084 8.3501934972 
Si 9.5041568475 9.6552131850 1.3920356090 
Si 5.4258932155 8.2699265118 2.7907957498 
Si 9.4994005664 6.8954790567 4.1752692472 
Si 5.4213366720 5.5188869877 -0.0093307996 
Si 6.7805520087 9.6542590976 4.1851333026 
Si 8.1368404122 8.2684066992 0.0025318015 
Si 6.7932568576 6.8930119504 1.3873720060 
Si 8.1475337008 5.5203331283 2.7769015497 
Si 9.5006241904 9.6533437336 6.9710562209 
Si 5.4262495257 8.2702665896 8.3526769467 
Si 9.4949710958 6.8927750053 9.7423348228 
Si 5.4303553342 5.5051094488 5.5650011168 
Si 6.7947546344 9.6592126415 9.7522481638 
Si 8.1408011485 8.2622486073 5.5643824069 
Si 6.7812752916 6.8967284288 6.9749413221 
Si 8.1499662230 5.5190511268 8.3584280448 

