&CONTROL
   calculation      = 'scf'
   tstress          = .true.
   tprnfor          = .true.
   outdir           = './'
   disk_io          = 'none'
   pseudo_dir       = '/home/ppiaggi/pseudos'
/
&SYSTEM
   ecutwfc          = 30
   occupations      = 'smearing'
   degauss          = 0.01
   smearing         = 'fermi-dirac'
   input_dft        = 'PBE'
   ntyp             = 1
   nat              = 64
   ibrav            = 0
/
&ELECTRONS
   electron_maxstep = 100
   mixing_beta      = 0.5
/
&IONS
/
&CELL
/

ATOMIC_SPECIES
Si 28.085 Si_ONCV_PBE_sr.upf

K_POINTS gamma

CELL_PARAMETERS angstrom
11.09062983870969 0.00000000000000 0.00000000000000
0.00000000000000 10.91271553819368 0.00000000000000
0.00000000000000 0.00000000000000 11.02294338003465

ATOMIC_POSITIONS angstrom
Si -0.0038001159 0.0046353157 0.0052352805 
Si -0.0085586499 2.7329679343 2.7789980854 
Si 2.7776215268 0.0035908196 2.7831981075 
Si 2.7691001998 2.7431899406 -0.0063673647 
Si 1.3811861238 1.3695824833 1.3865637046 
Si 5.5544867878 -0.0043800033 0.0068562360 
Si 5.5549377613 2.7426673020 2.7752972414 
Si 6.9509678527 1.3781787068 1.3954475982 
Si 8.3304074522 -0.0022582906 2.7789094857 
Si 8.3373715222 2.7304099154 -0.0017307434 
Si -0.0001821999 5.4888660666 0.0010728030 
Si 2.7796654753 5.4771277740 2.7846447265 
Si 1.3978224585 6.8527855054 1.4007238155 
Si 4.1765507109 4.1052331097 1.3920355801 
Si 5.5538316823 5.4744922551 -0.0010931086 
Si 6.9407130965 6.8499322200 1.3844663936 
Si 9.7300483740 4.1088943433 1.3849965220 
Si 8.3403322362 5.4707840939 2.7763393239 
Si -0.0074151773 8.2226140669 2.7883502810 
Si 2.7824820315 8.2188771491 -0.0092219343 
Si 4.1646287425 9.5918924653 1.4007841972 
Si 5.5475793695 8.2176591121 2.7841885440 
Si 8.3340594751 8.2205380816 -0.0025394427 
Si 9.7316552556 9.5950373878 1.3899991219 
Si -0.0046032524 0.0026931110 5.5648523443 
Si 2.7823338817 2.7392556388 5.5659421961 
Si 1.3870104989 1.3791703686 6.9675929946 
Si 4.1645449259 1.3654216617 4.1658488290 
Si 5.5624387926 -0.0046401653 5.5731588567 
Si 6.9416649771 1.3768040554 6.9558365416 
Si 9.7194351805 1.3696920250 4.1733392032 
Si 8.3249051386 2.7330549372 5.5739137717 
Si 1.3973896971 4.1105491906 4.1839451683 
Si 0.0000850727 5.4891346360 5.5635404890 
Si 1.3979035591 6.8546198107 6.9505983021 
Si 6.9521911817 4.1102806838 4.1648565602 
Si 4.1626294790 6.8529228256 4.1697680317 
Si 4.1738101603 4.1068786923 6.9519950657 
Si 5.5626611756 5.4819506988 5.5659558942 
Si 6.9452383185 6.8473092631 6.9571900672 
Si 9.7270600512 6.8469981884 4.1843262563 
Si 9.7262422368 4.1042435997 6.9493871084 
Si 1.3835010676 9.5805137354 4.1824433383 
Si 2.7790650614 8.2141634168 5.5665847180 
Si 6.9460909219 9.5803831504 4.1825586096 
Si 4.1607788404 9.5872464321 6.9644619913 
Si 8.3367985387 8.2268795251 5.5591983242 
Si 9.7157022813 9.5840881901 6.9570986711 
Si 0.0064881699 2.7408000108 8.3461841497 
Si 2.7748754017 0.0093909430 8.3472391869 
Si 4.1718549727 1.3739163286 9.7493500792 
Si 5.5593811048 2.7467422038 8.3500753353 
Si 8.3335768478 0.0037803909 8.3422684568 
Si 9.7247893347 1.3636461010 9.7401938218 
Si 1.3825390301 4.1014114284 9.7426434001 
Si 2.7753045742 5.4706590176 8.3416458564 
Si 6.9451234044 4.1072354905 9.7315642960 
Si 4.1705342048 6.8408204033 9.7328035309 
Si 8.3437566932 5.4801547204 8.3587193898 
Si 9.7170773664 6.8413220031 9.7449395774 
Si -0.0087464838 8.2126103138 8.3479118572 
Si 1.3805356107 9.5816278769 9.7340048909 
Si 5.5642848303 8.2110487097 8.3529920800 
Si 6.9417534092 9.5895927056 9.7455522481 

