&CONTROL
   calculation      = 'scf'
   tstress          = .true.
   tprnfor          = .true.
   outdir           = './'
   disk_io          = 'none'
   pseudo_dir       = '/home/ppiaggi/pseudos'
/
&SYSTEM
   ecutwfc          = 30
   occupations      = 'smearing'
   degauss          = 0.01
   smearing         = 'fermi-dirac'
   input_dft        = 'PBE'
   ntyp             = 1
   nat              = 64
   ibrav            = 0
/
&ELECTRONS
   electron_maxstep = 100
   mixing_beta      = 0.5
/
&IONS
/
&CELL
/

ATOMIC_SPECIES
Si 28.085 Si_ONCV_PBE_sr.upf

K_POINTS gamma

CELL_PARAMETERS angstrom
11.05716632902149 0.00000000000000 0.00000000000000
0.00000000000000 10.89469614271478 0.00000000000000
0.00000000000000 0.00000000000000 10.98840926764211

ATOMIC_POSITIONS angstrom
Si 0.0030689343 0.0041858347 -0.0066125598 
Si 0.0035155800 2.7231422021 2.7587851533 
Si 2.7827683518 0.0017958169 2.7655219306 
Si 2.7798850579 2.7293244447 0.0047340187 
Si 1.3979677732 1.3753214119 1.3814938620 
Si 5.5609017384 0.0014852990 0.0062222951 
Si 5.5555200013 2.7370815505 2.7619323623 
Si 6.9432313589 1.3742758248 1.3804758470 
Si 8.3306255678 0.0086954967 2.7524185219 
Si 8.3265823014 2.7378837265 0.0032114141 
Si 0.0047617106 5.4598614703 0.0099348258 
Si 2.7825446007 5.4579702761 2.7596342940 
Si 1.3889313079 6.8343734261 1.3706298175 
Si 4.1735091439 4.0907815888 1.3734382505 
Si 5.5528738830 5.4686557850 0.0022275058 
Si 6.9419762264 6.8300656829 1.3866158185 
Si 9.7311649835 4.0928928413 1.3735973463 
Si 8.3302924519 5.4588360993 2.7522396239 
Si -0.0035373263 8.1937684987 2.7473870289 
Si 2.7760041053 8.1836492316 -0.0046268128 
Si 4.1604006626 9.5555270338 1.3853085105 
Si 5.5600373194 8.1967164954 2.7562138164 
Si 8.3372293473 8.1901709966 0.0015314199 
Si 9.7285789747 9.5621949227 1.3832574811 
Si -0.0034733302 -0.0081280064 5.5075100408 
Si 2.7719607038 2.7383285546 5.5151093272 
Si 1.3802411751 1.3712116299 6.8893961533 
Si 4.1692454177 1.3701734005 4.1379701521 
Si 5.5536699687 0.0051043897 5.5187854007 
Si 6.9526849202 1.3675742044 6.8840627601 
Si 9.7219516838 1.3696989976 4.1326790328 
Si 8.3236479581 2.7388312193 5.5052582725 
Si 1.3822324300 4.0930269036 4.1419530336 
Si 0.0095480348 5.4672051285 5.5119334702 
Si 1.3916591044 6.8207655465 6.8855563835 
Si 6.9483970687 4.0921684411 4.1413315396 
Si 4.1692238771 6.8175711527 4.1394978874 
Si 4.1713367966 4.1016190235 6.8925129386 
Si 5.5576162350 5.4625777410 5.5189890317 
Si 6.9365082585 6.8226053614 6.8902214609 
Si 9.7273625486 6.8311285495 4.1362516910 
Si 9.7248604480 4.0885839227 6.8843531888 
Si 1.3948445660 9.5681382409 4.1381264453 
Si 2.7693131120 8.2018964051 5.5092939384 
Si 6.9411996165 9.5675755463 4.1431368806 
Si 4.1758883191 9.5636140153 6.8904849416 
Si 8.3321319357 8.2012248020 5.5128907646 
Si 9.7310721853 9.5677135847 6.8975534423 
Si 0.0010897660 2.7226153877 8.2682215584 
Si 2.7834530716 -0.0058059944 8.2751463455 
Si 4.1669757551 1.3648511620 9.6381542692 
Si 5.5462076468 2.7319866546 8.2590642989 
Si 8.3289396407 -0.0064203249 8.2734159352 
Si 9.7221379891 1.3610295256 9.6515517546 
Si 1.3836030220 4.0934337875 9.6554282132 
Si 2.7876991099 5.4704200309 8.2720014517 
Si 6.9435395824 4.1047556357 9.6519893505 
Si 4.1608185240 6.8259670835 9.6385128030 
Si 8.3365171136 5.4598592100 8.2697364843 
Si 9.7317098876 6.8372469774 9.6487789623 
Si -0.0080856448 8.1866572877 8.2785151016 
Si 1.3821248215 9.5606172133 9.6417331610 
Si 5.5554302427 8.1849554823 8.2785015941 
Si 6.9499646054 9.5657676704 9.6452194471 

