&CONTROL
   calculation      = 'scf'
   tstress          = .true.
   tprnfor          = .true.
   outdir           = './'
   disk_io          = 'none'
   pseudo_dir       = '/home/ppiaggi/pseudos'
/
&SYSTEM
   ecutwfc          = 30
   occupations      = 'smearing'
   degauss          = 0.01
   smearing         = 'fermi-dirac'
   input_dft        = 'PBE'
   ntyp             = 1
   nat              = 64
   ibrav            = 0
/
&ELECTRONS
   electron_maxstep = 100
   mixing_beta      = 0.5
/
&IONS
/
&CELL
/

ATOMIC_SPECIES
Si 28.085 Si_ONCV_PBE_sr.upf

K_POINTS gamma

CELL_PARAMETERS angstrom
10.88335861906935 0.00000000000000 0.00000000000000
0.00000000000000 11.07990222845108 0.00000000000000
0.00000000000000 0.00000000000000 11.03626378306450

ATOMIC_POSITIONS angstrom
Si -0.0097635053 0.0000196732 -0.0021476081 
Si -0.0066094162 2.7988900805 2.7391888679 
Si 2.6968867038 -0.0034560923 2.7393405588 
Si 2.6965079067 2.7915906124 0.0047876610 
Si 1.3475026961 1.3935928074 1.3620829616 
Si 5.3989543147 -0.0046068244 0.0062312088 
Si 5.3847459331 2.7942796344 2.7414485798 
Si 6.7502671976 1.4051324563 1.3667839262 
Si 8.1008100321 0.0031690622 2.7301920706 
Si 8.1007472800 2.7865671730 0.0074411665 
Si 0.0071651022 5.5776626498 0.0073263766 
Si 2.7033313500 5.5763638358 2.7363993704 
Si 1.3482587669 6.9819752257 1.3672228937 
Si 4.0416555455 4.1952015698 1.3764287084 
Si 5.3941350803 5.5812407084 -0.0043511589 
Si 6.7454744497 6.9766629175 1.3783901806 
Si 9.4433317063 4.1865251005 1.3718441074 
Si 8.1014353492 5.5780367098 2.7342343796 
Si -0.0010751490 8.3851544905 2.7308662367 
Si 2.6875428250 8.3752719768 0.0036346309 
Si 4.0392869835 9.7697244713 1.3653139842 
Si 5.3954715195 8.3863831760 2.7495091897 
Si 8.0883134239 8.3848148646 0.0007557286 
Si 9.4312326539 9.7686295817 1.3797574860 
Si -0.0058504373 -0.0068210736 5.4795950808 
Si 2.6916030418 2.7861097037 5.4883752621 
Si 1.3546728846 1.3872520159 6.8543373446 
Si 4.0450012674 1.3962324354 4.1176349071 
Si 5.4000108218 0.0073339780 5.4717327608 
Si 6.7428520701 1.4015766440 6.8528544429 
Si 9.4321521055 1.4014063150 4.1014215150 
Si 8.0866198947 2.8002426879 5.4758762389 
Si 1.3552633772 4.1811882853 4.1062614217 
Si -0.0062786044 5.5812360927 5.4737619783 
Si 1.3496259728 6.9902626406 6.8562848151 
Si 6.7473261320 4.1945285342 4.1157307246 
Si 4.0368089059 6.9815035808 4.1144479258 
Si 4.0473737017 4.1958184216 6.8456721168 
Si 5.3920555780 5.5909525769 5.4866410167 
Si 6.7435531638 6.9735768382 6.8447894966 
Si 9.4471330546 6.9801530519 4.1082514990 
Si 9.4327402565 4.1789186655 6.8586711586 
Si 1.3455999752 9.7707406294 4.1190290867 
Si 2.6984494208 8.3751079371 5.4832600783 
Si 6.7351041765 9.7788458678 4.1132679343 
Si 4.0476929248 9.7745577972 6.8544669862 
Si 8.0822747952 8.3821329921 5.4784593010 
Si 9.4446397943 9.7821218706 6.8497720072 
Si 0.0041829621 2.7842031661 8.2201106458 
Si 2.6987982041 0.0082759097 8.2194377282 
Si 4.0536175058 1.4062811884 9.5868492465 
Si 5.3922497541 2.7909125742 8.2188169967 
Si 8.0928080198 0.0086936603 8.2210592631 
Si 9.4329651580 1.3935677975 9.5849319022 
Si 1.3439789710 4.1931004783 9.5945199372 
Si 2.6969892547 5.5822603580 8.2206393234 
Si 6.7429531088 4.1960912700 9.5820645225 
Si 4.0380507251 6.9857276947 9.5872866069 
Si 8.0864212305 5.5860402077 8.2228864954 
Si 9.4349984165 6.9758285248 9.5949528068 
Si -0.0081973742 8.3697153222 8.2157501712 
Si 1.3430516780 9.7829873595 9.5918244623 
Si 5.3860232092 8.3737905356 8.2108920587 
Si 6.7339576458 9.7666764819 9.5811966117 

