&CONTROL
   calculation      = 'scf'
   tstress          = .true.
   tprnfor          = .true.
   outdir           = './'
   disk_io          = 'none'
   pseudo_dir       = '/home/ppiaggi/pseudos'
/
&SYSTEM
   ecutwfc          = 30
   occupations      = 'smearing'
   degauss          = 0.01
   smearing         = 'fermi-dirac'
   input_dft        = 'PBE'
   ntyp             = 1
   nat              = 64
   ibrav            = 0
/
&ELECTRONS
   electron_maxstep = 100
   mixing_beta      = 0.5
/
&IONS
/
&CELL
/

ATOMIC_SPECIES
Si 28.085 Si_ONCV_PBE_sr.upf

K_POINTS gamma

CELL_PARAMETERS angstrom
10.96455628842275 0.00000000000000 0.00000000000000
0.00000000000000 10.95570063494098 0.00000000000000
0.00000000000000 0.00000000000000 11.03887629746996

ATOMIC_POSITIONS angstrom
Si 0.0023169253 0.0089206036 -0.0006631947 
Si 0.0079708853 2.7443279172 2.7460760827 
Si 2.7404874856 0.0083046057 2.7364871221 
Si 2.7421846314 2.7310597375 0.0014529481 
Si 1.3672068935 1.3638906044 1.3696713941 
Si 5.4988382456 -0.0031091669 0.0017701376 
Si 5.4997670862 2.7335244114 2.7353385150 
Si 6.8772109342 1.3622748842 1.3783578517 
Si 8.2539698110 0.0073234736 2.7414787853 
Si 8.2520836554 2.7333366862 -0.0051535656 
Si 0.0086470798 5.4791120791 0.0030088144 
Si 2.7574505836 5.4788671206 2.7489421874 
Si 1.3824945885 6.8364818588 1.3765206042 
Si 4.1164216009 4.0967429956 1.3683495163 
Si 5.5025236588 5.4669950448 0.0071519565 
Si 6.8619649532 6.8335324121 1.3787216820 
Si 9.6287654629 4.0936668495 1.3698674425 
Si 8.2561571747 5.4667892955 2.7445438909 
Si -0.0081075243 8.1994987569 2.7444417982 
Si 2.7512689541 8.2042322860 -0.0095877056 
Si 4.1243563356 9.5762722131 1.3712626966 
Si 5.5021422749 8.1996664938 2.7515165393 
Si 8.2495956956 8.1991910060 0.0067065367 
Si 9.6224007413 9.5659714199 1.3731256017 
Si 0.0077169304 -0.0053989388 5.4828497892 
Si 2.7554332986 2.7359859131 5.4769586758 
Si 1.3698723194 1.3615600602 6.8582252004 
Si 4.1253806158 1.3732407985 4.1224634960 
Si 5.4903468500 -0.0057499734 5.4899799454 
Si 6.8786494712 1.3685444181 6.8578741944 
Si 9.6175589855 1.3747772990 4.1066813624 
Si 8.2464238532 2.7309554759 5.4951703219 
Si 1.3719208326 4.0935163804 4.1198118512 
Si 0.0013161865 5.4747714314 5.4897086704 
Si 1.3726423619 6.8362256603 6.8477035550 
Si 6.8664875167 4.0932579146 4.1199467964 
Si 4.1145738060 6.8460359517 4.1221784026 
Si 4.1146628386 4.1092829159 6.8662049730 
Si 5.4902859072 5.4705140456 5.4805799448 
Si 6.8763786244 6.8333879995 6.8606190665 
Si 9.6148579972 6.8361050337 4.1062637083 
Si 9.6231957656 4.0956983264 6.8469623994 
Si 1.3703929294 9.5701262158 4.1124896237 
Si 2.7546162351 8.2029450172 5.4911624978 
Si 6.8796419139 9.5641430441 4.1210115140 
Si 4.1320500836 9.5779054923 6.8513637430 
Si 8.2493252820 8.2065984238 5.4767119682 
Si 9.6209097876 9.5743975189 6.8538742271 
Si 0.0090488435 2.7416695455 8.2202832287 
Si 2.7559909192 0.0049608866 8.2376667565 
Si 4.1197698456 1.3719690307 9.6050819415 
Si 5.5069866150 2.7394098936 8.2379635658 
Si 8.2444545112 0.0026581757 8.2193062368 
Si 9.6171407397 1.3679801322 9.6080321094 
Si 1.3731812052 4.1045525934 9.5905981929 
Si 2.7497798689 5.4698878625 8.2334165889 
Si 6.8762332336 4.1035420415 9.6033819103 
Si 4.1251299463 6.8423874059 9.6059965629 
Si 8.2489936811 5.4744221866 8.2344414472 
Si 9.6125258826 6.8322784104 9.6017971936 
Si 0.0075368979 8.2005872714 8.2217446496 
Si 1.3836356151 9.5648299635 9.5974152554 
Si 5.5014350079 8.2049855830 8.2279178248 
Si 6.8767432189 9.5649747256 9.6096013326 

