&CONTROL
   calculation      = 'scf'
   tstress          = .true.
   tprnfor          = .true.
   outdir           = './'
   disk_io          = 'none'
   pseudo_dir       = '/home/ppiaggi/pseudos'
/
&SYSTEM
   ecutwfc          = 30
   occupations      = 'smearing'
   degauss          = 0.01
   smearing         = 'fermi-dirac'
   input_dft        = 'PBE'
   ntyp             = 1
   nat              = 64
   ibrav            = 0
/
&ELECTRONS
   electron_maxstep = 100
   mixing_beta      = 0.5
/
&IONS
/
&CELL
/

ATOMIC_SPECIES
Si 28.085 Si_ONCV_PBE_sr.upf

K_POINTS gamma

CELL_PARAMETERS angstrom
11.01999972769891 0.00000000000000 0.00000000000000
0.00000000000000 11.06083812604063 0.00000000000000
0.00000000000000 0.00000000000000 10.99314531569168

ATOMIC_POSITIONS angstrom
Si 0.0074794899 -0.0022350111 0.0067873558 
Si -0.0015669136 2.7559016460 2.7322959302 
Si 2.7448590033 0.0051805903 2.7361951273 
Si 2.7466668705 2.7448029510 -0.0020233244 
Si 1.3856390336 1.3708219310 1.3658854960 
Si 5.4938714391 -0.0081895760 0.0009243530 
Si 5.4934538742 2.7420080331 2.7444417264 
Si 6.8835807862 1.3727276680 1.3804743719 
Si 8.2607362319 0.0081484206 2.7391672607 
Si 8.2498154273 2.7431942430 0.0096222122 
Si -0.0069982354 5.4889554185 -0.0077983916 
Si 2.7534849709 5.4887914896 2.7336915139 
Si 1.3699748774 6.8693770067 1.3725851888 
Si 4.1291445230 4.1147162755 1.3670433570 
Si 5.4968596297 5.5006662087 -0.0040858871 
Si 6.8736963802 6.8638723250 1.3767904075 
Si 9.6238235764 4.1170022776 1.3698014931 
Si 8.2625494571 5.4988347286 2.7334327678 
Si -0.0020081249 8.2373109283 2.7475367906 
Si 2.7586297598 8.2509648192 0.0058651388 
Si 4.1209544343 9.6145242668 1.3688584791 
Si 5.5067551710 8.2458616601 2.7384932799 
Si 8.2518956750 8.2449680711 -0.0022647645 
Si 9.6259198505 9.6111013895 1.3722837082 
Si 0.0063407365 -0.0080909257 5.4850845775 
Si 2.7445876733 2.7428804431 5.4739106665 
Si 1.3831960478 1.3762394279 6.8514983684 
Si 4.1287411165 1.3764843186 4.1152517574 
Si 5.5128679187 0.0051206353 5.4795450180 
Si 6.8694506800 1.3645596605 6.8632147174 
Si 9.6331362859 1.3806711907 4.1164330500 
Si 8.2587642168 2.7578409857 5.4749318358 
Si 1.3679290955 4.1272218312 4.1168966235 
Si -0.0013741174 5.4938338297 5.4881803725 
Si 1.3688467259 6.8728242362 6.8463805529 
Si 6.8823049860 4.1212809241 4.1137078290 
Si 4.1349555997 6.8785798083 4.1067563956 
Si 4.1191708142 4.1291403304 6.8543438686 
Si 5.5088072337 5.4967909540 5.4870614449 
Si 6.8720077779 6.8652927237 6.8583669673 
Si 9.6236742431 6.8678237829 4.1212058880 
Si 9.6336150873 4.1220707547 6.8458590399 
Si 1.3766117870 9.6136728347 4.1196144164 
Si 2.7543501170 8.2401460893 5.4855136325 
Si 6.8800509024 9.6294827255 4.1139172944 
Si 4.1370874193 9.6167025102 6.8484036546 
Si 8.2497621117 8.2492703697 5.4771307772 
Si 9.6398422519 9.6149804800 6.8511311068 
Si 0.0074879404 2.7574727350 8.2331908271 
Si 2.7572864200 -0.0045481519 8.2344593817 
Si 4.1246897861 1.3667618999 9.5957543753 
Si 5.4986066464 2.7487765575 8.2158077558 
Si 8.2460152415 0.0071228436 8.2303996066 
Si 9.6252166054 1.3748509181 9.5885294879 
Si 1.3853447019 4.1131333011 9.6016801995 
Si 2.7467902773 5.4989958446 8.2293445703 
Si 6.8815895981 4.1202278936 9.6048189079 
Si 4.1236984987 6.8629973119 9.6003760093 
Si 8.2616602456 5.4921343382 8.2327050862 
Si 9.6324476056 6.8726792002 9.5975527407 
Si -0.0073860655 8.2479084247 8.2293664399 
Si 1.3754570736 9.6229822809 9.5872744965 
Si 5.5084556329 8.2444243019 8.2274771085 
Si 6.8885997860 9.6173253227 9.5928095571 

