&CONTROL
   calculation      = 'scf'
   tstress          = .true.
   tprnfor          = .true.
   outdir           = './'
   disk_io          = 'none'
   pseudo_dir       = '/home/ppiaggi/pseudos'
/
&SYSTEM
   ecutwfc          = 30
   occupations      = 'smearing'
   degauss          = 0.01
   smearing         = 'fermi-dirac'
   input_dft        = 'PBE'
   ntyp             = 1
   nat              = 64
   ibrav            = 0
/
&ELECTRONS
   electron_maxstep = 100
   mixing_beta      = 0.5
/
&IONS
/
&CELL
/

ATOMIC_SPECIES
Si 28.085 Si_ONCV_PBE_sr.upf

K_POINTS gamma

CELL_PARAMETERS angstrom
11.01984815244312 0.00000000000000 0.00000000000000
0.00000000000000 11.06297152118120 0.00000000000000
0.00000000000000 0.00000000000000 11.06757837411590

ATOMIC_POSITIONS angstrom
Si -0.0041512884 -0.0018224119 0.0053736652 
Si 0.0042255472 2.7686984283 2.7512891838 
Si 2.7474166662 -0.0032347209 2.7499214264 
Si 2.7506426419 2.7514527970 0.0036593320 
Si 1.3741771621 1.3854334606 1.3677659029 
Si 5.5070533796 -0.0012682559 0.0051811664 
Si 5.5149367934 2.7560469077 2.7426030525 
Si 6.8855180883 1.3807714299 1.3750085455 
Si 8.2695736330 0.0035275417 2.7526404960 
Si 8.2717968475 2.7620764505 -0.0000553446 
Si 0.0028685164 5.5116439296 0.0000509275 
Si 2.7645702469 5.5290342609 2.7601000886 
Si 1.3677153897 6.9016751757 1.3685982470 
Si 4.1387830243 4.1416079114 1.3667059059 
Si 5.5009371141 5.5157040254 -0.0020589298 
Si 6.8882532988 6.8981968013 1.3749102114 
Si 9.6413438398 4.1314550113 1.3714829987 
Si 8.2707215591 5.5289054578 2.7505696643 
Si 0.0040691031 8.2838037168 2.7523617771 
Si 2.7508600332 8.2898430887 -0.0006938870 
Si 4.1362616591 9.6543056949 1.3764999041 
Si 5.5047624360 8.2753307804 2.7512325207 
Si 8.2740474514 8.2780290785 -0.0042776718 
Si 9.6422723528 9.6625001126 1.3737354735 
Si 0.0063873001 -0.0017655030 5.5133079450 
Si 2.7516464866 2.7606039172 5.4997910924 
Si 1.3875818068 1.3862555736 6.8749588165 
Si 4.1288560050 1.3786348399 4.1268938095 
Si 5.5101608847 -0.0095333852 5.5131785343 
Si 6.8862273340 1.3759816529 6.8859098359 
Si 9.6342320413 1.3813977178 4.1347365257 
Si 8.2610935240 2.7704957847 5.5100872066 
Si 1.3734375206 4.1469453964 4.1189253738 
Si 0.0078479701 5.5128146037 5.4963715904 
Si 1.3792032755 6.9087808755 6.8808947050 
Si 6.8819781364 4.1322367521 4.1318716824 
Si 4.1331755586 6.8924112581 4.1235964489 
Si 4.1405894254 4.1502455546 6.8813315236 
Si 5.5053894979 5.5248054367 5.4973248084 
Si 6.8978820827 6.9118250369 6.8793123709 
Si 9.6417709993 6.9118557977 4.1194845106 
Si 9.6447178746 4.1311909194 6.8712112693 
Si 1.3798698395 9.6637615959 4.1201777966 
Si 2.7538626995 8.2817293640 5.5024438005 
Si 6.8880812197 9.6673923420 4.1368681193 
Si 4.1323926026 9.6618512505 6.8713185879 
Si 8.2694645352 8.2857344240 5.5128475096 
Si 9.6526310904 9.6660266990 6.8823620712 
Si -0.0055259698 2.7672610001 8.2576647350 
Si 2.7540373340 0.0024859312 8.2520781034 
Si 4.1237222291 1.3754494901 9.6389709795 
Si 5.5070868586 2.7557247027 8.2492173084 
Si 8.2652009992 -0.0082438797 8.2498652137 
Si 9.6478034927 1.3744516875 9.6272055660 
Si 1.3868091313 4.1479083121 9.6287044620 
Si 2.7619201598 5.5203300739 8.2599946669 
Si 6.8877518707 4.1414664843 9.6233108750 
Si 4.1364881359 6.9085953131 9.6256122507 
Si 8.2579509806 5.5127627669 8.2622618047 
Si 9.6465847192 6.9100623903 9.6263810469 
Si 0.0029679902 8.2863171306 8.2555401110 
Si 1.3704823125 9.6670965134 9.6244746545 
Si 5.5031192711 8.2882243895 8.2609870717 
Si 6.8868849122 9.6569711548 9.6327125979 

