&CONTROL
   calculation      = 'scf'
   tstress          = .true.
   tprnfor          = .true.
   outdir           = './'
   disk_io          = 'none'
   pseudo_dir       = '/home/ppiaggi/pseudos'
/
&SYSTEM
   ecutwfc          = 30
   occupations      = 'smearing'
   degauss          = 0.01
   smearing         = 'fermi-dirac'
   input_dft        = 'PBE'
   ntyp             = 1
   nat              = 64
   ibrav            = 0
/
&ELECTRONS
   electron_maxstep = 100
   mixing_beta      = 0.5
/
&IONS
/
&CELL
/

ATOMIC_SPECIES
Si 28.085 Si_ONCV_PBE_sr.upf

K_POINTS gamma

CELL_PARAMETERS angstrom
10.95394153078416 0.00000000000000 0.00000000000000
0.00000000000000 11.00268229156531 0.00000000000000
0.00000000000000 0.00000000000000 10.89363087886531

ATOMIC_POSITIONS angstrom
Si -0.0052046223 0.0078024791 -0.0025532392 
Si 0.0003467710 2.7225088985 2.7378586568 
Si 2.7353066828 0.0091113743 2.7408695814 
Si 2.7379846911 2.7277719387 0.0002156078 
Si 1.3692809575 1.3726889391 1.3792350725 
Si 5.4802398964 -0.0006133391 -0.0066119868 
Si 5.4825779692 2.7309634414 2.7442553625 
Si 6.8525583600 1.3691701126 1.3678665044 
Si 8.2168189000 -0.0014242252 2.7373678957 
Si 8.2268525356 2.7231603405 -0.0092228493 
Si -0.0024608955 5.4722024478 -0.0063352892 
Si 2.7331460316 5.4625778567 2.7420927801 
Si 1.3717726152 6.8254814729 1.3776628829 
Si 4.1091505248 4.1063522771 1.3670931437 
Si 5.4907644893 5.4538559226 0.0094865489 
Si 6.8517851231 6.8240550837 1.3734042096 
Si 9.5958806856 4.0982903822 1.3696156851 
Si 8.2224470690 5.4636438380 2.7410886072 
Si -0.0033058143 8.2028394732 2.7356564912 
Si 2.7385228291 8.1909972252 -0.0025473958 
Si 4.1051352397 9.5570505695 1.3604816203 
Si 5.4846792042 8.1898164919 2.7430183094 
Si 8.2155070738 8.1890570476 0.0096898761 
Si 9.5991397341 9.5668354371 1.3734851358 
Si 0.0038144400 -0.0054669525 5.4817586830 
Si 2.7444950062 2.7276249675 5.4870361000 
Si 1.3790861702 1.3597750773 6.8448395123 
Si 4.1020500539 1.3622793048 4.1057293206 
Si 5.4756967624 0.0023502702 5.4887517423 
Si 6.8575143775 1.3673897975 6.8575482171 
Si 9.5972505358 1.3706075206 4.1103624707 
Si 8.2127754150 2.7319138138 5.4879715003 
Si 1.3640006214 4.1003366257 4.1102792961 
Si 0.0087327254 5.4651214032 5.4786071450 
Si 1.3780449979 6.8251819022 6.8592259255 
Si 6.8442188732 4.1067862853 4.1197146561 
Si 4.1094021989 6.8349869505 4.1164600901 
Si 4.1129649196 4.1027975198 6.8446535542 
Si 5.4896323281 5.4569145324 5.4777159445 
Si 6.8579873931 6.8334049650 6.8456191500 
Si 9.5985111803 6.8203826827 4.1016446575 
Si 9.5874430924 4.1030516413 6.8554209264 
Si 1.3771845395 9.5569770901 4.1165035725 
Si 2.7413194697 8.1865197636 5.4714838463 
Si 6.8606053284 9.5603012846 4.1146338704 
Si 4.1017934529 9.5669675733 6.8531042143 
Si 8.2263673034 8.1965025279 5.4830172199 
Si 9.5996604269 9.5667240431 6.8513149528 
Si -0.0042931771 2.7350060789 8.2204278617 
Si 2.7326754719 0.0006538515 8.2275473872 
Si 4.1088140175 1.3667559842 9.5955858336 
Si 5.4872255505 2.7318950486 8.2137342277 
Si 8.2192678408 0.0090380566 8.2270153188 
Si 9.5994376660 1.3622599354 9.5826151699 
Si 1.3622645788 4.1009723163 9.5950466524 
Si 2.7390893063 5.4611358791 8.2223803425 
Si 6.8518541094 4.0921287121 9.5850030397 
Si 4.1121796845 6.8254362315 9.5844754889 
Si 8.2280208491 5.4593307591 8.2135958091 
Si 9.5971656776 6.8252522249 9.5801915530 
Si 0.0041454303 8.1873972885 8.2148543196 
Si 1.3633108786 9.5640309605 9.5829983593 
Si 5.4718516422 8.1963879509 8.2108080896 
Si 6.8426824338 9.5585701390 9.5815698248 

