&CONTROL
   calculation      = 'scf'
   tstress          = .true.
   tprnfor          = .true.
   outdir           = './'
   disk_io          = 'none'
   pseudo_dir       = '/home/ppiaggi/pseudos'
/
&SYSTEM
   ecutwfc          = 30
   occupations      = 'smearing'
   degauss          = 0.01
   smearing         = 'fermi-dirac'
   input_dft        = 'PBE'
   ntyp             = 1
   nat              = 64
   ibrav            = 0
/
&ELECTRONS
   electron_maxstep = 100
   mixing_beta      = 0.5
/
&IONS
/
&CELL
/

ATOMIC_SPECIES
Si 28.085 Si_ONCV_PBE_sr.upf

K_POINTS gamma

CELL_PARAMETERS angstrom
10.97285300724363 0.00000000000000 0.00000000000000
0.00000000000000 10.95859215255383 0.00000000000000
0.00000000000000 0.00000000000000 11.00753281010839

ATOMIC_POSITIONS angstrom
Si 0.0027680938 -0.0074728143 -0.0052226945 
Si 0.0071046830 2.7061164814 2.7674548683 
Si 2.7587966699 0.0008318658 2.7582946131 
Si 2.7589036750 2.7180155542 0.0065378095 
Si 1.3724505220 1.3503616198 1.3763277542 
Si 5.5228144913 -0.0009091526 -0.0065993720 
Si 5.5150944169 2.7163971891 2.7722400344 
Si 6.9089805868 1.3673037857 1.3881335333 
Si 8.2929048657 -0.0032986487 2.7638216908 
Si 8.2922642767 2.7154731463 -0.0048250666 
Si 0.0051266902 5.4326904216 -0.0043766854 
Si 2.7601604154 5.4411151327 2.7640766950 
Si 1.3788860915 6.7927491604 1.3910903611 
Si 4.1389582514 4.0665732082 1.3740800526 
Si 5.5305312238 5.4352936790 -0.0054771800 
Si 6.9062255151 6.7974871949 1.3905604661 
Si 9.6719461358 4.0819129305 1.3934982997 
Si 8.2780161523 5.4266482625 2.7617715723 
Si 0.0006961239 8.1410775656 2.7651361780 
Si 2.7525028297 8.1443404030 0.0098070511 
Si 4.1519371956 9.5119384496 1.3827510647 
Si 5.5161497142 8.1426336803 2.7604196477 
Si 8.2913921160 8.1553664045 0.0083711145 
Si 9.6726336857 9.4978236943 1.3901007518 
Si 0.0071889593 -0.0066595268 5.5331113096 
Si 2.7696015389 2.7147615086 5.5338171602 
Si 1.3798638613 1.3616080802 6.9265626686 
Si 4.1360675503 1.3493435216 4.1569373821 
Si 5.5180659548 0.0067186269 5.5302137596 
Si 6.8968802015 1.3625152650 6.9179555348 
Si 9.6593999878 1.3534923303 4.1421328832 
Si 8.2933434421 2.7081785861 5.5346526905 
Si 1.3798924975 4.0771006848 4.1479892380 
Si 0.0010405526 5.4377396060 5.5368653011 
Si 1.3828553000 6.7974473200 6.9241850859 
Si 6.9065438453 4.0780058249 4.1520186786 
Si 4.1385169131 6.7916815022 4.1474325803 
Si 4.1479176745 4.0651930237 6.9271354021 
Si 5.5229181798 5.4240247637 5.5293690192 
Si 6.9105969108 6.7982528033 6.9154064114 
Si 9.6578032238 6.7928034683 4.1572123028 
Si 9.6595670468 4.0650840541 6.9246680595 
Si 1.3714131450 9.5085281904 4.1486902441 
Si 2.7598999986 8.1547536182 5.5304956164 
Si 6.9111250107 9.5113573210 4.1482475457 
Si 4.1358513269 9.5089700408 6.9110320889 
Si 8.2801461446 8.1530851010 5.5430381131 
Si 9.6765733983 9.5076027664 6.9217895488 
Si -0.0005342259 2.7102928899 8.2959238119 
Si 2.7712029489 -0.0087800083 8.3008427758 
Si 4.1417277444 1.3626634068 9.6927130517 
Si 5.5301185217 2.7158762224 8.2969221637 
Si 8.2887945380 0.0075226874 8.3084659010 
Si 9.6685896167 1.3636887824 9.6874295003 
Si 1.3769159641 4.0751188846 9.6775909597 
Si 2.7609277938 5.4309910497 8.3002451625 
Si 6.9053568986 4.0652721758 9.6803162300 
Si 4.1350555530 6.7872283334 9.6908669167 
Si 8.2858510433 5.4378184198 8.3002008218 
Si 9.6679734500 6.7913087554 9.6820782789 
Si -0.0041311965 8.1421999130 8.3089085349 
Si 1.3740330408 9.5013226359 9.6759782030 
Si 5.5198375951 8.1560607020 8.3096772539 
Si 6.9082235907 9.5030715154 9.6865730605 

