&CONTROL
   calculation      = 'scf'
   tstress          = .true.
   tprnfor          = .true.
   outdir           = './'
   disk_io          = 'none'
   pseudo_dir       = '/home/ppiaggi/pseudos'
/
&SYSTEM
   ecutwfc          = 30
   occupations      = 'smearing'
   degauss          = 0.01
   smearing         = 'fermi-dirac'
   input_dft        = 'PBE'
   ntyp             = 1
   nat              = 64
   ibrav            = 0
/
&ELECTRONS
   electron_maxstep = 100
   mixing_beta      = 0.5
/
&IONS
/
&CELL
/

ATOMIC_SPECIES
Si 28.085 Si_ONCV_PBE_sr.upf

K_POINTS gamma

CELL_PARAMETERS angstrom
10.92919994556933 0.00000000000000 0.00000000000000
0.00000000000000 10.91562415500362 0.00000000000000
0.00000000000000 0.00000000000000 11.07403020227553

ATOMIC_POSITIONS angstrom
Si -0.0066810855 0.0017298682 -0.0061125099 
Si 0.0000601837 2.7440134239 2.7482054497 
Si 2.7529853923 0.0059929238 2.7430575888 
Si 2.7641629433 2.7304279289 -0.0060006616 
Si 1.3882670162 1.3761907952 1.3779264220 
Si 5.5130455072 -0.0001440919 0.0010498670 
Si 5.5275036182 2.7444842608 2.7580851294 
Si 6.8970892981 1.3698150716 1.3782028228 
Si 8.2764504359 -0.0084652918 2.7419352324 
Si 8.2762324933 2.7409932767 -0.0001359077 
Si 0.0027208429 5.4815848819 -0.0034146283 
Si 2.7669762900 5.4654045257 2.7570960552 
Si 1.3701800551 6.8500016316 1.3654747096 
Si 4.1478613351 4.1063641131 1.3811419597 
Si 5.5232627546 5.4643791742 -0.0099179745 
Si 6.9045568118 6.8452127349 1.3828713272 
Si 9.6508455496 4.1002173229 1.3708437269 
Si 8.2760235666 5.4668838269 2.7468006179 
Si 0.0078564537 8.2048102452 2.7473009684 
Si 2.7679837675 8.2018401079 -0.0089356284 
Si 4.1360252444 9.5840180169 1.3767419071 
Si 5.5106284256 8.2173037243 2.7505987162 
Si 8.2713920937 8.2164679570 -0.0050494199 
Si 9.6524685892 9.5741429661 1.3836353083 
Si 0.0025390373 0.0041108712 5.4953078678 
Si 2.7583070728 2.7438750021 5.4979485247 
Si 1.3749131451 1.3736274722 6.8736073822 
Si 4.1285298900 1.3683070796 4.1220059309 
Si 5.5235684630 -0.0041621423 5.4986396735 
Si 6.8986521054 1.3774516465 6.8773176305 
Si 9.6461756548 1.3772345647 4.1328246620 
Si 8.2858876661 2.7464309037 5.4918775111 
Si 1.3745910457 4.1077330120 4.1248539617 
Si -0.0073728458 5.4802184525 5.4969542257 
Si 1.3748536836 6.8471387717 6.8706523501 
Si 6.8956768466 4.1052024556 4.1275627816 
Si 4.1344198730 6.8450987240 4.1158004456 
Si 4.1341319802 4.0954641430 6.8789288178 
Si 5.5131712220 5.4797293823 5.5064845125 
Si 6.8906617490 6.8500377616 6.8808198906 
Si 9.6483918176 6.8412191400 4.1204571359 
Si 9.6618280357 4.1146512233 6.8650097080 
Si 1.3817133639 9.5717302295 4.1322016286 
Si 2.7515077029 8.2030282443 5.5047675771 
Si 6.9065200268 9.5725525363 4.1170598845 
Si 4.1388679551 9.5804068778 6.8730516203 
Si 8.2778078182 8.2162104794 5.4968746338 
Si 9.6585554293 9.5698874527 6.8830495709 
Si 0.0072908684 2.7309619306 8.2434121810 
Si 2.7649677493 0.0037299922 8.2463001958 
Si 4.1420189081 1.3713690660 9.6272440323 
Si 5.5089168101 2.7346670603 8.2494698619 
Si 8.2839189139 -0.0085478748 8.2436186081 
Si 9.6582787929 1.3720263133 9.6318284534 
Si 1.3757952012 4.1070361117 9.6176764509 
Si 2.7567365329 5.4718499184 8.2510373725 
Si 6.8871259974 4.0974186754 9.6293126324 
Si 4.1423287268 6.8334192231 9.6165862248 
Si 8.2855512407 5.4750461246 8.2463682536 
Si 9.6552124587 6.8474132111 9.6168724055 
Si -0.0049223690 8.2076151940 8.2432579670 
Si 1.3814972663 9.5802793742 9.6189158767 
Si 5.5195506491 8.2106382782 8.2593231512 
Si 6.8936531189 9.5798836481 9.6235196945 

