&CONTROL
   calculation      = 'scf'
   tstress          = .true.
   tprnfor          = .true.
   outdir           = './'
   disk_io          = 'none'
   pseudo_dir       = '/home/ppiaggi/pseudos'
/
&SYSTEM
   ecutwfc          = 30
   occupations      = 'smearing'
   degauss          = 0.01
   smearing         = 'fermi-dirac'
   input_dft        = 'PBE'
   ntyp             = 1
   nat              = 64
   ibrav            = 0
/
&ELECTRONS
   electron_maxstep = 100
   mixing_beta      = 0.5
/
&IONS
/
&CELL
/

ATOMIC_SPECIES
Si 28.085 Si_ONCV_PBE_sr.upf

K_POINTS gamma

CELL_PARAMETERS angstrom
11.01968787407887 0.00000000000000 0.00000000000000
0.00000000000000 10.94772501713467 0.00000000000000
0.00000000000000 0.00000000000000 11.03569921148800

ATOMIC_POSITIONS angstrom
Si 0.0031388705 -0.0018282885 0.0038877351 
Si 0.0041371885 2.7458941066 2.7537857882 
Si 2.7567514964 -0.0090069047 2.7523302765 
Si 2.7515485051 2.7426552274 0.0018234784 
Si 1.3863394682 1.3763144064 1.3727213714 
Si 5.5171934767 0.0064222684 0.0086561138 
Si 5.5202063688 2.7526683779 2.7548814536 
Si 6.8900397707 1.3783364724 1.3797187366 
Si 8.2676715289 -0.0034582880 2.7590599836 
Si 8.2737442857 2.7511505483 0.0061595298 
Si 0.0050788260 5.4920674055 0.0052602977 
Si 2.7493344800 5.4892162724 2.7462255163 
Si 1.3866655578 6.8577160455 1.3777061520 
Si 4.1382194071 4.1109579713 1.3742094723 
Si 5.5235973220 5.4846922368 -0.0031791426 
Si 6.8913170219 6.8696865555 1.3796845563 
Si 9.6532526713 4.1098906376 1.3771788325 
Si 8.2744684596 5.5015727296 2.7428823307 
Si 0.0098053155 8.2343615804 2.7405851110 
Si 2.7529466176 8.2309469245 -0.0008255467 
Si 4.1399337769 9.6068049297 1.3692299471 
Si 5.5251241890 8.2328338678 2.7433433537 
Si 8.2748960950 8.2437174529 0.0059504771 
Si 9.6627046384 9.6156858284 1.3845768426 
Si -0.0044638077 0.0093249965 5.5026075584 
Si 2.7599094306 2.7559720940 5.4940189462 
Si 1.3692927678 1.3743180899 6.8747660469 
Si 4.1397787698 1.3654019577 4.1275162672 
Si 5.5100090708 0.0053011543 5.4903084906 
Si 6.9042818033 1.3677982521 6.8754053264 
Si 9.6452568542 1.3809829643 4.1306553804 
Si 8.2727279913 2.7462574606 5.4936188046 
Si 1.3865542437 4.1264006784 4.1296524686 
Si 0.0003374002 5.4824944286 5.5055696231 
Si 1.3818403175 6.8747114232 6.8728698740 
Si 6.9049140968 4.1225993196 4.1293517897 
Si 4.1361835653 6.8670563118 4.1145140704 
Si 4.1276208423 4.1256302815 6.8654689179 
Si 5.5218147493 5.4933228257 5.4933359751 
Si 6.8992518848 6.8630855278 6.8713613713 
Si 9.6572819396 6.8746319819 4.1199213841 
Si 9.6471119690 4.1285887729 6.8750859507 
Si 1.3781056583 9.6191647304 4.1272532202 
Si 2.7549255376 8.2412523436 5.4993358344 
Si 6.8947721587 9.6120994370 4.1280846200 
Si 4.1427460684 9.6159722568 6.8720738226 
Si 8.2720350924 8.2314622273 5.5027354637 
Si 9.6471428002 9.6178344108 6.8689891525 
Si -0.0089515659 2.7524650335 8.2472180646 
Si 2.7617559475 0.0031365397 8.2405072250 
Si 4.1415260574 1.3663296578 9.6291914685 
Si 5.5235607693 2.7416799421 8.2442498959 
Si 8.2812752386 0.0039001840 8.2452969401 
Si 9.6500893768 1.3769807481 9.6158438365 
Si 1.3747180147 4.1180159703 9.6199527759 
Si 2.7581646728 5.4851788075 8.2558469357 
Si 6.8874643714 4.1147964602 9.6236237226 
Si 4.1346524121 6.8725293709 9.6238473792 
Si 8.2718535421 5.4873924158 8.2516506122 
Si 9.6616143705 6.8721755532 9.6249182494 
Si 0.0039890162 8.2338391974 8.2527125289 
Si 1.3817666873 9.6060106821 9.6172043625 
Si 5.5117277587 8.2460117241 8.2563989623 
Si 6.9019785142 9.6097990621 9.6170180653 

