&CONTROL
   calculation      = 'scf'
   tstress          = .true.
   tprnfor          = .true.
   outdir           = './'
   disk_io          = 'none'
   pseudo_dir       = '/home/ppiaggi/pseudos'
/
&SYSTEM
   ecutwfc          = 30
   occupations      = 'smearing'
   degauss          = 0.01
   smearing         = 'fermi-dirac'
   input_dft        = 'PBE'
   ntyp             = 1
   nat              = 64
   ibrav            = 0
/
&ELECTRONS
   electron_maxstep = 100
   mixing_beta      = 0.5
/
&IONS
/
&CELL
/

ATOMIC_SPECIES
Si 28.085 Si_ONCV_PBE_sr.upf

K_POINTS gamma

CELL_PARAMETERS angstrom
11.03730564648636 0.00000000000000 0.00000000000000
0.00000000000000 10.98621179934695 0.00000000000000
0.00000000000000 0.00000000000000 10.99018786318851

ATOMIC_POSITIONS angstrom
Si -0.0007739778 0.0063603416 0.0042473519 
Si -0.0000185687 2.7370382792 2.7634029287 
Si 2.7811452711 -0.0036919602 2.7775889319 
Si 2.7756130353 2.7363051182 0.0058830917 
Si 1.3775783493 1.3790839131 1.3757867772 
Si 5.5462019663 0.0044023132 0.0021613418 
Si 5.5457854392 2.7366350427 2.7807033065 
Si 6.9326810434 1.3768710331 1.3881538483 
Si 8.3074397276 0.0022730202 2.7769873855 
Si 8.3252731595 2.7410510055 0.0046765896 
Si -0.0053916289 5.4922921545 -0.0092661731 
Si 2.7620382260 5.4909990958 2.7753196823 
Si 1.3879932555 6.8662204853 1.3924618290 
Si 4.1665875937 4.1222920791 1.3839053000 
Si 5.5338869178 5.4814371156 -0.0016546678 
Si 6.9353534021 6.8677638478 1.3940820917 
Si 9.7107860103 4.1182165360 1.3830221443 
Si 8.3140511703 5.4783130002 2.7769935224 
Si 0.0086016455 8.2323764698 2.7779539765 
Si 2.7710166739 8.2259298658 -0.0055460522 
Si 4.1620453689 9.6109161952 1.3931728303 
Si 5.5416458331 8.2241541679 2.7712514838 
Si 8.3195311774 8.2363581932 0.0030400416 
Si 9.6989414951 9.6104099051 1.3862128045 
Si -0.0014102614 0.0022248935 5.5424000601 
Si 2.7761844910 2.7444896941 5.5403596621 
Si 1.3830889356 1.3798672420 6.9207819704 
Si 4.1541508366 1.3801250279 4.1590864809 
Si 5.5520684905 0.0087721849 5.5432028026 
Si 6.9244694607 1.3671187734 6.9194661814 
Si 9.6915239029 1.3775945147 4.1543120112 
Si 8.3123458036 2.7508705252 5.5380858212 
Si 1.3834697698 4.1172920428 4.1475444308 
Si 0.0046269875 5.4856386499 5.5468516697 
Si 1.3822787439 6.8514627188 6.9318946372 
Si 6.9235816509 4.1066598067 4.1656122294 
Si 4.1617062174 6.8606561174 4.1525589074 
Si 4.1507592172 4.1102514658 6.9349482685 
Si 5.5341725033 5.4937561951 5.5328182675 
Si 6.9255952279 6.8594396234 6.9259958777 
Si 9.6959996367 6.8573764870 4.1625036451 
Si 9.7064316637 4.1147729207 6.9346391269 
Si 1.3842781539 9.6115563289 4.1525933310 
Si 2.7673762391 8.2386528899 5.5485369584 
Si 6.9227001107 9.5974231967 4.1657874598 
Si 4.1529675740 9.6125046721 6.9176262782 
Si 8.3203775704 8.2352348949 5.5501391353 
Si 9.6987918322 9.5961808566 6.9281453646 
Si -0.0058458803 2.7441715613 8.3083998371 
Si 2.7648074126 -0.0068012863 8.3078434508 
Si 4.1648555492 1.3820324013 9.7075289993 
Si 5.5362155676 2.7343315769 8.3149256456 
Si 8.3079294246 -0.0066874505 8.3147621675 
Si 9.6928028041 1.3681041279 9.7002017619 
Si 1.3867009411 4.1101913333 9.7008826733 
Si 2.7758384546 5.4878610584 8.3214243283 
Si 6.9223251390 4.1101714687 9.6895055672 
Si 4.1565778022 6.8675555778 9.7042432482 
Si 8.3057672134 5.4883995360 8.3225414204 
Si 9.7101951115 6.8595602246 9.6966428367 
Si -0.0016567575 8.2403971619 8.3049977926 
Si 1.3758977363 9.6075028277 9.7067575221 
Si 5.5348139325 8.2380163816 8.3131052283 
Si 6.9298115928 9.6057728404 9.6921483041 

