&CONTROL
   calculation      = 'scf'
   tstress          = .true.
   tprnfor          = .true.
   outdir           = './'
   disk_io          = 'none'
   pseudo_dir       = '/home/ppiaggi/pseudos'
/
&SYSTEM
   ecutwfc          = 30
   occupations      = 'smearing'
   degauss          = 0.01
   smearing         = 'fermi-dirac'
   input_dft        = 'PBE'
   ntyp             = 1
   nat              = 64
   ibrav            = 0
/
&ELECTRONS
   electron_maxstep = 100
   mixing_beta      = 0.5
/
&IONS
/
&CELL
/

ATOMIC_SPECIES
Si 28.085 Si_ONCV_PBE_sr.upf

K_POINTS gamma

CELL_PARAMETERS angstrom
11.05629353076505 0.00000000000000 0.00000000000000
0.00000000000000 10.95145384649741 0.00000000000000
0.00000000000000 0.00000000000000 11.04824825001040

ATOMIC_POSITIONS angstrom
Si 0.0090037253 0.0091084788 0.0071774434 
Si -0.0025405964 2.7530704140 2.7669138461 
Si 2.7754109020 0.0027782308 2.7747228787 
Si 2.7858425125 2.7635017923 -0.0016060437 
Si 1.3826656306 1.3685354334 1.3812653340 
Si 5.5684040482 0.0074158553 0.0067832208 
Si 5.5737138267 2.7512593768 2.7584176169 
Si 6.9457287336 1.3811794669 1.3915034788 
Si 8.3422639654 -0.0073541244 2.7577538070 
Si 8.3417168110 2.7475178516 -0.0010282256 
Si 0.0016638749 5.5216377808 0.0042058268 
Si 2.7782533448 5.5214998065 2.7583364657 
Si 1.3886413379 6.8985468991 1.3840959498 
Si 4.1678094276 4.1324202473 1.3855327659 
Si 5.5671857317 5.5051444926 0.0060872311 
Si 6.9463372668 6.8915991437 1.3929626820 
Si 9.7459452679 4.1370366186 1.3880367413 
Si 8.3523723034 5.5062670681 2.7765299890 
Si 0.0018599303 8.2764816509 2.7635651409 
Si 2.7789127195 8.2656299425 0.0096681811 
Si 4.1631966526 9.6570677612 1.3762073270 
Si 5.5648318893 8.2713219729 2.7771734488 
Si 8.3508653335 8.2795915698 -0.0083093083 
Si 9.7358640041 9.6443844326 1.3931532172 
Si 0.0088406627 0.0081953388 5.5350989778 
Si 2.7896980878 2.7565785589 5.5397362789 
Si 1.3960480440 1.3831572388 6.9135504857 
Si 4.1732222753 1.3713760193 4.1593651347 
Si 5.5683064396 0.0047998717 5.5428118172 
Si 6.9521123089 1.3871920759 6.9104029849 
Si 9.7375248336 1.3885971321 4.1578885041 
Si 8.3399962488 2.7521863766 5.5359008920 
Si 1.3986525089 4.1366184212 4.1557559740 
Si 0.0084473866 5.5047368545 5.5355084526 
Si 1.3853359135 6.8898642987 6.9248786438 
Si 6.9551955849 4.1321423897 4.1488575621 
Si 4.1673577499 6.8901992824 4.1550848859 
Si 4.1827669032 4.1437256614 6.9114916634 
Si 5.5629918888 5.5044254126 5.5372441329 
Si 6.9570806903 6.8860318880 6.9257200231 
Si 9.7454552506 6.8932875335 4.1462090817 
Si 9.7395202802 4.1280254594 6.9129030754 
Si 1.3817517923 9.6556994200 4.1612686192 
Si 2.7814147462 8.2741149738 5.5435973592 
Si 6.9642681478 9.6592991334 4.1529857934 
Si 4.1644060107 9.6480986897 6.9243445736 
Si 8.3468614943 8.2682227842 5.5424354109 
Si 9.7362940370 9.6549677055 6.9100795866 
Si -0.0081931128 2.7490026551 8.3109987449 
Si 2.7885337394 0.0073460129 8.3128271686 
Si 4.1662262659 1.3873438454 9.6830110153 
Si 5.5563659772 2.7533435922 8.3081081617 
Si 8.3372099107 0.0028980544 8.3079601486 
Si 9.7267045535 1.3724419930 9.6948014033 
Si 1.3952447462 4.1310454257 9.6896235167 
Si 2.7798949927 5.5233694482 8.3107239243 
Si 6.9547464265 4.1356250525 9.6771493121 
Si 4.1740468055 6.8991218903 9.6859234409 
Si 8.3357532044 5.5204363504 8.3120229045 
Si 9.7342340015 6.8910061551 9.6926863158 
Si 0.0043324332 8.2673241846 8.3109652774 
Si 1.3813362024 9.6508869754 9.6808466173 
Si 5.5556294350 8.2712553059 8.3040841507 
Si 6.9495439479 9.6497825206 9.6928896898 

