&CONTROL
   calculation      = 'scf'
   tstress          = .true.
   tprnfor          = .true.
   outdir           = './'
   disk_io          = 'none'
   pseudo_dir       = '/home/ppiaggi/pseudos'
/
&SYSTEM
   ecutwfc          = 30
   occupations      = 'smearing'
   degauss          = 0.01
   smearing         = 'fermi-dirac'
   input_dft        = 'PBE'
   ntyp             = 1
   nat              = 64
   ibrav            = 0
/
&ELECTRONS
   electron_maxstep = 100
   mixing_beta      = 0.5
/
&IONS
/
&CELL
/

ATOMIC_SPECIES
Si 28.085 Si_ONCV_PBE_sr.upf

K_POINTS gamma

CELL_PARAMETERS angstrom
10.53611387724068 0.00000000000000 0.00000000000000
0.00000000000000 10.53611387724068 0.00000000000000
0.00000000000000 0.00000000000000 10.53611387724068

ATOMIC_POSITIONS angstrom
Si 0.4167401802 1.2463695911 10.2565486316 
Si 10.3980170327 5.7128916665 7.6636215425 
Si 6.8581672450 9.9070341260 4.5366293771 
Si 4.1374265585 8.6904922733 9.8574617102 
Si 4.5606095723 2.6333330858 5.4004853539 
Si 4.0348258815 4.6839031769 8.4393113184 
Si 3.1908094072 10.1674236443 6.6825302266 
Si 3.1477588459 3.6389735470 2.3970607321 
Si 9.8973830457 1.2338526878 6.8866990414 
Si 5.7902372785 4.8155624559 6.2146108732 
Si 1.5705236707 5.4164581026 5.8961252230 
Si 2.3450755462 10.3065319559 1.8033401790 
Si 1.6817007443 8.3279972753 6.2580091263 
Si 4.2951311110 10.3037504218 4.3620775785 
Si 8.6288665432 7.4011037292 2.3264687691 
Si 9.3854332724 8.5067740556 9.1145181762 
Si 4.8791689754 0.2649758887 8.0817050773 
Si 5.2422856041 6.1828550260 0.8823742505 
Si 9.4810063613 8.0420471447 6.7056464605 
Si 7.8107373006 3.2101642483 5.0497486591 
Si 3.0389734701 6.5908238915 7.6047773465 
Si 1.7523348517 9.0269209255 9.2167290170 
Si 0.5304353851 3.8896698406 10.3376661724 
Si 1.7673593501 5.8391353830 0.7875439576 
Si 1.4843593314 0.6243996095 4.4413302271 
Si 9.4748743431 3.4563616213 8.1377466670 
Si 3.5872833724 5.2202124455 4.0765383564 
Si 4.4463875618 0.6487843914 0.8720119825 
Si 4.5315193619 1.9012628214 3.0593924588 
Si 8.0207431224 7.2769250910 10.5055064664 
Si 8.4718995186 1.0769699522 3.5108333301 
Si 1.3338298724 0.8792207917 7.9963730910 
Si 6.3957898875 9.6968913347 0.2006118227 
Si 5.9553697913 6.5060924637 9.0098208126 
Si 1.1297769549 2.0888477928 2.1592606419 
Si 4.5889411825 4.1324113682 0.3845723710 
Si 6.5065455165 8.8121211718 8.0704103632 
Si 9.4611668589 3.3329521195 2.1158097083 
Si 1.1249303426 6.7873013430 9.2727916789 
Si 7.3864796031 7.7969455275 5.5823492156 
Si 6.6812975013 3.0449263744 2.8620826542 
Si 9.7740578327 10.0226679758 5.0352088219 
Si 0.3217760786 7.2828569231 2.2764433004 
Si 0.2182334731 9.4102247483 0.6206645571 
Si 8.2032180787 0.0825018807 8.2671301454 
Si 3.4604812418 7.4699677695 1.2661669491 
Si 3.9391368953 8.0018202619 3.6531762285 
Si 6.0400380024 5.3111812527 3.3080447463 
Si 6.2500648964 8.2581323042 2.5733615256 
Si 0.0678276028 3.0866283131 4.7896225436 
Si 6.7406685030 1.2961316570 6.3577123719 
Si 0.0657939221 5.4132867323 3.7187530013 
Si 8.4794117678 10.0084231498 1.7386800481 
Si 1.6125733011 8.4960061472 3.8909973910 
Si 6.7100084116 3.0847634210 8.2765705035 
Si 4.8829725125 7.2076606784 5.6593365997 
Si 8.3740506291 5.7753497496 4.6200753991 
Si 8.5120105042 4.7458660626 0.1561884057 
Si 2.2541488835 2.6838326796 5.9795396365 
Si 6.8243673917 3.1292363577 0.2748134583 
Si 2.0423519223 3.0607937619 8.5687896219 
Si 4.3106718789 2.0223227698 9.4963996237 
Si 7.7783176782 5.5656494751 7.4922411142 
Si 8.3530310819 1.2538923764 10.3051517249 

