&CONTROL
   calculation      = 'scf'
   tstress          = .true.
   tprnfor          = .true.
   outdir           = './'
   disk_io          = 'none'
   pseudo_dir       = '/home/ppiaggi/pseudos'
/
&SYSTEM
   ecutwfc          = 30
   occupations      = 'smearing'
   degauss          = 0.01
   smearing         = 'fermi-dirac'
   input_dft        = 'PBE'
   ntyp             = 1
   nat              = 64
   ibrav            = 0
/
&ELECTRONS
   electron_maxstep = 100
   mixing_beta      = 0.5
/
&IONS
/
&CELL
/

ATOMIC_SPECIES
Si 28.085 Si_ONCV_PBE_sr.upf

K_POINTS gamma

CELL_PARAMETERS angstrom
10.50967301538162 0.00000000000000 0.00000000000000
0.00000000000000 10.50967301538162 0.00000000000000
0.00000000000000 0.00000000000000 10.50967301538162

ATOMIC_POSITIONS angstrom
Si 6.4379209087 5.9144551152 0.9990568736 
Si 5.3766331083 5.7742245481 4.9317481399 
Si 8.6528765354 7.6129338808 5.6798371748 
Si 5.6832633282 1.1461008617 5.8309242340 
Si 8.7365650616 7.5848625442 0.4497173161 
Si 0.4173328096 6.5953663201 6.1838495636 
Si 3.8581745317 3.1429597539 0.1479698903 
Si 8.5413794144 10.2385444709 3.5885488704 
Si 3.6994049014 7.9988385643 3.0518198696 
Si 9.4015436023 2.0737686794 3.2490654127 
Si 4.5470205398 8.2792996984 0.3814569898 
Si 8.9053188812 5.5084138982 8.8675681357 
Si 8.5513530941 9.7072910097 6.7426068391 
Si 6.7215769834 6.9420278846 8.9930221025 
Si 0.8101738773 4.1803380483 6.4551567725 
Si 6.8280504807 6.7633214046 6.6303950603 
Si 8.9739680654 7.7503163265 2.8107805189 
Si 7.3570233429 1.5693253940 7.3793248691 
Si 0.9413724313 8.4057205551 4.0490301936 
Si 1.9467172423 6.5045942743 9.7581683367 
Si 4.3142312825 3.8834608049 3.2416140545 
Si 0.6509586369 3.6996676432 9.3270405303 
Si 9.5276386592 9.2688905095 9.1502678302 
Si 1.8124246405 9.4264725467 9.2997679288 
Si 1.8146737105 6.1618528179 1.6480533546 
Si 4.2065071341 5.2595238219 1.1146874490 
Si 1.4824419272 2.4511500180 1.0276179610 
Si 1.0134162399 8.4054262842 1.4811807664 
Si 6.7787601143 8.9551977893 0.6426339249 
Si 5.3137432249 1.5864456513 2.5876076125 
Si 4.9095517104 8.7661813202 6.7366688738 
Si 2.6701400747 2.4332310255 8.3557575696 
Si 6.1239864661 1.6454995040 9.6788728538 
Si 0.2086159584 4.2993180565 2.3308142620 
Si 9.7529135002 0.0377839560 1.0086469502 
Si 10.5009499868 7.1007449664 8.5134657228 
Si 5.3440951606 3.7483064100 6.1366296027 
Si 1.0358922266 1.4235562293 4.2944520779 
Si 3.3805519318 0.3992162353 5.9196889323 
Si 4.1482204875 4.8482592974 8.5205177134 
Si 9.5857466413 2.2646873994 8.2500933171 
Si 6.5620926954 9.6043382528 8.5056149971 
Si 9.3200410881 3.4643245354 5.5821602738 
Si 6.0651217875 7.4915891962 3.1071112593 
Si 2.9882468575 6.6170057369 4.9604395472 
Si 1.8023773931 0.2440556268 2.0128546146 
Si 7.1543337891 0.8943458485 1.2585228339 
Si 6.4326135238 9.5919053096 4.6566364293 
Si 9.1071991902 5.3826026025 3.9357569379 
Si 8.5558302148 4.7156377336 0.6099414851 
Si 3.9584578316 0.1317019674 0.6777772205 
Si 0.6325551485 0.5359649477 7.6256926239 
Si 4.2220194115 10.2473831059 3.6711128617 
Si 7.0098362949 4.7456218307 3.2109888674 
Si 2.1918343460 8.4724674884 6.7776671083 
Si 3.9375646016 7.3997977121 8.6337699498 
Si 7.0667882129 2.5332726030 4.1237749881 
Si 2.3515078082 4.6144926405 3.9850157753 
Si 6.2835548315 3.9224096531 9.1858851120 
Si 4.0176903487 0.3875694157 8.5804859077 
Si 2.9501177638 2.8313059103 6.1002135857 
Si 0.2038277514 10.1787444315 5.4731224162 
Si 7.6052933486 4.3778042946 7.2442125128 
Si 8.9603685485 2.4810290184 0.1133773015 

