&CONTROL
   calculation      = 'scf'
   tstress          = .true.
   tprnfor          = .true.
   outdir           = './'
   disk_io          = 'none'
   pseudo_dir       = '/home/ppiaggi/pseudos'
/
&SYSTEM
   ecutwfc          = 30
   occupations      = 'smearing'
   degauss          = 0.01
   smearing         = 'fermi-dirac'
   input_dft        = 'PBE'
   ntyp             = 1
   nat              = 64
   ibrav            = 0
/
&ELECTRONS
   electron_maxstep = 100
   mixing_beta      = 0.5
/
&IONS
/
&CELL
/

ATOMIC_SPECIES
Si 28.085 Si_ONCV_PBE_sr.upf

K_POINTS gamma

CELL_PARAMETERS angstrom
10.60784333795871 0.00000000000000 0.00000000000000
0.00000000000000 10.60784333795871 0.00000000000000
0.00000000000000 0.00000000000000 10.60784333795871

ATOMIC_POSITIONS angstrom
Si 3.1482912164 9.6224489468 7.8427710700 
Si 4.5548063803 2.6870515803 4.9907463101 
Si 4.1532889021 9.2520230574 9.9552700315 
Si 1.8021877204 2.2245814342 7.7321843032 
Si 8.0802594666 7.6695768118 0.1308212280 
Si 3.0496276655 10.4153428049 3.7188340704 
Si 8.2567209405 1.8981356634 1.7745224649 
Si 1.6567223647 7.8522969133 10.3828828043 
Si 10.0094655031 4.2340145899 1.2323343763 
Si 9.0839842111 2.0253130971 8.5248235731 
Si 4.8090233459 7.9861891119 4.5196944188 
Si 4.8303557188 9.9707574828 5.7207886965 
Si 6.5324053981 6.5836731050 5.5191654181 
Si 9.0978910937 8.5089330237 7.1117103306 
Si 0.8441774768 6.2742635305 5.3527601797 
Si 1.2244103173 8.0498149562 7.2324488035 
Si 10.3332911367 6.4397777101 0.1164688159 
Si 0.6270932668 1.7223212679 5.6769676956 
Si 6.7052814210 3.4813032423 9.3072368820 
Si 8.1905916452 4.3895573968 2.5247621850 
Si 1.5926403831 4.6739855002 7.4178951207 
Si 9.3362069021 6.6646745967 3.0008528019 
Si 7.5919167907 1.4298736349 10.2436124291 
Si 3.1388608437 6.5926155169 8.6057189864 
Si 5.4696586133 6.6847022049 0.2076198922 
Si 3.9717993104 4.6396585192 6.4221156509 
Si 6.0288616827 4.7425227760 4.3042809442 
Si 4.1702720593 1.8073431322 0.8692469929 
Si 4.8788123472 3.6400390100 2.0688582940 
Si 2.6338214224 4.9147092891 10.2011704479 
Si 5.3167889829 0.8199534057 9.4896917874 
Si 4.1896207655 9.8729425593 1.8553011920 
Si 6.5080816133 0.5131501783 2.4417982423 
Si 3.1853974524 5.2509673150 2.5295569302 
Si 0.2945108585 3.4580826733 9.8581234022 
Si 8.5389107890 9.8463274804 9.9370139331 
Si 10.4140380402 9.7507083806 1.2452122981 
Si 9.0005004840 6.6253194979 5.2258797655 
Si 4.1267268624 1.6976792478 7.0961380166 
Si 8.0041163671 8.6035231628 2.4602771054 
Si 4.2021274128 3.4686799088 9.2399725474 
Si 1.1896059833 10.4878155906 9.9815880908 
Si 9.8949114029 6.1046122920 8.2672757447 
Si 5.7741037171 8.0392177207 8.5263192790 
Si 6.4641439262 4.7235983835 0.9617007123 
Si 8.5230202397 1.4947512048 6.3184133744 
Si 3.3730608089 6.1035515076 4.7648628941 
Si 7.7006047535 9.1151606627 4.9693290744 
Si 6.3909816307 0.7507573828 4.8963895436 
Si 0.7683844361 7.9300417971 3.0150567041 
Si 10.5146322185 1.1800589243 2.4486721248 
Si 6.7679419516 9.9359319331 7.7281321070 
Si 0.1416497144 3.8287949744 5.0180721146 
Si 5.7372096380 8.1679120761 2.4063256142 
Si 0.9309931274 9.5502943964 4.8768923276 
Si 1.7364403074 2.0424871955 0.4529400596 
Si 2.6184506574 1.8847167415 3.7068047760 
Si 7.9113083458 4.8345458170 7.6765355570 
Si 8.3929892961 4.0675032730 5.2092678829 
Si 1.0885980990 3.6635884223 2.9043426432 
Si 10.5180585519 10.4268310992 7.9708819939 
Si 5.7970696979 5.8132784825 7.6887664004 
Si 9.4611036496 0.4008300899 4.0926756853 
Si 2.7571376012 7.3958838458 1.6720506983 

