&CONTROL
   calculation      = 'scf'
   tstress          = .true.
   tprnfor          = .true.
   outdir           = './'
   disk_io          = 'none'
   pseudo_dir       = '/home/ppiaggi/pseudos'
/
&SYSTEM
   ecutwfc          = 30
   occupations      = 'smearing'
   degauss          = 0.01
   smearing         = 'fermi-dirac'
   input_dft        = 'PBE'
   ntyp             = 1
   nat              = 64
   ibrav            = 0
/
&ELECTRONS
   electron_maxstep = 100
   mixing_beta      = 0.5
/
&IONS
/
&CELL
/

ATOMIC_SPECIES
Si 28.085 Si_ONCV_PBE_sr.upf

K_POINTS gamma

CELL_PARAMETERS angstrom
10.63025992452940 0.00000000000000 0.00000000000000
0.00000000000000 10.63025992452940 0.00000000000000
0.00000000000000 0.00000000000000 10.63025992452940

ATOMIC_POSITIONS angstrom
Si 8.4587210574 0.5011465957 3.0175374730 
Si 10.3395116853 5.8359914380 2.4748733341 
Si 1.3214901323 3.7019454977 4.4801230452 
Si 8.5761747993 0.0690629916 9.5092777550 
Si 2.7879982704 5.9666160720 8.2978427037 
Si 10.2260655514 7.0614690627 10.5352785521 
Si 5.9616092196 7.4149039446 6.2315008888 
Si 7.7452924231 3.1487786620 3.8740494059 
Si 8.2226655055 6.7570290487 2.7074421607 
Si 8.2632093169 1.1909824312 6.5265862740 
Si 5.3171497117 10.1037325202 3.4737244474 
Si 10.1577555011 2.9282220291 6.6700628922 
Si 10.2749541168 9.7227440045 2.7172219998 
Si 5.0616939354 0.0938186346 10.4930870505 
Si 7.1074768276 3.8164652878 10.4967970112 
Si 8.4162850598 7.3883708159 5.1054693458 
Si 4.6097271742 7.4147444907 3.7777073602 
Si 7.1697701508 9.0332228248 1.7489966654 
Si 0.9415646426 6.1367533821 4.7395651689 
Si 8.6539776717 5.5246523854 8.0493284872 
Si 7.9697291009 6.1370616596 0.0025337969 
Si 3.7600611287 2.7470398789 8.9347015758 
Si 6.9942645594 3.1671158604 7.0279943742 
Si 1.6644754687 8.4484947474 8.2558319165 
Si 9.5812127239 9.1456378235 0.5874345416 
Si 2.9210466036 6.6898245454 5.8147415485 
Si 2.8855309052 0.2734783189 8.8935093186 
Si 10.0815259072 10.2966185865 7.1870974745 
Si 9.0722146182 2.7147345190 9.5933950018 
Si 10.5079481538 2.7423094133 0.7664885137 
Si 1.1880165886 10.4387239012 10.5529460441 
Si 7.0239229846 1.0919615600 0.7300830625 
Si 6.1844194676 7.8442176219 9.7581002490 
Si 1.1944478959 4.7942578562 0.0244235537 
Si 4.6582862015 4.7943960496 5.3487641047 
Si 2.1763224841 0.7919681837 4.3168954041 
Si 3.3767126953 4.0291236376 3.0710714619 
Si 2.6395892116 3.5724051502 6.9325771611 
Si 4.4774016987 5.9241481836 0.8210164320 
Si 4.8722839641 6.6180915515 8.2523026702 
Si 1.7135234880 1.3006441925 6.9171951750 
Si 9.6630763556 8.0524112626 8.1513045706 
Si 0.1344494015 4.3224443997 8.3886782748 
Si 7.4770484442 10.0388773044 4.9115627745 
Si 4.3413981532 1.7431712829 3.6347941457 
Si 5.6080680350 4.1113912192 8.7180887693 
Si 6.1700048351 3.1041634611 1.9324749517 
Si 7.3126727349 9.0950803073 7.8768206291 
Si 2.5183829879 6.3318718030 2.5767431149 
Si 2.5678881084 9.0415463183 2.5646352489 
Si 2.3632343443 9.1012777488 5.8157514232 
Si 9.7794777017 3.5571507272 2.9160078604 
Si 10.4483974377 8.5054197893 4.8442413384 
Si 9.3999880527 4.7875076412 5.6312951529 
Si 4.7309333979 8.5918969537 1.1171552760 
Si 6.0986651608 5.4552686788 2.5269722380 
Si 4.7662152305 2.3468318533 6.1034912988 
Si 4.8640455126 9.6822852352 5.9363517220 
Si 6.8590795440 5.0783196619 5.3227518586 
Si 5.9217457449 0.4900369111 7.9077759460 
Si 3.8306354243 1.3914478728 1.1581880793 
Si 1.2246590946 0.8181048038 2.3028332075 
Si 2.1532654503 7.6715290495 0.2976685384 
Si 3.2341715400 3.7255234142 0.3771222902 

