&CONTROL
   calculation      = 'scf'
   tstress          = .true.
   tprnfor          = .true.
   outdir           = './'
   disk_io          = 'none'
   pseudo_dir       = '/home/ppiaggi/pseudos'
/
&SYSTEM
   ecutwfc          = 30
   occupations      = 'smearing'
   degauss          = 0.01
   smearing         = 'fermi-dirac'
   input_dft        = 'PBE'
   ntyp             = 1
   nat              = 64
   ibrav            = 0
/
&ELECTRONS
   electron_maxstep = 100
   mixing_beta      = 0.5
/
&IONS
/
&CELL
/

ATOMIC_SPECIES
Si 28.085 Si_ONCV_PBE_sr.upf

K_POINTS gamma

CELL_PARAMETERS angstrom
10.58856935162646 0.00000000000000 0.00000000000000
0.00000000000000 10.58856935162646 0.00000000000000
0.00000000000000 0.00000000000000 10.58856935162646

ATOMIC_POSITIONS angstrom
Si 8.8843179373 5.6399273452 2.2972642408 
Si 0.1217198401 2.5202171571 8.2217699759 
Si 8.3134458093 3.5841671941 3.6629885044 
Si 6.2712602042 7.2970066830 7.6837965328 
Si 5.3486569794 1.0075743761 9.9055960399 
Si 0.9205013937 9.6821454608 0.8957823786 
Si 2.4361968593 2.6517271884 5.4591698778 
Si 3.8757552169 9.2833693505 3.9935424624 
Si 0.4755188844 4.8823363852 6.7495247047 
Si 0.8855559383 5.2620001279 4.5052350763 
Si 4.0179173490 8.9680205781 7.8780438376 
Si 8.8349116727 7.9604334957 8.8954888780 
Si 6.3616759979 3.7242645552 2.0651098578 
Si 4.8172060951 6.0761022825 9.4868075335 
Si 3.1543983413 6.1514505420 4.2989591568 
Si 9.6052195045 0.7485398509 1.7021548776 
Si 4.2773372981 3.7505136186 4.2543812798 
Si 7.1538492253 1.7127222698 1.1803290028 
Si 10.3531113350 2.1522537836 5.8477915501 
Si 9.0684213927 0.1941202419 4.0991210874 
Si 2.4016040032 5.3064297649 8.0287403566 
Si 5.1639923299 0.7410992632 7.2032449014 
Si 5.5145798612 1.5056839732 4.4613242792 
Si 3.9674098732 2.9999958230 1.6147568261 
Si 7.6642712109 2.0324441213 8.2129179319 
Si 6.0396987810 10.3309071050 2.9771245132 
Si 6.9636361655 6.7933507932 3.9605590689 
Si 3.2109307130 7.5729977431 0.3381364325 
Si 0.7304768104 2.3121941236 1.2592244330 
Si 5.7712467823 8.4044122086 5.4409469499 
Si 5.8999614313 8.8709445743 9.8287759692 
Si 5.5931046915 3.0726334087 7.8179642951 
Si 10.4616229937 7.2545041656 3.3974483622 
Si 1.3227346720 5.2987212864 10.2836609086 
Si 0.8296144087 8.0219530836 9.3620212436 
Si 8.8756670762 5.8277367997 7.4700344948 
Si 2.7349745207 2.8424696767 7.5963667157 
Si 9.1634326255 8.8375270494 1.0556983649 
Si 5.2068654472 5.9839393748 2.6694736307 
Si 10.3970750749 10.5450609202 9.0348026850 
Si 9.9042195259 4.2867293592 0.4963561301 
Si 6.8213363820 4.5415750463 10.2959542376 
Si 3.3369876312 10.3271481629 10.4399481922 
Si 7.8008637556 6.8063959106 0.3180202685 
Si 1.7488610570 9.0150761803 7.1801618202 
Si 2.8639856497 0.3135794225 5.8533611376 
Si 5.4435517380 8.1921325703 1.5611151338 
Si 9.8271559181 10.1283477733 6.4991050395 
Si 8.2939522531 8.7972269544 3.2658642108 
Si 7.3797563525 10.0180784121 6.6782106901 
Si 8.0646038410 10.5331805453 9.6290014313 
Si 4.0655129683 3.5752727959 9.7923830564 
Si 7.4702462661 1.8307530523 5.5573153271 
Si 5.6180831266 4.9198728635 6.4359865776 
Si 2.1243952576 1.8203127229 9.8421705095 
Si 7.5712823949 5.1912790732 5.4613087688 
Si 2.2537134551 8.0395301088 2.6378667512 
Si 9.8941709735 7.9805623660 5.6689188480 
Si 1.3062165038 0.3749751242 3.7679106381 
Si 3.5066800436 0.5751012026 2.0923542467 
Si 3.7745814368 6.5980763972 6.4814962487 
Si 8.7478101013 3.9759124944 9.0472971968 
Si 2.2949982870 5.0661115949 1.8498018886 
Si 0.2080315043 2.9823552664 3.6643014870 

