&CONTROL
   calculation      = 'scf'
   tstress          = .true.
   tprnfor          = .true.
   outdir           = './'
   disk_io          = 'none'
   pseudo_dir       = '/home/ppiaggi/pseudos'
/
&SYSTEM
   ecutwfc          = 30
   occupations      = 'smearing'
   degauss          = 0.01
   smearing         = 'fermi-dirac'
   input_dft        = 'PBE'
   ntyp             = 1
   nat              = 64
   ibrav            = 0
/
&ELECTRONS
   electron_maxstep = 100
   mixing_beta      = 0.5
/
&IONS
/
&CELL
/

ATOMIC_SPECIES
Si 28.085 Si_ONCV_PBE_sr.upf

K_POINTS gamma

CELL_PARAMETERS angstrom
10.66349302127973 0.00000000000000 0.00000000000000
0.00000000000000 10.66349302127973 0.00000000000000
0.00000000000000 0.00000000000000 10.66349302127973

ATOMIC_POSITIONS angstrom
Si 5.4358008755 0.0645834455 6.1171554256 
Si 10.2297021252 1.0935731998 0.6078436282 
Si 0.4577251062 7.3675672808 3.5341801651 
Si 3.6128660801 5.8962185137 6.6622518619 
Si 0.4194303701 1.6661601211 2.9163373794 
Si 1.2847483027 2.8793777126 6.8317160930 
Si 5.4650615004 6.9092610142 0.8283476023 
Si 6.1778520279 1.8473222040 4.3610700679 
Si 5.1857526277 2.2753868044 7.2248044362 
Si 8.2745293527 8.5065669609 7.7080312860 
Si 5.2645025236 4.6026941563 7.7548013664 
Si 0.4659935787 10.4671567878 8.0114609799 
Si 9.1650376549 0.5552704750 9.0020035101 
Si 8.5409887164 6.4485341348 0.2328938866 
Si 2.1580457272 0.5717583679 0.8629868931 
Si 2.5885629309 10.5436673502 8.9596161254 
Si 2.6852274952 7.4574072095 4.8335161262 
Si 7.5616215268 0.7214759426 2.8681064005 
Si 8.5346972555 2.8205578851 1.9667106719 
Si 10.3077055766 3.2831402123 10.0673184534 
Si 3.2814660439 9.5981034335 6.6030908026 
Si 0.7000359235 8.3475742799 6.4834997284 
Si 6.8664684167 6.4120329981 9.0685330431 
Si 5.1180074565 8.0430782367 7.8255536426 
Si 6.1873212097 4.7288646057 1.4238002517 
Si 4.9807043204 5.4579916045 4.0965621235 
Si 8.8397584638 6.2858198947 3.6968730781 
Si 8.0746635030 4.1696710317 9.0047760183 
Si 9.9855827794 8.2855660680 9.2731974647 
Si 2.2413809251 4.6170258909 4.8459284321 
Si 0.9424235180 9.0370864022 0.4724162005 
Si 7.1604715828 3.0172246869 0.0036639655 
Si 4.6131657064 4.2087314066 10.2079805899 
Si 8.1719252229 9.7717050999 0.6680753022 
Si 10.5991388409 4.5248080032 3.8295269313 
Si 4.3346459322 3.2018950590 2.9179475668 
Si 6.7067719453 6.1574314388 6.0406235362 
Si 4.5123210529 0.4940023095 1.8690970568 
Si 3.4443615633 8.2286443423 9.5922171854 
Si 2.3383440672 2.9685884952 1.7669621206 
Si 6.1201518672 0.8296624110 0.2484764490 
Si 6.6089343968 10.3407304145 8.5558216351 
Si 3.8925055211 6.7639176044 2.3858072746 
Si 2.3970465963 0.4176954197 4.4856623204 
Si 1.9733540280 6.9805677921 8.0194479362 
Si 9.0662403921 6.5874048044 6.4283481425 
Si 4.0576617010 9.5286521035 3.6690093708 
Si 0.1958371820 5.7085303731 9.0974844267 
Si 1.4941579786 6.9243818473 1.3958619000 
Si 1.9534026326 2.5741672153 9.1400530908 
Si 4.4163709427 1.8456800261 9.3344272416 
Si 10.5103865885 4.9548880038 1.3857315816 
Si 9.1711051825 0.6764152201 4.6136668906 
Si 3.3530287456 2.4025276317 5.5110104918 
Si 7.6334828063 2.1696476076 7.5700670133 
Si 7.5269331840 7.9022881383 2.0016869290 
Si 2.2392375630 4.5039608744 0.0474455060 
Si 10.0642580309 4.4197299430 7.1885805504 
Si 6.1545736226 8.2515708523 4.2720725551 
Si 0.3483464592 0.9132887223 6.0438759016 
Si 7.6045100957 9.6672028683 5.4967853921 
Si 8.6591295555 2.9118693758 5.7578277013 
Si 7.4842685484 4.3416518471 3.7927911978 
Si 10.0011194888 9.6485204285 2.6121932315 

