&CONTROL
   calculation      = 'scf'
   tstress          = .true.
   tprnfor          = .true.
   outdir           = './'
   disk_io          = 'none'
   pseudo_dir       = '/home/ppiaggi/pseudos'
/
&SYSTEM
   ecutwfc          = 30
   occupations      = 'smearing'
   degauss          = 0.01
   smearing         = 'fermi-dirac'
   input_dft        = 'PBE'
   ntyp             = 1
   nat              = 64
   ibrav            = 0
/
&ELECTRONS
   electron_maxstep = 100
   mixing_beta      = 0.5
/
&IONS
/
&CELL
/

ATOMIC_SPECIES
Si 28.085 Si_ONCV_PBE_sr.upf

K_POINTS gamma

CELL_PARAMETERS angstrom
10.61278151446429 0.00000000000000 0.00000000000000
0.00000000000000 10.61278151446429 0.00000000000000
0.00000000000000 0.00000000000000 10.61278151446429

ATOMIC_POSITIONS angstrom
Si 2.9313669949 8.7942814020 0.3642327841 
Si 3.6782627195 10.5010926018 2.7875213542 
Si 0.5875724034 3.8601870203 5.3323390080 
Si 4.3083966220 4.1963256492 8.1655271611 
Si 4.4500029657 7.4805888550 1.8059451920 
Si 4.4333302859 9.4914562452 8.2049536445 
Si 3.8358731378 4.9626746023 5.9146941681 
Si 8.7582085576 9.1203272756 2.6565277920 
Si 1.0298430926 10.0131169078 6.0669663572 
Si 1.5797974307 0.5277046416 1.2894847924 
Si 1.9695942829 2.5139238468 3.2062168106 
Si 6.3050004338 7.4971129558 7.6489181826 
Si 9.4314197402 6.1605710902 0.1332774328 
Si 1.0859740940 4.4354210039 1.9117440109 
Si 1.3238171406 6.5384604016 10.1922182086 
Si 1.8378366004 4.2019716489 8.4613902842 
Si 9.4040069255 5.9702308537 8.0672209660 
Si 8.4233753008 0.3208360592 10.1812658181 
Si 8.6225029204 0.7507460418 3.5579031644 
Si 7.3100732944 1.7039351361 8.0393518017 
Si 6.8189562170 3.7772799711 1.6190434967 
Si 1.3771888188 6.6052784740 2.8022412822 
Si 6.7931247068 8.0136476449 10.2136241889 
Si 5.8324132730 8.3584250779 5.5065159783 
Si 9.4128473725 3.8321905026 0.9842282964 
Si 10.1008103214 6.4235982673 4.4166045423 
Si 6.0652576994 5.2488270303 5.1798014993 
Si 8.5563216148 8.3751932727 7.2347437712 
Si 3.9469783475 5.7477126637 3.0383862837 
Si 3.5476193791 7.5649498552 5.0631670305 
Si 10.1649009090 3.3079190958 9.0937740963 
Si 7.1451082185 5.2924667879 7.3338353122 
Si 4.7456856715 5.5711690432 0.1092819338 
Si 1.8571837011 1.8423151942 6.5604819232 
Si 3.7573597802 10.3794064490 6.0090524085 
Si 6.9575697564 4.2539318272 9.4166891994 
Si 7.3278921545 6.4817987611 1.4290322565 
Si 2.6122937187 4.2576781391 0.1727612252 
Si 3.9536537871 1.9352937731 10.5406570513 
Si 7.1896606753 10.2558524466 5.9899494018 
Si 2.2275485504 0.2100195172 9.0662763794 
Si 9.5738751065 8.6747071926 4.9084432888 
Si 2.2269330091 7.5006363993 7.0591340755 
Si 2.0158766231 9.2036588361 3.9239910627 
Si 7.2987706821 3.3100628777 4.8399059458 
Si 8.9067662732 3.2569565190 6.6932372072 
Si 3.5159508391 2.7590790998 5.1894803561 
Si 6.0608321695 9.2779270811 2.1791012028 
Si 7.2256273919 7.3274570305 3.8364462280 
Si 0.4209825107 8.7639925235 8.4865744147 
Si 5.0620102373 9.8713938234 10.2475638642 
Si 10.3395130032 0.9436747357 8.7118094768 
Si 8.6594566256 4.9348797275 3.3389827073 
Si 5.6626830582 1.6021479485 5.4257739365 
Si 0.5132245625 8.6048220264 1.3935643407 
Si 9.8222990961 1.2824485182 1.4222613019 
Si 4.5414108529 3.4329482748 2.5608111155 
Si 3.9542481028 6.9814060637 9.1877396638 
Si 9.6112427102 0.7977978086 6.2148979188 
Si 8.9171667991 8.6629800691 10.4659218439 
Si 0.8192802010 5.7727906664 6.7594609638 
Si 6.4948524823 1.6271516618 0.1714240147 
Si 4.5106974632 1.7941225534 8.1290085799 
Si 6.3458278043 1.3204635016 2.8855410043 

