&CONTROL
   calculation      = 'scf'
   tstress          = .true.
   tprnfor          = .true.
   outdir           = './'
   disk_io          = 'none'
   pseudo_dir       = '/home/ppiaggi/pseudos'
/
&SYSTEM
   ecutwfc          = 30
   occupations      = 'smearing'
   degauss          = 0.01
   smearing         = 'fermi-dirac'
   input_dft        = 'PBE'
   ntyp             = 1
   nat              = 64
   ibrav            = 0
/
&ELECTRONS
   electron_maxstep = 100
   mixing_beta      = 0.5
/
&IONS
/
&CELL
/

ATOMIC_SPECIES
Si 28.085 Si_ONCV_PBE_sr.upf

K_POINTS gamma

CELL_PARAMETERS angstrom
10.63519883249635 0.00000000000000 0.00000000000000
0.00000000000000 10.63519883249635 0.00000000000000
0.00000000000000 0.00000000000000 10.63519883249635

ATOMIC_POSITIONS angstrom
Si 1.9289698234 8.6579133008 2.2177154717 
Si 0.1305396210 1.7507451614 7.4489251679 
Si 7.0307066090 3.7207987579 7.6646920818 
Si 1.3035882265 3.1832532682 5.7383066117 
Si 9.0726860552 8.5023735178 9.5293083171 
Si 3.1455727587 9.2885274155 4.4993484885 
Si 0.6439751151 3.5464027675 2.1177765083 
Si 9.1543005711 0.0646121298 7.1134378207 
Si 8.7063353610 6.3559883247 1.4221600583 
Si 2.8746197980 3.7066007675 2.5506397360 
Si 2.9788022058 1.7999116856 4.3297277023 
Si 8.5488280663 1.1109528700 2.4401400201 
Si 3.4878240923 5.8890499199 10.3364986381 
Si 7.6117500620 6.3877875692 6.4285416511 
Si 0.4832379105 0.4417021414 9.9878130092 
Si 6.9658957073 10.3940988750 4.5585120996 
Si 5.6885445163 1.8276482842 8.4031683831 
Si 2.5731012759 0.4767387405 6.6916671054 
Si 1.9339896373 2.6212893618 10.3878666484 
Si 4.4656668138 7.7958985298 6.4308282188 
Si 2.6441124985 5.5440227994 5.6428237965 
Si 5.9102884120 8.2277833192 4.1994677870 
Si 7.3790838171 8.6007597422 1.3503299254 
Si 1.6622071311 9.3571031776 8.2085655149 
Si 10.1432038993 4.4480549245 0.0214808682 
Si 7.2219593896 4.3207728649 0.8250489469 
Si 2.9079186056 5.8906983757 3.4140796236 
Si 5.6869811421 4.6968334956 2.8791929335 
Si 10.3136861366 4.9664251508 4.6418069768 
Si 5.1775870236 5.5642403124 8.0213115690 
Si 0.8388885311 6.5283317217 0.2188766461 
Si 7.7164642297 2.3717663268 5.7285966751 
Si 1.0758141731 0.4463592950 2.8038000090 
Si 9.4683154518 9.6690335594 2.7158256443 
Si 5.9085442394 2.1455450125 2.9314223950 
Si 5.1111808421 2.7667257059 5.5449267913 
Si 10.1385669526 7.9740806510 4.2506337286 
Si 4.7610169205 6.9757545366 2.4489034240 
Si 3.3482371076 7.9020484493 8.8228333291 
Si 10.0465831179 2.5338786626 3.9235481885 
Si 7.7040954935 6.3254333984 3.8535898506 
Si 1.5153669408 7.7630995766 5.7609276796 
Si 5.9640493421 6.6773521278 0.3753448818 
Si 5.3671594428 9.6917397089 8.6952641191 
Si 9.5404433703 3.3230742272 8.4864100844 
Si 4.5862593333 10.5095120527 2.9618816045 
Si 0.7227659856 6.6495304476 8.3748043078 
Si 5.2579891268 0.2189574736 6.4612661579 
Si 9.7260914011 5.2017501954 7.0215603380 
Si 8.1979409513 10.4767024643 9.2738508411 
Si 2.5604666597 4.8198189349 7.9140343184 
Si 2.8916786570 0.5118923267 1.0325959156 
Si 0.3843571493 6.3127243358 2.5584778775 
Si 6.4684768227 7.6435493065 8.5685563602 
Si 5.2231163098 5.2176923584 5.4372879439 
Si 9.0291987272 1.6870190500 0.1249380618 
Si 3.8409020584 8.4563869181 0.5657659899 
Si 9.4649972698 8.0995121861 7.1423017503 
Si 0.3358627697 10.4879119639 5.2343045390 
Si 3.1000966485 2.4727900805 7.8651443094 
Si 10.5044071573 8.7817920968 0.6637629660 
Si 6.1985129355 1.9135594203 0.3429904799 
Si 5.4998654538 10.2517892794 0.4941049566 
Si 4.0142983401 3.2608902196 0.5113722655 

