&CONTROL
   calculation      = 'scf'
   tstress          = .true.
   tprnfor          = .true.
   outdir           = './'
   disk_io          = 'none'
   pseudo_dir       = '/home/ppiaggi/pseudos'
/
&SYSTEM
   ecutwfc          = 30
   occupations      = 'smearing'
   degauss          = 0.01
   smearing         = 'fermi-dirac'
   input_dft        = 'PBE'
   ntyp             = 1
   nat              = 64
   ibrav            = 0
/
&ELECTRONS
   electron_maxstep = 100
   mixing_beta      = 0.5
/
&IONS
/
&CELL
/

ATOMIC_SPECIES
Si 28.085 Si_ONCV_PBE_sr.upf

K_POINTS gamma

CELL_PARAMETERS angstrom
10.62278395780717 0.00000000000000 0.00000000000000
0.00000000000000 10.62278395780717 0.00000000000000
0.00000000000000 0.00000000000000 10.62278395780717

ATOMIC_POSITIONS angstrom
Si 2.0125607803 0.7997447885 8.6110942458 
Si 8.4876256279 9.5495640945 4.2091612927 
Si 1.9522021218 3.4258796947 8.2282491120 
Si 7.5568572975 8.1306788413 6.4331048509 
Si 8.6115191572 5.0356351301 2.0852949821 
Si 7.5084598938 3.5839892112 5.6478261696 
Si 8.0974507731 9.0021507916 10.0203658796 
Si 1.9980181891 5.8953795270 1.3039254853 
Si 4.6952386410 5.4643069540 2.7584714242 
Si 3.1161830512 4.7707135210 9.8646252440 
Si 9.4070275794 2.9581691399 7.1276649572 
Si 1.1401540250 0.7549166402 4.6070589114 
Si 5.0587184397 0.3100641918 6.1065710948 
Si 7.8550707115 1.8808701276 3.5476911584 
Si 5.1949662667 9.1577108399 4.3975563661 
Si 4.7601119826 7.9941229535 7.7313790151 
Si 0.4964961748 2.0327334470 2.1811231161 
Si 10.5295690286 5.0255541082 7.4519785515 
Si 8.0032160566 4.1316680837 9.1276589841 
Si 3.2398535021 0.1960785331 0.0010127327 
Si 0.6533288326 2.7011083909 10.4057817271 
Si 1.3235138989 8.8824320164 8.9371074855 
Si 5.3624132103 4.5646952489 9.9896022972 
Si 3.1333176018 7.5458202249 3.7352470319 
Si 7.9517168000 5.5107816338 4.2832764563 
Si 2.1233776625 8.8827613227 1.6725042202 
Si 0.2993797957 8.8009021496 6.4820440166 
Si 5.2305101018 3.5667484328 1.5654159352 
Si 7.5224713458 1.5438623065 10.2041506648 
Si 3.6713297409 4.1684335390 4.5151824529 
Si 7.3838227696 7.1294283394 9.0333817765 
Si 9.3004385652 10.1608309518 7.4338879504 
Si 2.9375290706 0.7717516282 2.6094231425 
Si 5.3686700300 2.7969577705 5.2779302094 
Si 0.6227596472 6.7885538249 3.9436660532 
Si 9.7413053450 6.7365552975 5.7611606517 
Si 10.1213354411 3.7710670595 3.5680762808 
Si 5.4913631847 1.0062134666 9.5135103658 
Si 6.6899531442 5.3248085550 7.2410100621 
Si 9.5215305677 0.4754545644 1.3723680823 
Si 5.8363274710 6.8111166181 4.8872667066 
Si 6.6420018975 6.5895678358 0.8036762808 
Si 2.9589977170 7.2999877586 9.3235431203 
Si 9.3453623185 1.0476232030 5.4778616263 
Si 2.8386203292 0.4205422073 6.3721831849 
Si 0.2959380137 9.3926549527 4.0140526197 
Si 4.1608807396 7.6810057736 0.7875721404 
Si 5.6142581723 9.4969175773 0.3006651526 
Si 2.7459365392 8.5657986950 6.1632967612 
Si 10.4361735120 5.0245874348 0.3617227902 
Si 9.7516200682 1.3822897625 8.9547944208 
Si 6.3525522802 10.2688115508 2.4357406248 
Si 10.5309712361 7.6290497373 1.3780087806 
Si 10.0293952459 6.6157529983 9.2257285256 
Si 10.2788713272 9.4691283744 10.5727718909 
Si 4.1654697822 5.6013514898 6.1880266022 
Si 1.6056656636 4.8116112393 3.3949567706 
Si 7.4636848594 2.9226784187 1.4562986983 
Si 3.1373117685 2.4598118533 0.6542976305 
Si 4.7649347265 3.1303432223 7.8929940502 
Si 1.9910602656 6.3526372624 7.1044754198 
Si 5.0359750592 1.7472673737 3.1159705956 
Si 8.4739859733 8.0655505529 2.4628393467 
Si 6.5159944342 10.1661210982 7.8039326295 

