&CONTROL
   calculation      = 'scf'
   tstress          = .true.
   tprnfor          = .true.
   outdir           = './'
   disk_io          = 'none'
   pseudo_dir       = '/home/ppiaggi/pseudos'
/
&SYSTEM
   ecutwfc          = 30
   occupations      = 'smearing'
   degauss          = 0.01
   smearing         = 'fermi-dirac'
   input_dft        = 'PBE'
   ntyp             = 1
   nat              = 64
   ibrav            = 0
/
&ELECTRONS
   electron_maxstep = 100
   mixing_beta      = 0.5
/
&IONS
/
&CELL
/

ATOMIC_SPECIES
Si 28.085 Si_ONCV_PBE_sr.upf

K_POINTS gamma

CELL_PARAMETERS angstrom
10.60122242334566 0.00000000000000 0.00000000000000
0.00000000000000 10.60122242334566 0.00000000000000
0.00000000000000 0.00000000000000 10.60122242334566

ATOMIC_POSITIONS angstrom
Si 6.4698306340 2.3416828186 6.7885669873 
Si 8.7054164186 3.6664327751 10.0280779342 
Si 0.4388068587 3.1783630960 9.2582277631 
Si 0.1235455860 6.6179191100 1.4139592432 
Si 3.0814679230 2.5423533579 9.1469043264 
Si 5.6296837569 5.6332139640 4.9301302916 
Si 2.2257372490 1.8970887527 0.9816424529 
Si 7.0838428355 2.0518984037 8.9475165351 
Si 4.3064921801 4.1507178179 7.9260675521 
Si 10.1166723500 1.5469197748 7.6947064740 
Si 8.9892323453 7.0709835527 3.4502102426 
Si 8.8229203679 2.1001127633 1.1607172419 
Si 6.4275317565 7.2528581246 3.4643416721 
Si 7.1267565839 0.1064299124 0.6471696449 
Si 3.6224058984 0.0673362085 7.9687904785 
Si 0.1029543016 5.2973460352 4.5391784111 
Si 4.6466748065 9.6568549287 5.9152064804 
Si 0.0959361864 7.7127921594 9.2798966617 
Si 9.4325542646 7.6775748985 5.6795837109 
Si 7.0651846840 5.7114085806 8.3511447677 
Si 10.2995964430 3.5289137178 3.1231095247 
Si 6.0514851947 9.4797933117 4.0040287032 
Si 8.0682299448 10.2474490299 8.6706868139 
Si 4.6455298745 1.2549409068 5.5806425020 
Si 10.5620827102 10.1786470963 9.5959509058 
Si 1.2900627567 4.2090775473 0.9888332620 
Si 2.3574044315 10.2057862257 3.0686722476 
Si 6.1681622487 3.5674809650 3.3151400677 
Si 3.1962261557 8.0824673866 4.4821014296 
Si 8.3161819361 0.9176672559 5.9999208488 
Si 2.0962857220 1.9006401622 6.0830662363 
Si 2.6953289975 4.0539604608 6.1174353994 
Si 6.1967643468 8.0265777419 8.0112801780 
Si 7.1776742552 4.4599342735 6.3223994337 
Si 4.2882474764 8.1290173542 1.9876231922 
Si 7.5013613794 9.1625941356 6.0906143067 
Si 3.1019600860 5.5759779641 1.4534806004 
Si 1.1962207358 1.2957556131 4.0272771840 
Si 4.5385741414 6.7954895856 6.5956247392 
Si 8.6874897515 6.2602338654 10.4781846359 
Si 0.7481102443 4.4366433878 7.4618612247 
Si 1.4073758840 8.6525905273 1.0361136539 
Si 6.8839249830 8.3780824738 10.5513224694 
Si 8.2922973820 4.6894613402 2.3032003813 
Si 8.0297051026 2.1413833222 3.9952296886 
Si 2.9950467578 3.0181362203 3.2402636337 
Si 9.3040356452 6.2562160021 7.6702600551 
Si 9.6598656758 9.7032988841 3.0029022636 
Si 9.5074306986 3.7862477909 6.0531813903 
Si 1.4658522269 10.1082019733 7.8693298097 
Si 2.5306602096 5.6848631196 4.0936196339 
Si 2.2679725191 6.7614596616 7.5255003629 
Si 0.1732462370 0.6455921830 1.4301049049 
Si 6.2795810964 6.4351540354 1.0958695643 
Si 2.8262010883 7.3212148068 9.8043179326 
Si 4.7358204858 10.5723870984 1.0619032477 
Si 4.7546800605 5.8373086981 9.5281878921 
Si 1.0710733051 8.4841052993 6.1026254917 
Si 5.1159591195 2.1840320400 10.4752162936 
Si 4.3707779929 9.1911326264 9.6347937848 
Si 7.6726771338 0.1867924790 2.7851425538 
Si 10.3369339483 10.4150649576 5.1449746653 
Si 5.0425880591 4.1602271144 1.3392418275 
Si 4.7997564583 1.4419464704 3.2567803382 

