&CONTROL
   calculation      = 'scf'
   tstress          = .true.
   tprnfor          = .true.
   outdir           = './'
   disk_io          = 'none'
   pseudo_dir       = '/home/ppiaggi/pseudos'
/
&SYSTEM
   ecutwfc          = 30
   occupations      = 'smearing'
   degauss          = 0.01
   smearing         = 'fermi-dirac'
   input_dft        = 'PBE'
   ntyp             = 1
   nat              = 64
   ibrav            = 0
/
&ELECTRONS
   electron_maxstep = 100
   mixing_beta      = 0.5
/
&IONS
/
&CELL
/

ATOMIC_SPECIES
Si 28.085 Si_ONCV_PBE_sr.upf

K_POINTS gamma

CELL_PARAMETERS angstrom
10.54150688005228 0.00000000000000 0.00000000000000
0.00000000000000 10.54150688005228 0.00000000000000
0.00000000000000 0.00000000000000 10.54150688005228

ATOMIC_POSITIONS angstrom
Si 5.2864075777 9.0860515666 1.9315730132 
Si 10.2668900843 5.3924340539 1.6781446463 
Si 0.3063741394 3.8881821052 9.9690608904 
Si 1.3851750871 2.3221569261 8.1610765039 
Si 8.7751614457 0.8522586941 3.1650031087 
Si 5.9344150887 6.5427654507 9.6881508151 
Si 4.7404945609 7.4737807969 4.1332194326 
Si 2.8671106658 10.5188320988 7.4754358134 
Si 9.3318057165 0.0483933173 5.5529495792 
Si 5.1194933578 2.1630645043 1.1245468710 
Si 4.5199135295 6.8466033035 1.2503386725 
Si 2.9511897246 9.2232809032 9.7398252818 
Si 9.7401309855 6.2328978560 4.5437584180 
Si 6.6715299573 6.1049450455 6.1669923550 
Si 8.1891379952 1.7688332300 7.1525599992 
Si 7.2143648540 5.7981344877 3.9212824368 
Si 0.2503238931 9.3767441604 8.2767168344 
Si 4.3090833919 9.5408859640 5.7022173166 
Si 3.5345461739 2.2954131231 9.4508931197 
Si 2.9201344454 6.5766985614 6.9500471105 
Si 7.2052991581 1.4694755176 0.0297992587 
Si 4.1206117904 4.3032855631 3.1829025874 
Si 1.6149272295 5.1223817307 3.8320907471 
Si 7.7059891104 10.0745286668 1.2972483782 
Si 9.9672477513 1.0468907522 8.6177345820 
Si 5.6308618566 8.9547254739 9.8013771405 
Si 3.7191806669 2.2436859489 4.4402408205 
Si 1.1511009268 10.4898113303 5.8997229895 
Si 5.0031572879 3.7945418996 7.5540543718 
Si 8.8469280246 7.3657830589 6.6723205703 
Si 0.2711686688 1.3330789601 0.4551675090 
Si 6.1619113487 4.7727199475 1.2679008230 
Si 1.9471006528 10.1583441880 3.4976192753 
Si 2.4511533458 7.6086488359 3.7973037744 
Si 4.2441266265 5.2814319865 5.5257630330 
Si 7.3938445502 4.1458270748 7.7506218505 
Si 5.3455981389 7.8589990828 7.2684954919 
Si 2.4035795252 0.5561214121 0.4130773803 
Si 1.3248144187 4.2812643552 6.7106284063 
Si 8.1099923616 5.5346178987 9.7154744009 
Si 5.3457562615 1.0450375553 8.2043177652 
Si 0.6750528010 1.5757866145 3.0651328725 
Si 7.5701934188 8.1307696717 3.0370081321 
Si 4.0778132724 0.4328458682 2.5037238406 
Si 1.7375565790 6.9604094118 1.1620640939 
Si 8.6775681750 3.1683658494 0.1724137241 
Si 10.1956716638 5.9669145544 8.2455350571 
Si 1.4014300907 2.3527800036 5.2802513377 
Si 9.4932383529 8.9952681094 10.5325782237 
Si 3.1057071325 4.3910541494 0.3615294117 
Si 1.0471395318 7.9102518892 5.9053099882 
Si 5.6859412300 1.5204120788 5.7364666725 
Si 0.6715730496 9.0356842468 1.5531856237 
Si 8.0035231421 2.7470534439 4.7367101600 
Si 1.0851427182 3.3859109269 2.0532009195 
Si 4.0171890664 5.3624329254 9.0358107448 
Si 7.6979775652 10.2566121151 8.9303745930 
Si 1.6350825907 7.2067644276 9.1465492746 
Si 9.4474038810 4.3011561787 6.0045899000 
Si 7.5163579431 9.3091520182 6.4072332968 
Si 8.3722334282 3.8999148023 2.4064257321 
Si 6.5251611342 10.4818103266 4.1554514706 
Si 8.5666293566 6.9595977158 1.0170993996 
Si 9.8594397604 8.8629194905 3.5590340944 

