&CONTROL
   calculation      = 'scf'
   tstress          = '.true.'
   tprnfor          = '.true.'
   outdir           = './'
   disk_io          = 'none'
   pseudo_dir       = './'
/
&SYSTEM
   ecutwfc          = 30
   input_dft        = 'PBE'
   ntyp             = 1
   nat              = 64
   ibrav            = 0
/
&ELECTRONS
   electron_maxstep = 1000
   mixing_beta      = 0.5
/
&IONS
/
&CELL
/

ATOMIC_SPECIES
Si 28.085 Si_ONCV_PBE-1.0.upf

K_POINTS gamma

CELL_PARAMETERS angstrom
10.81701956054031 0.00000000000000 0.00000000000000
0.00000000000000 10.81248799574057 0.00000000000000
0.00000000000000 0.00000000000000 11.11216028044378

ATOMIC_POSITIONS angstrom
Si 4.1031892727 4.1372526235 1.4130920615 
Si 0.0391284970 2.7095381498 2.7580126574 
Si 4.1359422922 1.3534265757 4.1375914031 
Si 0.0234258892 0.0036061789 0.0013009540 
Si 1.4043141745 4.1482699871 4.0988843760 
Si 2.7148118549 2.7576952297 -0.0424664606 
Si 1.3740793965 1.4065254722 1.3497095129 
Si 2.7182032577 0.0181411090 2.7540221947 
Si 4.1500444192 4.1422088858 6.8297554145 
Si 0.0146624817 2.7726102850 8.1837063217 
Si 4.0633283484 1.4261282199 9.6037911834 
Si 0.0451257424 -0.0378654292 5.4902220862 
Si 1.3438650563 4.1217975940 9.6298695625 
Si 2.7331951203 2.7556891503 5.4444780564 
Si 1.3461194675 1.3745593852 6.8221666827 
Si 2.7488679173 -0.0300508613 8.2362315736 
Si 4.1459226252 9.6508005061 1.3388817131 
Si -0.0483158113 8.2287151134 2.7610662580 
Si 4.0984634959 6.9230106455 4.1017974904 
Si -0.0004682938 5.4780857989 0.0447000703 
Si 1.3924936574 9.6931671949 4.0637262326 
Si 2.7685672598 8.3162478481 0.0348265256 
Si 1.3322506956 6.8813095095 1.3687245079 
Si 2.6981497251 5.5404879669 2.7031016847 
Si 4.0879307282 9.6693933607 6.8124134491 
Si -0.0251753777 8.2738376985 8.2404968623 
Si 4.0974074075 6.9046641932 9.5705926737 
Si -0.0210422415 5.5458947392 5.5091315026 
Si 1.3996049489 9.6664533216 9.6075920531 
Si 2.6945029310 8.2941230219 5.4309769725 
Si 1.3668573123 6.9313280654 6.8022808424 
Si 2.7657994039 5.5345252996 8.2192835313 
Si 9.5408036149 4.1552004445 1.3511007761 
Si 5.5029337910 2.8030344623 2.7666922981 
Si 9.5861094685 1.3399969236 4.0975337783 
Si 5.4538760431 0.0186025854 0.0253797452 
Si 6.8604845716 4.1181279575 4.0799023434 
Si 8.2372728874 2.7128574798 0.0412275706 
Si 6.8580157163 1.4289160076 1.4087892641 
Si 8.2335336007 -0.0253365376 2.6999577173 
Si 9.6100495807 4.1853180898 6.8487292091 
Si 5.4187468654 2.7595404037 8.2629686762 
Si 9.5822130143 1.3579069451 9.6126903754 
Si 5.4806197457 -0.0160087542 5.5269319946 
Si 6.7947670809 4.1129145542 9.5469428168 
Si 8.2220638250 2.7546119639 5.4659554473 
Si 6.7976102191 1.4012061024 6.8791203782 
Si 8.2122937784 -0.0033247208 8.2517681963 
Si 9.5689489635 9.6937216124 1.3503775818 
Si 5.4508921157 8.2429586329 2.7067464030 
Si 9.5982311375 6.9431049934 4.1074910160 
Si 5.4388970091 5.5101220696 -0.0140616255 
Si 6.8595091531 9.6912679245 4.0787681441 
Si 8.2207142526 8.2401036477 -0.0006564025 
Si 6.8834333549 6.9157089818 1.4055627714 
Si 8.2235092286 5.5346429972 2.7069309801 
Si 9.5394060430 9.6479378874 6.8767474766 
Si 5.4628307942 8.2419130261 8.2663174841 
Si 9.6168711803 6.8546123632 9.6332490357 
Si 5.4303388513 5.5366196264 5.4400315207 
Si 6.8304548363 9.6312978787 9.5647742980 
Si 8.2042898451 8.2433886821 5.4613095676 
Si 6.8205102204 6.9097065926 6.8650730089 
Si 8.1569945757 5.5511736529 8.2122071314 

