&CONTROL
   calculation      = 'scf'
   tstress          = '.true.'
   tprnfor          = '.true.'
   outdir           = './'
   disk_io          = 'none'
   pseudo_dir       = './'
/
&SYSTEM
   ecutwfc          = 30
   input_dft        = 'PBE'
   ntyp             = 1
   nat              = 64
   ibrav            = 0
/
&ELECTRONS
   electron_maxstep = 1000
   mixing_beta      = 0.5
/
&IONS
/
&CELL
/

ATOMIC_SPECIES
Si 28.085 Si_ONCV_PBE-1.0.upf

K_POINTS gamma

CELL_PARAMETERS angstrom
10.92566118645239 0.00000000000000 0.00000000000000
0.00000000000000 10.94235521991731 0.00000000000000
0.00000000000000 0.00000000000000 10.75489349833544

ATOMIC_POSITIONS angstrom
Si 4.1332155177 4.0469918706 1.3439015426 
Si -0.0260889466 2.6997621429 2.6960697651 
Si 4.1501385411 1.3984123758 4.0985783589 
Si -0.0138759346 -0.0248894209 0.0092183290 
Si 1.4091577377 4.1282918369 4.0867881265 
Si 2.7714770519 2.7194934155 0.0270032448 
Si 1.3358890436 1.4042331830 1.3905558028 
Si 2.7207114640 -0.0010273211 2.7314332440 
Si 4.1122267918 4.1229770559 6.8630674016 
Si 0.0498277969 2.6714456175 8.2318135490 
Si 4.1640334892 1.3335821343 9.6079694718 
Si 0.0078682321 0.0043059999 5.4914839035 
Si 1.3350269591 4.1258205577 9.5558030116 
Si 2.7319543076 2.6711672856 5.4953473866 
Si 1.3585508157 1.3936719299 6.8421366451 
Si 2.7126997722 -0.0221563484 8.2196210312 
Si 4.1509720524 9.5337465515 1.4009392492 
Si -0.0383577712 8.1896828999 2.7305362692 
Si 4.1459537577 6.7964933676 4.1137925382 
Si -0.0333789170 5.4639202253 -0.0381015740 
Si 1.3500197092 9.5347235884 4.1159739059 
Si 2.7215471451 8.1251863199 0.0176486474 
Si 1.3877396125 6.7772179995 1.3778358178 
Si 2.7380786648 5.4239455478 2.7332609629 
Si 4.1868210418 9.5480232450 6.8419699924 
Si 0.0486337338 8.1217317815 8.2093020022 
Si 4.1471541573 6.8398648577 9.6152203204 
Si 0.0106012718 5.4064242606 5.5078641267 
Si 1.4072012128 9.5613486315 9.5959674429 
Si 2.7407966352 8.1493435303 5.4828136090 
Si 1.4155515155 6.8231261545 6.8421052534 
Si 2.7478926167 5.4586232193 8.1922289791 
Si 9.6935619895 4.1258062869 1.3433405605 
Si 5.5189911037 2.6978966039 2.7575453970 
Si 9.6337560602 1.3351637653 4.1263526704 
Si 5.4848990857 -0.0251948760 0.0297137157 
Si 6.8561548266 4.0505189936 4.0766208822 
Si 8.2601264709 2.7521560448 0.0406308356 
Si 6.9389684014 1.3403622674 1.3315050279 
Si 8.2933716589 0.0366384029 2.7809905065 
Si 9.6298550465 4.0677589570 6.8037641705 
Si 5.4903442729 2.6713750926 8.2520819494 
Si 9.6320584888 1.3666843592 9.5855028238 
Si 5.4695297509 0.0423575651 5.4651154036 
Si 6.9416663167 4.1134776895 9.6242074106 
Si 8.2247045637 2.6828803594 5.4413998238 
Si 6.9398837021 1.3847228768 6.8300744043 
Si 8.2737684174 0.0037940206 8.2424028593 
Si 9.6292300904 9.5635965662 1.3626294391 
Si 5.5265339922 8.1905952180 2.7151860165 
Si 9.6617375527 6.7819319139 4.0819823402 
Si 5.4958280518 5.4208170116 0.0226129859 
Si 6.9074955235 9.4847340499 4.1296588405 
Si 8.2766519892 8.1359905642 0.0119093588 
Si 6.9268934410 6.8408476488 1.3332677194 
Si 8.3012390187 5.4494953810 2.7792132353 
Si 9.6857030229 9.5382013527 6.8404001636 
Si 5.4975984273 8.2092699830 8.2041479119 
Si 9.6736641913 6.7937960545 9.5481378789 
Si 5.5367170903 5.4191204155 5.4562428077 
Si 6.8694207892 9.5389478949 9.6167974083 
Si 8.3126924639 8.1728725622 5.5066274230 
Si 6.9164079877 6.7743898116 6.8850641703 
Si 8.2279537872 5.3949410772 8.2654964198 

