&CONTROL
   calculation      = 'scf'
   tstress          = '.true.'
   tprnfor          = '.true.'
   outdir           = './'
   disk_io          = 'none'
   pseudo_dir       = './'
/
&SYSTEM
   ecutwfc          = 30
   input_dft        = 'PBE'
   ntyp             = 1
   nat              = 64
   ibrav            = 0
/
&ELECTRONS
   electron_maxstep = 1000
   mixing_beta      = 0.5
/
&IONS
/
&CELL
/

ATOMIC_SPECIES
Si 28.085 Si_ONCV_PBE-1.0.upf

K_POINTS gamma

CELL_PARAMETERS angstrom
11.06767845100973 0.00000000000000 0.00000000000000
0.00000000000000 10.86064898427036 0.00000000000000
0.00000000000000 0.00000000000000 11.14957548705237

ATOMIC_POSITIONS angstrom
Si 4.2158545724 4.1089866679 1.4556589806 
Si 0.0497917832 2.6689597560 2.7892552899 
Si 4.2287131373 1.3518645446 4.2681103338 
Si 0.0175564173 0.0394270738 0.0136152537 
Si 1.3636335854 4.0975132196 4.1922334010 
Si 2.8466059704 2.7575397600 0.0141948536 
Si 1.4119716651 1.3560439693 1.4526383211 
Si 2.7850864661 -0.0368375365 2.7800612391 
Si 4.2299199905 4.1113210573 7.1074008246 
Si 0.0137124625 2.6991390589 8.4400804971 
Si 4.2545441403 1.3943430606 9.8592537423 
Si -0.0167028753 0.0119159496 5.6681127694 
Si 1.3898287840 4.0525841128 9.8802838780 
Si 2.8248314788 2.6595250420 5.6972480271 
Si 1.3848410582 1.3940808783 7.0765070225 
Si 2.8162871454 -0.0343208741 8.5066662515 
Si 4.1768281178 9.5165205642 1.3749608674 
Si 0.0198601727 8.1005487842 2.7925779117 
Si 4.1953275843 6.7984640211 4.2427138411 
Si -0.0500422738 5.3731329768 -0.0276507418 
Si 1.4321148293 9.5161994581 4.2560806072 
Si 2.8619249097 8.0982670564 0.0040637100 
Si 1.3938376813 6.7631848810 1.4291486571 
Si 2.8109899825 5.4045990854 2.8007270316 
Si 4.1894321474 9.4735377564 7.0814955697 
Si 0.0418480840 8.1005503696 8.5123247416 
Si 4.1980947021 6.7280768097 9.9289842063 
Si -0.0385207764 5.4219142138 5.6381939205 
Si 1.4223141436 9.4635510355 9.8742944097 
Si 2.8618357753 8.1184562915 5.6169761614 
Si 1.3880428974 6.7695159928 7.0572927908 
Si 2.7706361868 5.4638699738 8.5088343591 
Si 9.8234654352 4.1042464656 1.4301869101 
Si 5.6026834993 2.7507585814 2.8513261367 
Si 9.8519674865 1.3189945739 4.2728032226 
Si 5.6725585875 0.0412838240 0.0338203826 
Si 7.0771084294 4.0790282924 4.2387121964 
Si 8.4244821768 2.6635822204 0.0003008782 
Si 7.0380395807 1.3721548835 1.4147197016 
Si 8.4525787470 0.0170181797 2.7802974644 
Si 9.8552143829 4.0455849338 7.0326005329 
Si 5.6537308129 2.6871206441 8.4621590213 
Si 9.8624489064 1.3926988933 9.8890186776 
Si 5.5978517076 -0.0234349128 5.6089918161 
Si 7.0467380924 4.0657148246 9.8814924682 
Si 8.4062259622 2.7126994912 5.6742567623 
Si 7.0702490077 1.3599188919 7.0712098910 
Si 8.4500025888 -0.0239883298 8.4529112988 
Si 9.8704621612 9.4831212000 1.3639721309 
Si 5.6273603867 8.1606215347 2.7929635096 
Si 9.8956333888 6.7227967628 4.2621001056 
Si 5.6705579171 5.4001456127 0.0285801514 
Si 7.0556198408 9.4504812272 4.2212207877 
Si 8.4288008924 8.1029725677 0.0222499764 
Si 7.0822228691 6.7742335035 1.4261855451 
Si 8.4203664599 5.4083771294 2.8598152088 
Si 9.7972388482 9.4569612515 7.0923609768 
Si 5.6071255423 8.1142666073 8.4508539009 
Si 9.8506870360 6.8090971262 9.9313966095 
Si 5.5936795400 5.4265376698 5.6860366265 
Si 7.0855727467 9.4310477179 9.8736639525 
Si 8.4359810065 8.1595360027 5.6854028254 
Si 7.0481392179 6.7894498517 7.0502366179 
Si 8.4182854513 5.4406212319 8.5273609822 

