&CONTROL
   calculation      = 'scf'
   tstress          = '.true.'
   tprnfor          = '.true.'
   outdir           = './'
   disk_io          = 'none'
   pseudo_dir       = './'
/
&SYSTEM
   ecutwfc          = 30
   input_dft        = 'PBE'
   ntyp             = 1
   nat              = 64
   ibrav            = 0
/
&ELECTRONS
   electron_maxstep = 1000
   mixing_beta      = 0.5
/
&IONS
/
&CELL
/

ATOMIC_SPECIES
Si 28.085 Si_ONCV_PBE-1.0.upf

K_POINTS gamma

CELL_PARAMETERS angstrom
10.78953793818310 0.00000000000000 0.00000000000000
0.00000000000000 10.76329282792413 0.00000000000000
0.00000000000000 0.00000000000000 10.91810876586710

ATOMIC_POSITIONS angstrom
Si 4.0619554111 4.1390791109 1.2908182158 
Si -0.0127171782 2.6978290959 2.7219963314 
Si 4.0644052845 1.3214851846 4.0666794320 
Si -0.0220263900 -0.0273199605 -0.0009918695 
Si 1.3379383336 4.1194396592 4.0297909728 
Si 2.7132811570 2.7494468604 0.0214397615 
Si 1.3802215930 1.3515147725 1.3558650353 
Si 2.7298668126 0.0098528372 2.6402916445 
Si 4.0666712280 4.0983473189 6.7108738772 
Si 0.0045764429 2.7704706894 7.9988545220 
Si 4.0197632089 1.4111014715 9.3443236641 
Si -0.0490179597 0.0339427227 5.3318609894 
Si 1.2980902621 4.1242595318 9.4198243260 
Si 2.7135539532 2.7581052563 5.3706225539 
Si 1.3038159010 1.3954328584 6.6754154975 
Si 2.6730021875 -0.0127325068 7.9886013202 
Si 3.9993077134 9.6325169078 1.3587359869 
Si -0.0024213639 8.2059461697 2.6829763411 
Si 4.0092235746 6.8015552693 4.0462613953 
Si 0.0365449603 5.5290861838 -0.0264813579 
Si 1.3863751060 9.6120444590 4.0240371901 
Si 2.6750428532 8.2200053764 0.0304509251 
Si 1.3046857103 6.8413346049 1.3435828508 
Si 2.7007080596 5.5277046530 2.6759695245 
Si 4.0419767786 9.6036040289 6.6634385870 
Si -0.0054463511 8.2001251130 8.0054177705 
Si 4.0213611613 6.8431004907 9.3659313607 
Si -0.0024772432 5.4929537412 5.3984663122 
Si 1.3065670949 9.6125707637 9.3737358255 
Si 2.6973289544 8.2300993217 5.3138345190 
Si 1.3844525952 6.8441380038 6.7098167512 
Si 2.7087666167 5.4421519698 8.0825848134 
Si 9.3976094998 4.1513815075 1.3247997558 
Si 5.3757271734 2.7137711453 2.6880120590 
Si 9.4007013746 1.4090190670 4.0253834800 
Si 5.3473989476 0.0159787134 0.0104696960 
Si 6.7425248282 4.1118156213 3.9984195926 
Si 8.0381340183 2.7617080508 0.0317941663 
Si 6.7543136956 1.3488069543 1.3552806915 
Si 8.0428499116 -0.0423401050 2.6570895157 
Si 9.3705281121 4.1113318939 6.6864300294 
Si 5.3523767391 2.7814588523 8.0782963768 
Si 9.3975364303 1.3927534235 9.4138878232 
Si 5.3989806336 0.0153540946 5.3506481798 
Si 6.7226432365 4.0712797558 9.3300356710 
Si 8.0347118315 2.7748703983 5.3596285954 
Si 6.7105370201 1.3961206091 6.7300554846 
Si 8.0445563126 -0.0200509418 8.0079240522 
Si 9.4175944526 9.5685219703 1.3313046342 
Si 5.3724872421 8.2540746639 2.6436840207 
Si 9.4319133203 6.8642352669 4.0002353189 
Si 5.3387109685 5.4416118484 0.0196217790 
Si 6.7167184699 9.6035630624 4.0298071943 
Si 8.0862328584 8.2641333077 0.0181647464 
Si 6.7595150799 6.8761997297 1.3681740666 
Si 8.0456727785 5.4502706397 2.6399957407 
Si 9.4115051299 9.5493333032 6.7429483913 
Si 5.3542340308 8.2090026795 8.0544032789 
Si 9.4092834506 6.8272629329 9.4012072991 
Si 5.3768411282 5.4360449950 5.3621528064 
Si 6.7599188462 9.5425367382 9.4202130714 
Si 8.0513118929 8.2604961302 5.3133489862 
Si 6.7195705484 6.8455263118 6.7005436704 
Si 8.0342810391 5.4663632508 8.0606332903 

