&CONTROL
   calculation      = 'scf'
   tstress          = '.true.'
   tprnfor          = '.true.'
   outdir           = './'
   disk_io          = 'none'
   pseudo_dir       = './'
/
&SYSTEM
   ecutwfc          = 30
   input_dft        = 'PBE'
   ntyp             = 1
   nat              = 64
   ibrav            = 0
/
&ELECTRONS
   electron_maxstep = 1000
   mixing_beta      = 0.5
/
&IONS
/
&CELL
/

ATOMIC_SPECIES
Si 28.085 Si_ONCV_PBE-1.0.upf

K_POINTS gamma

CELL_PARAMETERS angstrom
10.85444411589181 0.00000000000000 0.00000000000000
0.00000000000000 10.74509545593909 0.00000000000000
0.00000000000000 0.00000000000000 10.92634614438225

ATOMIC_POSITIONS angstrom
Si 3.9666698083 3.9954571808 1.4036214871 
Si 0.0374953540 2.7133606081 2.7474455794 
Si 3.9841093940 1.3430463226 4.1089722987 
Si -0.0041107182 -0.0133362855 -0.0043556868 
Si 1.3208848006 4.0619892334 4.0869262324 
Si 2.7019851924 2.7248197545 0.0268347463 
Si 1.3732033118 1.3125931028 1.4218681996 
Si 2.6834317072 0.0024164621 2.7877834319 
Si 4.0489080187 4.0067342297 6.9234861004 
Si 0.0290994454 2.6877069071 8.2378282548 
Si 3.9726623433 1.3445611551 9.6298165749 
Si 0.0093577485 -0.0213693655 5.5143992218 
Si 1.3633077526 3.9915230538 9.6823975549 
Si 2.6644776230 2.6871601300 5.4635374553 
Si 1.3611713499 1.3371832442 6.9127579070 
Si 2.7214769835 0.0409138863 8.2704784306 
Si 4.0488778755 9.4096229340 1.3745706991 
Si 0.0046510536 8.0184142520 2.7686161909 
Si 4.0363814619 6.7589120557 4.1267373355 
Si -0.0264148956 5.3321165777 0.0425085011 
Si 1.3475561347 9.3947878722 4.0846494922 
Si 2.6479791459 8.0839273469 -0.0003163801 
Si 1.3209715531 6.7692560658 1.3783088942 
Si 2.6332761047 5.3499105568 2.7592948567 
Si 3.9892301774 9.4482535453 6.9060400009 
Si 0.0452315014 8.0407313753 8.2311396012 
Si 3.9727358906 6.6979675367 9.6192984664 
Si -0.0044740518 5.3297055644 5.5362399518 
Si 1.3845020150 9.4037934706 9.5906141517 
Si 2.6805129935 8.0613309803 5.4738720496 
Si 1.3739487088 6.7357448338 6.8853266030 
Si 2.6808772096 5.3388253403 8.2567411402 
Si 9.3914855353 4.0511479989 1.3823796408 
Si 5.3693150763 2.6650939463 2.7350446100 
Si 9.3722586212 1.3256610536 4.1090742806 
Si 5.3136879898 0.0254040962 0.0093269735 
Si 6.6553272386 4.0102219962 4.1599978606 
Si 8.0411586179 2.7306327064 -0.0182681955 
Si 6.6875102692 1.3042486169 1.3267514449 
Si 8.0137583180 -0.0477406921 2.7833773770 
Si 9.3350732733 4.0425864624 6.8621025516 
Si 5.3893745522 2.7007268760 8.2481484888 
Si 9.3681270044 1.2971859867 9.5961738031 
Si 5.3086614467 0.0460031295 5.4936907621 
Si 6.6409533615 4.0118742169 9.6370252177 
Si 8.0129225331 2.6919484219 5.4890155839 
Si 6.6493174007 1.3053499554 6.8622458215 
Si 8.0635616425 0.0408816693 8.2631235533 
Si 9.3641578320 9.4351256639 1.3552069022 
Si 5.3173265694 8.0541419807 2.7425817909 
Si 9.3830633688 6.6919790380 4.1357027682 
Si 5.3208560539 5.3274121686 -0.0351316606 
Si 6.6355182565 9.4151088449 4.1097610862 
Si 8.0091919850 8.0198532872 -0.0216997498 
Si 6.6488159289 6.7375874869 1.3514223437 
Si 8.0088841890 5.3367595392 2.7623029721 
Si 9.3658118337 9.3797901213 6.9201992638 
Si 5.3615044639 8.0977975370 8.2616316421 
Si 9.3916562212 6.7284427596 9.6729656468 
Si 5.3651922641 5.3425278021 5.5471526552 
Si 6.6570422187 9.4331834461 9.6034292346 
Si 7.9867173090 8.0178201966 5.4693584693 
Si 6.7199195121 6.6903107585 6.9151533283 
Si 8.0668448037 5.3709513408 8.2138678491 

