&CONTROL
   calculation      = 'scf'
   tstress          = '.true.'
   tprnfor          = '.true.'
   outdir           = './'
   disk_io          = 'none'
   pseudo_dir       = './'
/
&SYSTEM
   ecutwfc          = 30
   input_dft        = 'PBE'
   ntyp             = 1
   nat              = 64
   ibrav            = 0
/
&ELECTRONS
   electron_maxstep = 1000
   mixing_beta      = 0.5
/
&IONS
/
&CELL
/

ATOMIC_SPECIES
Si 28.085 Si_ONCV_PBE-1.0.upf

K_POINTS gamma

CELL_PARAMETERS angstrom
10.74372374373443 0.00000000000000 0.00000000000000
0.00000000000000 10.98491060127944 0.00000000000000
0.00000000000000 0.00000000000000 10.88274711111050

ATOMIC_POSITIONS angstrom
Si 3.9905073219 4.2069709185 1.3410741787 
Si 0.0289319618 2.7668248488 2.7110870954 
Si 3.9504153452 1.4069469062 4.0446788606 
Si -0.0189126172 -0.0268374654 -0.0418347136 
Si 1.2974000119 4.2294271427 4.0838821502 
Si 2.6898431307 2.7723648446 0.0454016858 
Si 1.3330310520 1.3745799834 1.3353075306 
Si 2.6674868383 0.0015592317 2.6689367570 
Si 4.0183040306 4.1673761709 6.7588805944 
Si -0.0375793098 2.7772703339 8.1163955661 
Si 4.0077433237 1.3812853104 9.4464864751 
Si 0.0197319170 -0.0294001755 5.4249993714 
Si 1.2877939388 4.2231268228 9.4293432299 
Si 2.7036727573 2.7761936252 5.4305173338 
Si 1.3654039106 1.3529010439 6.7050931814 
Si 2.6277221005 -0.0351627196 8.0890477993 
Si 4.0074333527 9.8028483335 1.3729904335 
Si -0.0007358000 8.3630001893 2.6694307338 
Si 4.0231125106 6.9866791051 4.0176525934 
Si -0.0468474209 5.5855674369 0.0041422784 
Si 1.3489071139 9.8045312943 4.0372753036 
Si 2.6289142858 8.3977839195 -0.0155050057 
Si 1.3468346973 6.9472088984 1.3160375782 
Si 2.7029172547 5.5448741420 2.6947128325 
Si 3.9664265998 9.7337147094 6.7494963187 
Si -0.0186692565 8.3389538763 8.0543017103 
Si 4.0013020046 7.0001502380 9.4748010885 
Si 0.0209499605 5.5594971353 5.4106559035 
Si 1.3733241216 9.7803026137 9.4242109674 
Si 2.7011944644 8.3306269384 5.3748471234 
Si 1.3410231793 6.9968694493 6.7528651797 
Si 2.6948255965 5.5691451181 8.0970677583 
Si 9.3500659200 4.2246457892 1.3916948484 
Si 5.2938536629 2.7392815109 2.6497138263 
Si 9.3023547740 1.4448956218 4.0585202933 
Si 5.3369429667 -0.0109212779 0.0431341300 
Si 6.6399981491 4.1350728285 4.0773001893 
Si 8.0000521159 2.7561735099 0.0308331816 
Si 6.6490146247 1.4182771583 1.3841458736 
Si 7.9518532836 -0.0391065432 2.6893271608 
Si 9.3488795986 4.2231699771 6.7677756443 
Si 5.3626322509 2.8320600554 8.1291214287 
Si 9.2636761825 1.3502158672 9.4406505822 
Si 5.2916189503 0.0128646830 5.4400680604 
Si 6.6407502857 4.1632233138 9.4409866775 
Si 7.9481391263 2.7933376108 5.4276129289 
Si 6.6771240402 1.3519888684 6.7469356284 
Si 7.9715980157 -0.0054087343 8.1184545654 
Si 9.2874831426 9.7696973870 1.3482490688 
Si 5.3433049405 8.3618237907 2.7151960912 
Si 9.2912316695 6.9722967999 4.0328327745 
Si 5.3067155994 5.5945410074 -0.0129988201 
Si 6.6698673454 9.8068475115 4.0410874019 
Si 8.0016672222 8.4152547746 0.0238158050 
Si 6.6958641796 6.9399387534 1.3863382552 
Si 7.9330417232 5.5313607578 2.6484651286 
Si 9.2875472845 9.7997683725 6.7815371724 
Si 5.2759342678 8.3532206862 8.0771054975 
Si 9.3581627719 7.0211110896 9.4651784319 
Si 5.3056479026 5.5636888511 5.3684680156 
Si 6.6615071523 9.7862710417 9.3997589609 
Si 7.9895019636 8.3531926009 5.4323372125 
Si 6.6851224017 6.9504864948 6.7753669347 
Si 8.0089840958 5.5738738327 8.0409654985 

