&CONTROL
   calculation      = 'scf'
   tstress          = '.true.'
   tprnfor          = '.true.'
   outdir           = './'
   disk_io          = 'none'
   pseudo_dir       = './'
/
&SYSTEM
   ecutwfc          = 30
   input_dft        = 'PBE'
   ntyp             = 1
   nat              = 64
   ibrav            = 0
/
&ELECTRONS
   electron_maxstep = 1000
   mixing_beta      = 0.5
/
&IONS
/
&CELL
/

ATOMIC_SPECIES
Si 28.085 Si_ONCV_PBE-1.0.upf

K_POINTS gamma

CELL_PARAMETERS angstrom
10.78198371965800 0.00000000000000 0.00000000000000
0.00000000000000 10.81682509309368 0.00000000000000
0.00000000000000 0.00000000000000 10.75391339434894

ATOMIC_POSITIONS angstrom
Si 4.0662701409 4.1442710157 1.3449839331 
Si -0.0275168985 2.7933204538 2.6987618187 
Si 4.1173562294 1.3458588274 4.0215430681 
Si -0.0076959251 0.0397969460 -0.0339386231 
Si 1.3359872346 4.1174592394 4.0116602372 
Si 2.7432922208 2.7422143328 -0.0368557916 
Si 1.3559879666 1.3744375870 1.3461688650 
Si 2.7756065984 0.0419354682 2.7384499130 
Si 4.1069260862 4.0857130189 6.7867799924 
Si -0.0143130956 2.7712461641 8.1178786185 
Si 4.1177242661 1.3738431022 9.4591427151 
Si -0.0258542481 -0.0470761164 5.4363166292 
Si 1.3623704451 4.1050426240 9.4550996965 
Si 2.6913893468 2.7632233778 5.3655835397 
Si 1.4025825961 1.4093800209 6.7170905195 
Si 2.7416418508 0.0138617333 8.0705919749 
Si 4.1352187591 9.6015310564 1.3057734372 
Si 0.0433724537 8.2820330865 2.7434315851 
Si 4.0806167478 6.8931742985 4.0150583296 
Si -0.0191460571 5.5376923920 -0.0082118156 
Si 1.3329290329 9.6768741960 4.0889361283 
Si 2.7217549372 8.2763807002 0.0317897632 
Si 1.4114002840 6.8334005640 1.3200156799 
Si 2.7645436785 5.5128168248 2.6918924871 
Si 4.1013764887 9.6467466350 6.7072898266 
Si -0.0307302117 8.2818420830 8.1323540346 
Si 4.0557090542 6.8550523727 9.4427463048 
Si 0.0247840858 5.5019458960 5.3911953157 
Si 1.3498300455 9.6039337188 9.4019318206 
Si 2.7661230174 8.2897541177 5.3704546158 
Si 1.3631667766 6.9261928342 6.7453633873 
Si 2.7208632059 5.5370794756 8.1375240861 
Si 9.6146354568 4.0831939203 1.3676189015 
Si 5.5050190999 2.7883324410 2.6938456192 
Si 9.5551366215 1.3736970246 4.0593722004 
Si 5.4229521563 -0.0233001224 0.0285467965 
Si 6.8669535613 4.1527934470 3.9964706945 
Si 8.1932529338 2.7023419685 0.0111483222 
Si 6.8583498931 1.3683940859 1.3470343670 
Si 8.1798148334 0.0261201937 2.6556857251 
Si 9.5858348423 4.0839955692 6.7792352134 
Si 5.5209777184 2.7105628115 8.0499067240 
Si 9.5525031086 1.3535702729 9.4143861030 
Si 5.4852577070 -0.0089000837 5.3778632194 
Si 6.8784891798 4.0974648353 9.4159496105 
Si 8.2184388019 2.8005210349 5.3982811215 
Si 6.8292669447 1.3339829946 6.7132936900 
Si 8.1835059051 0.0008617238 8.0713269407 
Si 9.5501495148 9.6647844376 1.3893032470 
Si 5.4894088338 8.2288798664 2.6482685381 
Si 9.5944977153 6.8772598031 4.0595062803 
Si 5.5125404132 5.5334627474 0.0457803844 
Si 6.8823861435 9.6238302000 4.0701477631 
Si 8.2019048027 8.2474227991 0.0212755273 
Si 6.7932931008 6.8881597894 1.3218760586 
Si 8.1589793932 5.5427859940 2.7417416825 
Si 9.6201959300 9.6642393291 6.7811656686 
Si 5.4287714137 8.2472548781 8.0675882902 
Si 9.5523266184 6.8477060027 9.4006257252 
Si 5.4628386705 5.5086560717 5.3875590987 
Si 6.8074743500 9.6528383445 9.4300084988 
Si 8.1940678806 8.2206530117 5.3873189948 
Si 6.8556788359 6.8775848143 6.7151752376 
Si 8.2462998497 5.5194746961 8.1295507571 

