&CONTROL
   calculation      = 'scf'
   tstress          = '.true.'
   tprnfor          = '.true.'
   outdir           = './'
   disk_io          = 'none'
   pseudo_dir       = './'
/
&SYSTEM
   ecutwfc          = 30
   input_dft        = 'PBE'
   ntyp             = 1
   nat              = 64
   ibrav            = 0
/
&ELECTRONS
   electron_maxstep = 1000
   mixing_beta      = 0.5
/
&IONS
/
&CELL
/

ATOMIC_SPECIES
Si 28.085 Si_ONCV_PBE-1.0.upf

K_POINTS gamma

CELL_PARAMETERS angstrom
10.73268003719780 0.00000000000000 0.00000000000000
0.00000000000000 11.08817164511733 0.00000000000000
0.00000000000000 0.00000000000000 10.79604223402840

ATOMIC_POSITIONS angstrom
Si 4.0215593393 4.1854523435 1.3811781890 
Si 0.0432231837 2.8474524726 2.7233225438 
Si 4.0739939059 1.4162875521 4.0556525988 
Si 0.0455980135 0.0406520786 -0.0169253418 
Si 1.3756212312 4.2437399142 4.0518826865 
Si 2.7277487189 2.7924984856 0.0458648178 
Si 1.3743109686 1.4317051093 1.3421571895 
Si 2.7381292028 -0.0257298821 2.6849956510 
Si 4.0437851069 4.1773841345 6.8224006087 
Si 0.0439200079 2.8458475520 8.1757460208 
Si 4.0758333328 1.3552728965 9.5438510515 
Si 0.0297615992 -0.0368765476 5.4397765975 
Si 1.3771004106 4.1612016782 9.4541964590 
Si 2.6714104299 2.8288083171 5.4056919227 
Si 1.3438296651 1.4109346824 6.8129406350 
Si 2.7152548941 0.0336336086 8.1434197759 
Si 4.0865234959 9.8567627921 1.3470459494 
Si -0.0308859332 8.4650618210 2.7440577669 
Si 4.0968097553 6.9957619972 4.0485446331 
Si -0.0013500869 5.5754123022 -0.0448219877 
Si 1.3419391726 9.8161599326 4.1109945092 
Si 2.6670792456 8.4451698474 -0.0352579569 
Si 1.3453704049 7.0069726739 1.3684454832 
Si 2.7540423506 5.5979645949 2.6730416234 
Si 4.0786817910 9.7738232712 6.7983371885 
Si -0.0179228600 8.4228950121 8.1105116099 
Si 4.0650667228 7.0418971537 9.5339193064 
Si -0.0340688482 5.6290046052 5.3844708518 
Si 1.3220939232 9.8120224121 9.5064229094 
Si 2.6835519860 8.4024702467 5.4359518641 
Si 1.3931850975 6.9688048214 6.7614261361 
Si 2.7490717117 5.6503221456 8.1465121169 
Si 9.4387108232 4.2167806381 1.3707297815 
Si 5.3782620871 2.7687315046 2.7586333963 
Si 9.5225721403 1.4155169419 4.0639288572 
Si 5.4307281169 0.0286788238 0.0020178078 
Si 6.7953620160 4.2123605542 4.0237158406 
Si 8.1446764725 2.8126967487 -0.0299100599 
Si 6.8219488678 1.3899317574 1.3220655959 
Si 8.1693586273 0.0426408065 2.7410263319 
Si 9.4781238648 4.2289005587 6.8021439960 
Si 5.3692452492 2.7858821952 8.1545387016 
Si 9.5011154422 1.4188633001 9.5257003071 
Si 5.4488289011 0.0023405140 5.4038917806 
Si 6.7895208091 4.1730952600 9.5299580548 
Si 8.1001316653 2.8162490580 5.4221665189 
Si 6.7330181257 1.4268896471 6.7498182562 
Si 8.1419660921 -0.0132954045 8.1498762378 
Si 9.5285702678 9.8456865345 1.3197182941 
Si 5.4600304130 8.4037988866 2.6678738919 
Si 9.4795271922 6.9956445334 4.0270467186 
Si 5.4561287419 5.6423996653 -0.0074263279 
Si 6.7240850668 9.8606311196 4.0415348299 
Si 8.1134134673 8.4160049469 0.0033333385 
Si 6.7570227923 7.0589023621 1.3210426440 
Si 8.0810246545 5.6455364708 2.7131503227 
Si 9.5224215159 9.8499513277 6.7773732097 
Si 5.4026758625 8.4655872527 8.1919650711 
Si 9.5004777771 6.9846657673 9.5166277167 
Si 5.3771204940 5.6190064591 5.4284092993 
Si 6.7737473196 9.8541399007 9.5450573458 
Si 8.0786189886 8.4630919545 5.3858874310 
Si 6.8151218674 7.0243837203 6.7962846755 
Si 8.0876589349 5.5724948048 8.1677469568 

