&CONTROL
   calculation      = 'scf'
   tstress          = '.true.'
   tprnfor          = '.true.'
   outdir           = './'
   disk_io          = 'none'
   pseudo_dir       = './'
/
&SYSTEM
   ecutwfc          = 30
   input_dft        = 'PBE'
   ntyp             = 1
   nat              = 64
   ibrav            = 0
/
&ELECTRONS
   electron_maxstep = 1000
   mixing_beta      = 0.5
/
&IONS
/
&CELL
/

ATOMIC_SPECIES
Si 28.085 Si_ONCV_PBE-1.0.upf

K_POINTS gamma

CELL_PARAMETERS angstrom
10.94893281414535 0.00000000000000 0.00000000000000
0.00000000000000 10.95264731792880 0.00000000000000
0.00000000000000 0.00000000000000 11.13491283381005

ATOMIC_POSITIONS angstrom
Si 4.0946305021 4.1039463391 1.3609716288 
Si -0.0348916428 2.7008009409 2.8035177822 
Si 4.1413057531 1.3453157612 4.1635191476 
Si -0.0463472599 0.0003697135 0.0442950325 
Si 1.3938461378 4.0708118465 4.1137218869 
Si 2.7484896865 2.7762961435 -0.0282352633 
Si 1.3424339181 1.3993976673 1.4233175730 
Si 2.7381860038 0.0437039754 2.7559499608 
Si 4.1150504203 4.1366136400 6.8888419664 
Si 0.0137274401 2.7194734929 8.2361424562 
Si 4.1314097133 1.3937361377 9.6907801285 
Si 0.0156415629 -0.0134551063 5.5350773704 
Si 1.4001549006 4.1278588693 9.5996474922 
Si 2.7328989084 2.7355243336 5.4865534574 
Si 1.3737264799 1.3578656481 6.8701770590 
Si 2.7917585814 -0.0009068307 8.2918590115 
Si 4.1036445075 9.5192761063 1.3323819866 
Si 0.0300637238 8.2329071604 2.7633878756 
Si 4.1611497455 6.8014504922 4.1782170589 
Si -0.0177694762 5.4836288846 -0.0150288953 
Si 1.4120416058 9.5910713659 4.0836009276 
Si 2.7164813529 8.1755573994 -0.0214735997 
Si 1.3649177854 6.8652551206 1.3960365996 
Si 2.7802965396 5.5096607020 2.7443526660 
Si 4.1489529717 9.5844195622 6.9015157552 
Si 0.0134096300 8.1710833727 8.2807502283 
Si 4.1702625401 6.8085662468 9.6415564231 
Si 0.0087600205 5.4399141970 5.5526826566 
Si 1.4121892985 9.5184304048 9.6847468348 
Si 2.7322876785 8.1538670562 5.5163595686 
Si 1.4083250532 6.8098379124 6.8997377822 
Si 2.7961622058 5.4866119359 8.2820979408 
Si 9.6443863317 4.0942385985 1.3782801183 
Si 5.4553414899 2.7018831339 2.7147306198 
Si 9.6523754497 1.3308877726 4.1185858224 
Si 5.5155721862 -0.0076349694 -0.0385824492 
Si 6.8354162043 4.0856946430 4.1619914663 
Si 8.2460175134 2.6827603814 0.0017855981 
Si 6.8286246814 1.3555154981 1.3433680580 
Si 8.2645214717 -0.0464314067 2.7257693220 
Si 9.6737030150 4.0923964133 6.8519763390 
Si 5.4522421804 2.7384332639 8.3011605142 
Si 9.6387316200 1.3209331235 9.6324482204 
Si 5.4539074708 -0.0294853949 5.5389143475 
Si 6.8512462891 4.0726134445 9.6357938708 
Si 8.2283526144 2.7277869635 5.5548763998 
Si 6.9050617104 1.3794850473 6.8757903614 
Si 8.2169018224 0.0295876828 8.2734652299 
Si 9.6446613408 9.6000186163 1.4064565029 
Si 5.5406831731 8.2401701084 2.7434838670 
Si 9.6340065966 6.8268749084 4.1071262691 
Si 5.4608337843 5.4696429132 0.0447223335 
Si 6.8615817134 9.6043874212 4.1410992368 
Si 8.2646483291 8.1991776504 0.0016068701 
Si 6.8989700813 6.8248632849 1.4054547690 
Si 8.2231928478 5.4928731728 2.7475456101 
Si 9.5956386330 9.5564950170 6.8503288199 
Si 5.4695527722 8.1883082923 8.2791181234 
Si 9.6418088662 6.8749878995 9.6356600949 
Si 5.5373885510 5.4986204585 5.4946304314 
Si 6.8914649795 9.5915616771 9.6189803005 
Si 8.2997495943 8.1780041430 5.5312063657 
Si 6.9078113164 6.8747969163 6.9105456759 
Si 8.2224074759 5.4703838558 8.2306023924 

