&CONTROL
   calculation      = 'scf'
   tstress          = '.true.'
   tprnfor          = '.true.'
   outdir           = './'
   disk_io          = 'none'
   pseudo_dir       = './'
/
&SYSTEM
   ecutwfc          = 30
   input_dft        = 'PBE'
   ntyp             = 1
   nat              = 64
   ibrav            = 0
/
&ELECTRONS
   electron_maxstep = 1000
   mixing_beta      = 0.5
/
&IONS
/
&CELL
/

ATOMIC_SPECIES
Si 28.085 Si_ONCV_PBE-1.0.upf

K_POINTS gamma

CELL_PARAMETERS angstrom
10.84524841040649 0.00000000000000 0.00000000000000
0.00000000000000 10.82094290375679 0.00000000000000
0.00000000000000 0.00000000000000 10.88451348660198

ATOMIC_POSITIONS angstrom
Si 4.0221395405 4.1128157889 1.4115605093 
Si -0.0177060586 2.7536854377 2.7127290973 
Si 4.0856870001 1.4260582707 4.0758634626 
Si 0.0329286917 -0.0036106793 0.0199596790 
Si 1.3296476498 4.0941561437 4.1389416672 
Si 2.6650395057 2.7060817192 0.0417359928 
Si 1.3503249268 1.3994419806 1.3577530055 
Si 2.7316236576 0.0168274935 2.7468325083 
Si 4.0645465480 4.1039319116 6.8725662384 
Si -0.0263602416 2.7637808541 8.2290250366 
Si 4.0118254789 1.4179119545 9.5468259134 
Si -0.0221576236 -0.0149110365 5.4123508693 
Si 1.3269856538 4.1286253222 9.5757022412 
Si 2.6879457760 2.7246603933 5.4809102203 
Si 1.3911390123 1.4089456029 6.8453965098 
Si 2.7273282213 0.0257443014 8.2035628892 
Si 4.0209415063 9.6024180176 1.3709837848 
Si -0.0209884309 8.2071536576 2.7543752651 
Si 4.0623343631 6.8961142919 4.0513082996 
Si -0.0005241331 5.4667718870 -0.0187763510 
Si 1.3146373594 9.6814881910 4.1418126213 
Si 2.6960042984 8.2966946904 -0.0214790899 
Si 1.3062553986 6.8941306002 1.3379219276 
Si 2.6779896073 5.5251538432 2.7405050350 
Si 4.0851262466 9.5988331193 6.8737642590 
Si 0.0260542005 8.2986980364 8.2082748310 
Si 4.0591940501 6.8895179796 9.6013740259 
Si 0.0000013647 5.5460790793 5.4119834016 
Si 1.3788637950 9.6369705946 9.5103898132 
Si 2.6815186036 8.3036931055 5.4361026206 
Si 1.3629780555 6.9287834570 6.8367296018 
Si 2.6470393410 5.5377430522 8.2208518831 
Si 9.4084813830 4.1257094328 1.3254646299 
Si 5.3682980512 2.7190044935 2.6888746067 
Si 9.3852953998 1.4216933968 4.1329245519 
Si 5.3770805485 -0.0016876362 -0.0015134893 
Si 6.6938282517 4.1738844026 4.1119085924 
Si 8.0756443431 2.7272536593 -0.0088521956 
Si 6.7809214353 1.3925596917 1.3424504607 
Si 8.0613460699 0.0355820660 2.7173751950 
Si 9.3931445650 4.1310403589 6.7789494911 
Si 5.4158560588 2.7331370603 8.1734552065 
Si 9.4047011871 1.3411959932 9.5635141190 
Si 5.3588170393 0.0420478935 5.4580788991 
Si 6.7619219286 4.1133356196 9.5504559433 
Si 8.0876487097 2.7228418867 5.4963926783 
Si 6.7637862871 1.3261181021 6.8546358907 
Si 8.0963301152 0.0232593615 8.2101120303 
Si 9.3885574846 9.6119508020 1.3377503013 
Si 5.4012061037 8.2767978723 2.7125351541 
Si 9.4161271112 6.8430070354 4.0651001134 
Si 5.3638019353 5.4893658419 0.0121895773 
Si 6.7344937129 9.6417110586 4.1438153906 
Si 8.0567410815 8.2413707405 -0.0229482635 
Si 6.7072441193 6.8368500707 1.3499431960 
Si 8.0477242182 5.4561686369 2.7462920923 
Si 9.4454580471 9.6015958153 6.7820079861 
Si 5.4249011256 8.3012486185 8.1709978020 
Si 9.4583979233 6.9139573125 9.5656761564 
Si 5.4196652663 5.4767705160 5.5035757477 
Si 6.6977632434 9.6709803695 9.5103604290 
Si 8.0855324550 8.2666220384 5.4846360703 
Si 6.7747067708 6.8433696405 6.8697609864 
Si 8.0961308232 5.4902328873 8.1557856140 

