&CONTROL
   calculation      = 'scf'
   tstress          = '.true.'
   tprnfor          = '.true.'
   outdir           = './'
   disk_io          = 'none'
   pseudo_dir       = './'
/
&SYSTEM
   ecutwfc          = 30
   input_dft        = 'PBE'
   ntyp             = 1
   nat              = 64
   ibrav            = 0
/
&ELECTRONS
   electron_maxstep = 1000
   mixing_beta      = 0.5
/
&IONS
/
&CELL
/

ATOMIC_SPECIES
Si 28.085 Si_ONCV_PBE-1.0.upf

K_POINTS gamma

CELL_PARAMETERS angstrom
11.03120635485301 0.00000000000000 0.00000000000000
0.00000000000000 10.88031118563137 0.00000000000000
0.00000000000000 0.00000000000000 10.82706706892493

ATOMIC_POSITIONS angstrom
Si 4.1709155895 4.0805174324 1.3436364012 
Si 0.0462427388 2.6732259404 2.6938557597 
Si 4.1232633663 1.3540080495 4.0500845672 
Si 0.0255085443 0.0058783759 -0.0345819586 
Si 1.3677285904 4.1110392392 4.0322380728 
Si 2.7767109890 2.7224436101 -0.0329844228 
Si 1.4216548786 1.4030229148 1.3298683792 
Si 2.7586043954 -0.0234576107 2.6532418618 
Si 4.1986007179 4.1232176983 6.7631902199 
Si 0.0084671858 2.7015587137 8.1347931611 
Si 4.1473560868 1.3751947142 9.4546451964 
Si -0.0307302902 0.0468337163 5.3611317040 
Si 1.3901665654 4.1236855475 9.4077897736 
Si 2.8174163273 2.7556402928 5.3923504918 
Si 1.3449631429 1.4042412156 6.7907447454 
Si 2.7315314060 -0.0484044989 8.1274912893 
Si 4.1934855182 9.5442212117 1.3947279731 
Si 0.0419425931 8.1577935069 2.6798662617 
Si 4.1355051234 6.8387315297 4.0779110114 
Si -0.0194973531 5.4319329274 0.0461280505 
Si 1.3352026603 9.4990879636 4.0410421664 
Si 2.8049494467 8.1796096758 -0.0179376253 
Si 1.4246413255 6.8506185218 1.3615353886 
Si 2.8185703669 5.4365019113 2.7085856250 
Si 4.1950148771 9.5494635154 6.7237878259 
Si -0.0288451510 8.1746120595 8.0527791643 
Si 4.1600131695 6.7770708724 9.4538344432 
Si 0.0223953582 5.4727341699 5.4316817035 
Si 1.3740383536 9.5533266022 9.4087330367 
Si 2.7724581060 8.1900589880 5.3480279149 
Si 1.3705581561 6.8094886343 6.7675276008 
Si 2.8036427504 5.4064421971 8.0702472723 
Si 9.7277029536 4.0406954379 1.3061487389 
Si 5.5003241535 2.7053581845 2.6585796096 
Si 9.6753958279 1.3441649318 4.0736525292 
Si 5.5647241306 0.0417509660 0.0106137621 
Si 6.9282731951 4.0738686957 3.9982995775 
Si 8.3603769735 2.6813670482 0.0400536411 
Si 6.9154412635 1.3482860113 1.3464512494 
Si 8.3571120833 -0.0328065533 2.6708080280 
Si 9.6708062765 4.0706980435 6.7945212223 
Si 5.5177620484 2.6797872625 8.0572502835 
Si 9.7271788458 1.3647930617 9.4131999024 
Si 5.5007904033 0.0129032397 5.3653856648 
Si 6.9165743117 4.0496568436 9.4352939924 
Si 8.2702228051 2.6746087225 5.4375094279 
Si 6.9697623016 1.3642900660 6.7017931790 
Si 8.2801432293 0.0244990458 8.0893851486 
Si 9.6759829184 9.5256528141 1.3584452675 
Si 5.5223330805 8.1528049247 2.6736094715 
Si 9.7208949446 6.7687710623 4.0731794652 
Si 5.5713117708 5.3986160826 -0.0178023938 
Si 6.9232011558 9.5549949283 4.0440289933 
Si 8.2756675716 8.1718402085 -0.0448631095 
Si 6.9639694122 6.7973999288 1.3019907316 
Si 8.3371160574 5.4093946721 2.6734697768 
Si 9.6646840100 9.5558495896 6.6978654454 
Si 5.5472113731 8.1279863211 8.1205843566 
Si 9.6622288878 6.8042614975 9.4184550807 
Si 5.4964529400 5.4424275523 5.3714405000 
Si 6.8919768120 9.5483196530 9.4376639282 
Si 8.2927499877 8.1668768129 5.3750076116 
Si 6.9200728649 6.7980073492 6.7847488332 
Si 8.3142342733 5.4108617148 8.0677532005 

