&CONTROL
   calculation      = 'scf'
   tstress          = '.true.'
   tprnfor          = '.true.'
   outdir           = './'
   disk_io          = 'none'
   pseudo_dir       = './'
/
&SYSTEM
   ecutwfc          = 30
   input_dft        = 'PBE'
   ntyp             = 1
   nat              = 64
   ibrav            = 0
/
&ELECTRONS
   electron_maxstep = 1000
   mixing_beta      = 0.5
/
&IONS
/
&CELL
/

ATOMIC_SPECIES
Si 28.085 Si_ONCV_PBE-1.0.upf

K_POINTS gamma

CELL_PARAMETERS angstrom
10.78162441807319 0.00000000000000 0.00000000000000
0.00000000000000 10.73534361895668 0.00000000000000
0.00000000000000 0.00000000000000 10.77769603678040

ATOMIC_POSITIONS angstrom
Si 4.0321502659 4.0278317565 1.2868416315 
Si 0.0283200990 2.6455015488 2.6725461237 
Si 4.0234449003 1.3132243006 4.0149848547 
Si -0.0185364665 -0.0417096678 -0.0459133857 
Si 1.3071688940 3.9911173560 3.9998089568 
Si 2.6454554536 2.6284110820 0.0351820728 
Si 1.3523469079 1.3388159384 1.3195532668 
Si 2.7068170362 -0.0265206552 2.6616066692 
Si 4.0100356802 3.9749450112 6.6499905361 
Si -0.0010209199 2.6978130283 7.9765238179 
Si 4.0218716174 1.3704986173 9.3512163150 
Si 0.0366280637 -0.0296798215 5.3575410654 
Si 1.3916964298 4.0199875319 9.3478040398 
Si 2.6946885752 2.7130765806 5.3434885236 
Si 1.3423243842 1.3433527842 6.6450149842 
Si 2.7138731004 0.0030619067 8.0366908922 
Si 4.0256404635 9.3247629906 1.2861044081 
Si -0.0108241473 7.9878783965 2.6789372585 
Si 4.0539465762 6.6980724323 4.0096949351 
Si -0.0393575125 5.3266276442 -0.0012807888 
Si 1.3144346407 9.3942653486 3.9833110230 
Si 2.7200844170 8.0374614286 -0.0234564332 
Si 1.3190929984 6.7281802984 1.3155224057 
Si 2.7158120142 5.3174450726 2.6650096781 
Si 4.0142409406 9.3512764520 6.6467411660 
Si 0.0341729818 7.9875575614 8.0311601318 
Si 3.9969336539 6.7080560601 9.3438063783 
Si 0.0089447605 5.3982056470 5.3336468397 
Si 1.3082895608 9.3355632307 9.3085903603 
Si 2.7072692160 8.0233750406 5.3037409540 
Si 1.2995991370 6.6888857263 6.6890581672 
Si 2.7225665731 5.3617411110 7.9877897255 
Si 9.4696316162 4.0454743688 1.3206661426 
Si 5.3658815660 2.6329572634 2.6796969876 
Si 9.4251216133 1.3334656986 3.9760985960 
Si 5.3770460610 0.0458537407 -0.0433986033 
Si 6.7113148755 3.9901591191 3.9913991432 
Si 8.0605886900 2.6701309542 -0.0353544680 
Si 6.6897376691 1.3543503274 1.3301045484 
Si 8.1289666219 -0.0180116928 2.7086911993 
Si 9.4396109433 3.9763972735 6.7026167048 
Si 5.3685857211 2.7068714025 8.0278140558 
Si 9.3810668874 1.3782372136 9.3614688417 
Si 5.4301474429 0.0450788920 5.2902454894 
Si 6.7588378838 4.0053937580 9.3443077341 
Si 8.0715768199 2.6412440672 5.2959986674 
Si 6.6944873833 1.3004808117 6.6502070751 
Si 8.0366230853 0.0282164079 7.9888077712 
Si 9.3833798913 9.3507125870 1.2884767291 
Si 5.3799610779 8.0180037838 2.7087326258 
Si 9.4588526487 6.7079136837 3.9539245237 
Si 5.4273238019 5.3203474762 -0.0109127763 
Si 6.7658537552 9.3927493186 4.0182754107 
Si 8.1233150209 8.0648874069 0.0002366407 
Si 6.6928526489 6.6576798729 1.2855988781 
Si 8.0538760550 5.3459256734 2.6857908665 
Si 9.3882552985 9.3478766450 6.6200094450 
Si 5.3848030962 8.0041443652 7.9944277516 
Si 9.4618725278 6.7164974729 9.3445767840 
Si 5.3714990356 5.3272623082 5.3447522937 
Si 6.7087160691 9.3466502599 9.3213759793 
Si 8.0360973925 8.0342027491 5.2900905728 
Si 6.6875530860 6.6908276392 6.6982952980 
Si 8.0924950375 5.3517940555 7.9778892490 

