&CONTROL
   calculation      = 'scf'
   tstress          = '.true.'
   tprnfor          = '.true.'
   outdir           = './'
   disk_io          = 'none'
   pseudo_dir       = './'
/
&SYSTEM
   ecutwfc          = 30
   input_dft        = 'PBE'
   ntyp             = 1
   nat              = 64
   ibrav            = 0
/
&ELECTRONS
   electron_maxstep = 1000
   mixing_beta      = 0.5
/
&IONS
/
&CELL
/

ATOMIC_SPECIES
Si 28.085 Si_ONCV_PBE-1.0.upf

K_POINTS gamma

CELL_PARAMETERS angstrom
10.78554270454052 0.00000000000000 0.00000000000000
0.00000000000000 10.88839218769022 0.00000000000000
0.00000000000000 0.00000000000000 11.15599449950070

ATOMIC_POSITIONS angstrom
Si 4.0094830402 4.0101155362 1.4366787915 
Si 0.0271735400 2.6617647898 2.8475236061 
Si 4.0515535671 1.3775970189 4.2009869357 
Si 0.0044967653 0.0363154975 -0.0381214499 
Si 1.3970479809 4.0460200429 4.2029274432 
Si 2.7448488540 2.6776321419 0.0150085398 
Si 1.3318548305 1.3162561709 1.4242535391 
Si 2.6628851561 0.0157288365 2.7957367916 
Si 4.0785961020 4.0289932591 7.0710149448 
Si -0.0197046283 2.6954677279 8.5120385980 
Si 4.0081617292 1.3254251748 9.9068900952 
Si -0.0321561305 0.0476171735 5.6707631205 
Si 1.3416389096 4.0741315080 9.9359503397 
Si 2.7132710586 2.6663026869 5.6496328628 
Si 1.3053089646 1.3764071501 7.0740200959 
Si 2.7276572079 -0.0219475908 8.5099391875 
Si 4.0457139307 9.3931191317 1.4053234611 
Si -0.0033248627 8.0158016604 2.7767028429 
Si 4.0180915743 6.6763317602 4.2586716186 
Si 0.0340378617 5.3751834942 0.0359260659 
Si 1.3554913449 9.3901999463 4.2340084023 
Si 2.7233236949 8.0380230374 -0.0169294441 
Si 1.3588393347 6.6797692917 1.3663741871 
Si 2.7008295104 5.3544969713 2.7856487179 
Si 4.0608051732 9.3770366079 7.0434534024 
Si 0.0298924252 8.0700983912 8.4808879696 
Si 4.0472135407 6.7017555321 9.9191852045 
Si -0.0166512834 5.3495079358 5.6407722923 
Si 1.3852645464 9.4269886947 9.8465923109 
Si 2.7367457093 8.0902989838 5.6760801588 
Si 1.3782492701 6.7557267784 7.1038103269 
Si 2.6760482277 5.4125664943 8.4787953441 
Si 9.4429872413 4.0442013948 1.3835296854 
Si 5.3921307720 2.7211376884 2.8704306949 
Si 9.4101270829 1.3092445965 4.2037604504 
Si 5.4447772867 0.0409267411 0.0268531977 
Si 6.7483947320 4.0122390289 4.2084613111 
Si 8.1167972225 2.7351948106 0.0066274752 
Si 6.7508465643 1.3085123407 1.4272675962 
Si 8.1484044951 0.0463895349 2.8539500606 
Si 9.4511047890 4.0666036645 7.0379933826 
Si 5.3866161248 2.7202866932 8.4593818747 
Si 9.4926358981 1.3714286926 9.8801823735 
Si 5.3571535353 -0.0485518385 5.6341619760 
Si 6.7355442252 4.0575105182 9.9070734791 
Si 8.1368347945 2.6698758384 5.6418527376 
Si 6.7534198123 1.3718304650 7.0749958658 
Si 8.0793127059 0.0229546487 8.5048354384 
Si 9.4212816778 9.4546523449 1.4168502633 
Si 5.3574799425 8.0903567297 2.8313965538 
Si 9.4741720739 6.7090907435 4.1892793347 
Si 5.4443330484 5.3857627142 -0.0243640170 
Si 6.7472584253 9.3654841211 4.2532799194 
Si 8.0621232746 8.0956411824 -0.0276196787 
Si 6.7910146810 6.6963415369 1.3958709462 
Si 8.0919577107 5.3625239590 2.8663096218 
Si 9.4349999010 9.3902686022 7.0578259800 
Si 5.3696279548 8.0544591319 8.5095540606 
Si 9.4108202971 6.7081767967 9.8442389951 
Si 5.3688933236 5.3385137748 5.6370557459 
Si 6.7367442741 9.4522688382 9.9185627591 
Si 8.1346259770 8.0973904986 5.6246218184 
Si 6.7647957669 6.6953118719 7.0961433621 
Si 8.0733045363 5.4075671948 8.5134986503 

