&CONTROL
   calculation      = 'scf'
   tstress          = '.true.'
   tprnfor          = '.true.'
   outdir           = './'
   disk_io          = 'none'
   pseudo_dir       = './'
/
&SYSTEM
   ecutwfc          = 30
   input_dft        = 'PBE'
   ntyp             = 1
   nat              = 64
   ibrav            = 0
/
&ELECTRONS
   electron_maxstep = 1000
   mixing_beta      = 0.5
/
&IONS
/
&CELL
/

ATOMIC_SPECIES
Si 28.085 Si_ONCV_PBE-1.0.upf

K_POINTS gamma

CELL_PARAMETERS angstrom
11.08754249569890 0.00000000000000 0.00000000000000
0.00000000000000 11.08641674645605 0.00000000000000
0.00000000000000 0.00000000000000 10.77291883187340

ATOMIC_POSITIONS angstrom
Si 4.1583231299 4.1840999238 1.3180450566 
Si 0.0132002504 2.7715954725 2.6536076523 
Si 4.1323878561 1.3649121060 4.0312156246 
Si -0.0498065483 0.0226909276 -0.0016964305 
Si 1.4262872434 4.1737683760 4.0736300268 
Si 2.7819919448 2.7275013887 0.0213578249 
Si 1.3472123330 1.3425575763 1.3618758487 
Si 2.8089596268 -0.0413775603 2.6700459382 
Si 4.1553887387 4.0955653576 6.7594267388 
Si 0.0283690289 2.7248368004 8.0525030218 
Si 4.1064682734 1.4283552027 9.4267598088 
Si -0.0149059812 -0.0190457879 5.3740378469 
Si 1.3476305326 4.1027125574 9.4446548832 
Si 2.7287510563 2.7430524990 5.3873832639 
Si 1.3970826293 1.4225569576 6.7818819770 
Si 2.8067448340 -0.0453370912 8.0796393635 
Si 4.1457113300 9.6463132418 1.3150255424 
Si 0.0377280042 8.3377363118 2.6599324867 
Si 4.1264016751 6.8638892436 4.0120899778 
Si 0.0184184951 5.5681035676 0.0238759501 
Si 1.4082335740 9.7191231420 4.0792140262 
Si 2.7736955126 8.2820144107 -0.0491698605 
Si 1.3563447610 6.9186082620 1.3121459730 
Si 2.7249949794 5.5156553729 2.6606782482 
Si 4.1428615840 9.6424337420 6.7740174987 
Si 0.0341260281 8.2434482330 8.1085480314 
Si 4.1377821864 6.9005009996 9.4911282731 
Si -0.0452038329 5.5526753636 5.3496729042 
Si 1.4224719752 9.6952806037 9.4521588018 
Si 2.7824785243 8.3377110551 5.3634753821 
Si 1.3392340620 6.8991351257 6.7903276124 
Si 2.7200326372 5.5260693800 8.1224611106 
Si 9.6645251175 4.1096333545 1.3651209107 
Si 5.5855437183 2.8108977087 2.6953709624 
Si 9.7004568867 1.3385673848 4.0768451513 
Si 5.5279143070 0.0053440239 0.0335074780 
Si 6.9443785200 4.1341166628 4.0457478619 
Si 8.3254518994 2.8031773759 -0.0461783436 
Si 6.9288810134 1.3479771703 1.3025637812 
Si 8.2587922569 0.0088789359 2.7307132607 
Si 9.7049981968 4.1039702005 6.6994569580 
Si 5.5773588010 2.8038030070 8.0565467705 
Si 9.6748305635 1.3523104305 9.4146834208 
Si 5.4857342296 0.0267993085 5.3479902168 
Si 6.9684171629 4.1937221623 9.4111931654 
Si 8.2842358610 2.7694495287 5.3886001214 
Si 6.8875866164 1.4267835733 6.7074362500 
Si 8.3440030603 -0.0413222832 8.0574929668 
Si 9.7308884580 9.7082054910 1.3869633754 
Si 5.5515319130 8.2475944819 2.6935565497 
Si 9.6855508055 6.9285470562 3.9997797784 
Si 5.5082494452 5.5075278351 0.0316857431 
Si 6.8825968548 9.6517801342 4.0797202993 
Si 8.3134001891 8.2833406617 0.0164639061 
Si 6.9287618479 6.8712766163 1.3357726060 
Si 8.3220870302 5.5058705797 2.6578533301 
Si 9.6416396845 9.6742930018 6.7282473867 
Si 5.5076624715 8.2760851981 8.1309992484 
Si 9.6811477071 6.8670274857 9.4338806271 
Si 5.5707561403 5.5716090347 5.3692019954 
Si 6.9524727630 9.6602019564 9.4734977391 
Si 8.2808681001 8.2389359492 5.3934352148 
Si 6.9406510129 6.8926644331 6.7461609659 
Si 8.2755660554 5.5444080300 8.1170239693 

