&CONTROL
   calculation      = 'scf'
   tstress          = '.true.'
   tprnfor          = '.true.'
   outdir           = './'
   disk_io          = 'none'
   pseudo_dir       = './'
/
&SYSTEM
   ecutwfc          = 30
   input_dft        = 'PBE'
   ntyp             = 1
   nat              = 64
   ibrav            = 0
/
&ELECTRONS
   electron_maxstep = 1000
   mixing_beta      = 0.5
/
&IONS
/
&CELL
/

ATOMIC_SPECIES
Si 28.085 Si_ONCV_PBE-1.0.upf

K_POINTS gamma

CELL_PARAMETERS angstrom
11.11690021842465 0.00000000000000 0.00000000000000
0.00000000000000 10.96240815372768 0.00000000000000
0.00000000000000 0.00000000000000 11.13873499234102

ATOMIC_POSITIONS angstrom
Si 4.1320048865 4.1375165390 1.3662143291 
Si -0.0260528204 2.7986868318 2.8598945319 
Si 4.0888998016 1.4263835500 4.1982502817 
Si 0.0334750170 0.0460204188 0.0472860138 
Si 1.3426670484 4.1208263741 4.1809652930 
Si 2.7183007575 2.7327291638 0.0412775491 
Si 1.4008265950 1.3452826930 1.3655884693 
Si 2.7429849892 -0.0107420769 2.8602873880 
Si 4.1253339947 4.1045184751 7.0836692538 
Si 0.0139581781 2.7614620652 8.4517060627 
Si 4.0990402274 1.3643853720 9.8238906631 
Si 0.0279942122 0.0338851994 5.6624001914 
Si 1.3508071238 4.1640413555 9.8738333739 
Si 2.7266994092 2.7186496296 5.6683559677 
Si 1.3853394302 1.4163259296 6.9914388405 
Si 2.7564622045 -0.0412718985 8.4383092904 
Si 4.1014872518 9.6237987838 1.4318590184 
Si -0.0087437219 8.2792834136 2.7957199158 
Si 4.0904376078 6.8714810085 4.1952455915 
Si -0.0036072364 5.5661567035 0.0205669389 
Si 1.4179906270 9.6333516956 4.2305850491 
Si 2.7190213123 8.3049861856 0.0466666346 
Si 1.4148596527 6.9220838621 1.4238061200 
Si 2.7959560227 5.5258828680 2.8327415363 
Si 4.1062428254 9.6323832855 7.0437369183 
Si 0.0074607226 8.3229918003 8.4440340209 
Si 4.0883017152 6.9293605376 9.8765793294 
Si -0.0369388957 5.5566684201 5.5813875920 
Si 1.3762156337 9.6412155250 9.8787921210 
Si 2.7452539203 8.2363270880 5.5840513488 
Si 1.3644875220 6.8452734801 7.0654635514 
Si 2.7823986871 5.4920616214 8.4555865057 
Si 9.6624562177 4.1739475571 1.3598001967 
Si 5.5010339796 2.7691207249 2.8398102796 
Si 9.6896649589 1.3658379736 4.1885931214 
Si 5.4978147501 -0.0282011389 0.0297671556 
Si 6.9050641196 4.1588129398 4.2157712396 
Si 8.2579385242 2.8057632036 0.0323444110 
Si 6.8652163148 1.3742864308 1.4234836997 
Si 8.3071560211 -0.0136838641 2.8002218925 
Si 9.6143567775 4.1144411867 7.0071340335 
Si 5.4698045328 2.7194628823 8.4086535770 
Si 9.6761721075 1.3469780319 9.8410537957 
Si 5.5663645350 0.0320334105 5.6709236660 
Si 6.8491117590 4.1098361481 9.8110112350 
Si 8.2523086854 2.7805623846 5.6673512011 
Si 6.9012865134 1.4261174682 7.0596674123 
Si 8.2981867439 0.0030055521 8.4104785142 
Si 9.6828164295 9.6191023521 1.3696876168 
Si 5.4848215045 8.2779223872 2.8637386485 
Si 9.6186561268 6.9183634336 4.2080716454 
Si 5.4996639462 5.4717882937 -0.0119575503 
Si 6.8936008711 9.6260139843 4.2574891590 
Si 8.3070950812 8.3214840522 -0.0314992176 
Si 6.9322540145 6.9194327536 1.3853334012 
Si 8.2918649844 5.5400586680 2.7866299265 
Si 9.6820137586 9.7001513727 7.0078645944 
Si 5.4764680502 8.3159427999 8.4265872838 
Si 9.6494016862 6.9199717868 9.8089855128 
Si 5.5221918989 5.5597198315 5.6032652927 
Si 6.9040358746 9.6415743124 9.8734106608 
Si 8.2953774834 8.2413736305 5.6107235006 
Si 6.8502503332 6.8948867766 7.0811626037 
Si 8.3157724360 5.5383868561 8.4695042896 

