&CONTROL
   calculation      = 'scf'
   tstress          = '.true.'
   tprnfor          = '.true.'
   outdir           = './'
   disk_io          = 'none'
   pseudo_dir       = './'
/
&SYSTEM
   ecutwfc          = 30
   input_dft        = 'PBE'
   ntyp             = 1
   nat              = 64
   ibrav            = 0
/
&ELECTRONS
   electron_maxstep = 1000
   mixing_beta      = 0.5
/
&IONS
/
&CELL
/

ATOMIC_SPECIES
Si 28.085 Si_ONCV_PBE-1.0.upf

K_POINTS gamma

CELL_PARAMETERS angstrom
10.91899579967079 0.00000000000000 0.00000000000000
0.00000000000000 11.09468980610494 0.00000000000000
0.00000000000000 0.00000000000000 11.10351734800181

ATOMIC_POSITIONS angstrom
Si 4.1119471527 4.2203202180 1.4092321657 
Si -0.0291028265 2.8043876572 2.7391905395 
Si 4.1789959687 1.4085066434 4.1518171213 
Si 0.0389575411 -0.0064840209 -0.0461604134 
Si 1.3846104675 4.2356573729 4.1216041128 
Si 2.7295737882 2.7411488023 0.0258237243 
Si 1.3728392725 1.3666396592 1.3642774688 
Si 2.8007657310 0.0293610332 2.8009128917 
Si 4.1505506159 4.2046140736 6.8850067638 
Si 0.0276019865 2.7839900876 8.3293003386 
Si 4.1678967543 1.4258798165 9.6210101099 
Si -0.0399689669 0.0060545760 5.5006561288 
Si 1.3962016592 4.1520327557 9.6369284310 
Si 2.7570149666 2.8348672974 5.5157968759 
Si 1.3376164912 1.3671564690 6.8920165787 
Si 2.7911052909 0.0022536354 8.2574363734 
Si 4.1588573543 9.7372421661 1.4066105924 
Si 0.0000293439 8.3768275011 2.7761982061 
Si 4.1889197001 7.0264989529 4.1244904787 
Si -0.0480684647 5.5961950629 0.0080407281 
Si 1.3367195491 9.7329955281 4.1453398352 
Si 2.7910566737 8.3257173156 0.0202899963 
Si 1.4275869402 6.9872751261 1.4278268688 
Si 2.7577862238 5.6175856346 2.7971846388 
Si 4.1853894908 9.7166968256 6.9305804655 
Si 0.0070088798 8.3954187234 8.2939479913 
Si 4.1108026293 6.9568422558 9.6696045429 
Si -0.0407917383 5.5429149529 5.5195234380 
Si 1.3369544452 9.7241019685 9.6656754892 
Si 2.7832246173 8.4163343794 5.4807109833 
Si 1.3695552498 6.9789416748 6.8782745354 
Si 2.7313417341 5.6316849524 8.3231544837 
Si 9.6698059201 4.2018585523 1.3957830314 
Si 5.5819027829 2.8321620200 2.7219692323 
Si 9.7335362601 1.3871882549 4.1524611472 
Si 5.5005732065 0.0220708681 -0.0446040839 
Si 6.9795294767 4.1922613904 4.1661992530 
Si 8.2735958968 2.8364901409 0.0486280990 
Si 6.9146294196 1.4309492828 1.3399602904 
Si 8.2868130568 0.0187208201 2.7978512354 
Si 9.7087116508 4.1896965833 6.9240111792 
Si 5.5676565346 2.7559717652 8.2984882418 
Si 9.7310698076 1.3537213076 9.6346059942 
Si 5.5703759128 -0.0218702652 5.5555253871 
Si 6.9618011103 4.1407950099 9.6870667726 
Si 8.2911106794 2.8061763763 5.4949479457 
Si 6.8936805673 1.4148471333 6.9345539958 
Si 8.3037873175 -0.0385071351 8.2723137800 
Si 9.7241183307 9.7230386701 1.3516544092 
Si 5.5400904110 8.4183072429 2.7452409485 
Si 9.7311946130 6.9574474899 4.1013845669 
Si 5.5568234468 5.5732993743 0.0061442862 
Si 6.9584880609 9.7355472680 4.1237958737 
Si 8.3705377432 8.4171259884 0.0365354399 
Si 6.9042313402 6.9639974217 1.4119293161 
Si 8.2900599330 5.5344713485 2.7184169791 
Si 9.7306073823 9.7713997889 6.8638805923 
Si 5.5367973542 8.4118588406 8.2344631189 
Si 9.6992233431 6.9651244526 9.6884226151 
Si 5.5710466049 5.5735486629 5.5388330173 
Si 6.9373076475 9.7752083003 9.6747423440 
Si 8.2715678068 8.3285116007 5.5550220726 
Si 6.9420854770 6.9545570160 6.9350737685 
Si 8.3585397586 5.6065458806 8.3054258642 

