&CONTROL
   calculation      = 'scf'
   tstress          = '.true.'
   tprnfor          = '.true.'
   outdir           = './'
   disk_io          = 'none'
   pseudo_dir       = './'
/
&SYSTEM
   ecutwfc          = 30
   input_dft        = 'PBE'
   ntyp             = 1
   nat              = 64
   ibrav            = 0
/
&ELECTRONS
   electron_maxstep = 1000
   mixing_beta      = 0.5
/
&IONS
/
&CELL
/

ATOMIC_SPECIES
Si 28.085 Si_ONCV_PBE-1.0.upf

K_POINTS gamma

CELL_PARAMETERS angstrom
10.96634984523658 0.00000000000000 0.00000000000000
0.00000000000000 10.98594298287218 0.00000000000000
0.00000000000000 0.00000000000000 10.92992175060759

ATOMIC_POSITIONS angstrom
Si 4.0661918695 4.1159286497 1.3648428463 
Si 0.0378982273 2.7825061405 2.6716667574 
Si 4.1061101886 1.3433391717 4.0772881217 
Si -0.0150935392 0.0230247148 0.0480730255 
Si 1.4001226869 4.1570331568 4.0385873019 
Si 2.7467618295 2.7555924251 0.0482442501 
Si 1.3573926048 1.3882683878 1.3624224884 
Si 2.7025715231 -0.0437603567 2.7206120710 
Si 4.1278118428 4.0750073021 6.7903858302 
Si -0.0088882735 2.6992805167 8.0773097876 
Si 4.1344399731 1.4076457331 9.4561883917 
Si 0.0001357100 0.0341460166 5.3888244153 
Si 1.3321535486 4.1402972292 9.4389142285 
Si 2.7389426619 2.7954612423 5.4030284670 
Si 1.3319705828 1.3580066952 6.7880494855 
Si 2.7756095527 0.0277467194 8.1455331031 
Si 4.0703263562 9.6600683941 1.3168458616 
Si 0.0177045367 8.2288774961 2.6994011560 
Si 4.1092394187 6.8586840050 4.0286414721 
Si -0.0028196336 5.4586643154 -0.0295355207 
Si 1.3234128017 9.6550241169 4.0749944847 
Si 2.7780540733 8.2668985968 -0.0424039560 
Si 1.3689667189 6.8728723501 1.3468808026 
Si 2.7519260154 5.4598924973 2.7413627616 
Si 4.0984472801 9.5736100560 6.7766236476 
Si 0.0176172545 8.2013718133 8.1476205324 
Si 4.1264439557 6.8910194114 9.4856175726 
Si -0.0224154178 5.4615763500 5.3625793409 
Si 1.3893759060 9.6518161918 9.4277296394 
Si 2.6932505613 8.2741316290 5.4254704537 
Si 1.3604620258 6.8263148906 6.8006448393 
Si 2.7828974404 5.4768509708 8.1291350973 
Si 9.5974909795 4.1385442622 1.3844196647 
Si 5.4904842774 2.7638823921 2.7011582525 
Si 9.5812118844 1.4210856067 4.0913418863 
Si 5.4460126643 0.0095450019 0.0279545393 
Si 6.8068017342 4.0785213546 4.0593833575 
Si 8.2177540374 2.7505712630 0.0071302303 
Si 6.8130212173 1.4217284345 1.3316476832 
Si 8.1947260243 0.0348642115 2.6698120646 
Si 9.5792103973 4.0804317785 6.7798690728 
Si 5.5141089164 2.7350780653 8.1643227898 
Si 9.5712107199 1.3622210376 9.4327063125 
Si 5.5054617184 0.0236762190 5.4585002808 
Si 6.8246200867 4.1179537993 9.4720582332 
Si 8.2479264439 2.7768854541 5.4478732827 
Si 6.8205680599 1.3305004198 6.7345022953 
Si 8.2354581988 -0.0195683490 8.1147832187 
Si 9.5917191538 9.6099229545 1.3056114871 
Si 5.4314578548 8.2670143826 2.7160813459 
Si 9.6377534868 6.8410630489 4.0228809932 
Si 5.4376009858 5.5360746865 -0.0001699473 
Si 6.8613158547 9.6639498267 4.1061800142 
Si 8.2517665279 8.2648378162 0.0197382857 
Si 6.9017529940 6.8407637173 1.3736085761 
Si 8.2100255730 5.5059084463 2.6823411911 
Si 9.5997286491 9.6506404220 6.7602404445 
Si 5.4976566480 8.2795735401 8.0826147169 
Si 9.6425104613 6.9164162408 9.4748812010 
Si 5.5106307097 5.4902321976 5.4258930288 
Si 6.8406201783 9.6675360229 9.4712392008 
Si 8.2613748795 8.2679736801 5.4168749928 
Si 6.8519111553 6.8541783914 6.7560902836 
Si 8.1854237819 5.4891859721 8.0727461293 

