&CONTROL
   calculation      = 'scf'
   tstress          = .true.
   tprnfor          = .true.
   outdir           = './'
   disk_io          = 'none'
   pseudo_dir       = '/home/ppiaggi/pseudos'
/
&SYSTEM
   ecutwfc          = 30
   input_dft        = 'PBE'
   ntyp             = 1
   nat              = 64
   ibrav            = 0
/
&ELECTRONS
   electron_maxstep = 1000
   mixing_beta      = 0.5
/
&IONS
/
&CELL
/

ATOMIC_SPECIES
Si 28.085 Si_ONCV_PBE_sr.upf

K_POINTS gamma

CELL_PARAMETERS angstrom
11.15167900302898 0.00000000000000 0.00000000000000
0.00000000000000 11.20627232274097 0.00000000000000
0.00000000000000 0.00000000000000 10.99419928581967

ATOMIC_POSITIONS angstrom
Si -0.0132958988 -0.0732827274 0.0015410074 
Si 0.0427390173 2.6694570352 2.8126828533 
Si 2.7744830201 -0.0566602900 2.7820251478 
Si 2.6132887910 2.6854907620 -0.0094644050 
Si 1.3937453628 1.3899676067 1.3521847492 
Si 5.3842362263 -0.0958992043 0.0736191629 
Si 5.3370519695 2.6939550057 2.6518109271 
Si 6.8566457767 1.2658259142 1.3458187450 
Si 8.1165881068 0.0946332369 2.7789791512 
Si 8.2034324180 2.6821244310 -0.0939626151 
Si -0.0038706918 5.5214827122 -0.0748650887 
Si 2.7161543591 5.4925120569 2.8447904637 
Si 1.3386972842 6.9019371743 1.2938500412 
Si 3.9999493415 4.0775496116 1.4375535034 
Si 5.4935462981 5.4903377016 -0.0246251198 
Si 6.8012084558 6.7193743026 1.3258513246 
Si 9.5491762612 4.0156909103 1.4145272997 
Si 8.1831905964 5.4138794717 2.6968467407 
Si 0.0059879398 8.2002731186 2.7044673364 
Si 2.6336633915 8.2671340830 0.0929049027 
Si 4.0807662551 9.4400341812 1.3510422186 
Si 5.3732714679 8.2365435490 2.7043405934 
Si 8.2214907912 8.1744325121 0.0707961580 
Si 9.4349682433 9.5518179463 1.3031765553 
Si -0.0408746130 0.0402802933 5.5295953373 
Si 2.7976042629 2.7618440943 5.4086408590 
Si 1.3499186474 1.3665077691 6.8969147800 
Si 3.9865448099 1.4603942933 4.2109867717 
Si 5.4413860978 0.0421056039 5.4841897108 
Si 6.7403468757 1.3052738083 6.8198338147 
Si 9.4563951672 1.3792194060 4.1605328404 
Si 8.1963956255 2.6607210443 5.4097493297 
Si 1.2734726150 4.0393389851 4.0989998041 
Si -0.0746901479 5.4325842973 5.5209216997 
Si 1.2964517050 6.7593091257 6.7817037876 
Si 6.6951023478 4.1325188258 4.1614127377 
Si 4.1012005845 6.8503727890 4.1214124569 
Si 4.0573185434 4.0490352026 6.7957420087 
Si 5.3420994969 5.5057781794 5.5060315405 
Si 6.7814245988 6.8605113687 6.8331791797 
Si 9.5824043012 6.7277461515 4.2079951439 
Si 9.5402470731 4.1632648350 6.8983521370 
Si 1.3217896483 9.5019975074 4.1125626475 
Si 2.6568422167 8.1838725233 5.5221565335 
Si 6.7181316964 9.5400882099 4.0718275384 
Si 4.0634617944 9.4448668922 6.8228363688 
Si 8.1122345181 8.2532048164 5.5319933709 
Si 9.5603965111 9.4942691851 6.8581200358 
Si 0.0437352092 2.6466148440 8.2507291031 
Si 2.6813873635 0.0403033854 8.3228138586 
Si 4.0586800819 1.3204970682 9.5812217416 
Si 5.4234574405 2.6664617810 8.3285502341 
Si 8.1268571343 -0.0642401123 8.3416667680 
Si 9.4296897519 1.4515817956 9.6107542456 
Si 1.3950140353 4.1371969976 9.6178072958 
Si 2.7869972558 5.5015420212 8.3028038932 
Si 6.8296788156 4.0515663020 9.6218574031 
Si 3.9805721827 6.7444410177 9.5675388693 
Si 8.0442604737 5.4407094963 8.1844652488 
Si 9.4177408382 6.7926418989 9.5617537467 
Si -0.0050905305 8.1458554304 8.1641705745 
Si 1.4233774852 9.5856796709 9.6486269340 
Si 5.5137527090 8.1477187575 8.2915507881 
Si 6.8226597964 9.6272079473 9.5778224806 

