&CONTROL
   calculation      = 'scf'
   tstress          = .true.
   tprnfor          = .true.
   outdir           = './'
   disk_io          = 'none'
   pseudo_dir       = '/home/ppiaggi/pseudos'
/
&SYSTEM
   ecutwfc          = 30
   input_dft        = 'PBE'
   ntyp             = 1
   nat              = 64
   ibrav            = 0
/
&ELECTRONS
   electron_maxstep = 1000
   mixing_beta      = 0.5
/
&IONS
/
&CELL
/

ATOMIC_SPECIES
Si 28.085 Si_ONCV_PBE_sr.upf

K_POINTS gamma

CELL_PARAMETERS angstrom
11.09552889201953 0.00000000000000 0.00000000000000
0.00000000000000 10.74165066735321 0.00000000000000
0.00000000000000 0.00000000000000 10.99773440727456

ATOMIC_POSITIONS angstrom
Si -0.0343102256 -0.0726097922 0.0623662088 
Si 0.0895891937 2.6816373758 2.7364938861 
Si 2.7232291607 0.0305664461 2.7287367901 
Si 2.6999032587 2.6965016371 -0.0420761148 
Si 1.3018220701 1.4218784852 1.3937029892 
Si 5.5071581674 -0.0354207477 -0.0327886869 
Si 5.4767002123 2.7568780776 2.7396259499 
Si 6.8567638942 1.4311178311 1.2818319124 
Si 8.0971185724 0.0064805199 2.8108674570 
Si 8.1732217656 2.7625853232 -0.0330097100 
Si -0.0968502911 5.4595305726 0.0683254233 
Si 2.6755674832 5.3969078808 2.6713081689 
Si 1.3895854176 6.7424653632 1.3849954416 
Si 4.0788890061 4.0133884965 1.4767679120 
Si 5.4793741006 5.4255255889 0.0360014616 
Si 6.8109004254 6.7154119774 1.4773117211 
Si 9.3837349997 4.0312240507 1.3486574354 
Si 8.2148853201 5.3677618745 2.6735464574 
Si 0.0199770146 8.2297832212 2.6602367258 
Si 2.6347226729 8.1937703770 -0.0641499629 
Si 3.9619476379 9.4035831749 1.3909150643 
Si 5.3154050271 8.1395777986 2.6947905817 
Si 8.1446826271 8.0369055289 -0.0897575092 
Si 9.4532423388 9.4746626474 1.4237572980 
Si -0.0296198939 -0.0167032513 5.5287832968 
Si 2.7947718476 2.8064815225 5.5659850223 
Si 1.3888932648 1.3322135456 6.9970704307 
Si 4.0707495327 1.3777057392 4.1674644402 
Si 5.4628600476 0.0471668385 5.5720734761 
Si 6.7474507441 1.3621597703 6.8017951906 
Si 9.3784837274 1.3547979570 4.2292924550 
Si 8.1302693106 2.6182127634 5.5476030726 
Si 1.3432233074 3.9777375529 4.2371846978 
Si -0.0280464173 5.4265470059 5.4249760293 
Si 1.2969794342 6.7948368512 6.9935318871 
Si 6.6861811415 4.1274258645 4.1380858056 
Si 4.1169612188 6.6882474125 4.0388858138 
Si 4.1498079678 4.0909736489 6.9749627846 
Si 5.4600385447 5.4896821605 5.5222074138 
Si 6.7079689641 6.7400681528 6.9943070707 
Si 9.4527915587 6.8227929588 4.1049523761 
Si 9.5583160447 4.0232769687 6.9649982533 
Si 1.3732440512 9.4276575244 4.1021718650 
Si 2.6457475993 8.2298244458 5.5676853732 
Si 6.7998361795 9.5575713236 4.1563771357 
Si 4.0088331551 9.5655004794 6.8118710066 
Si 8.0645870608 8.0907103836 5.6007830101 
Si 9.5444217285 9.4662903761 6.8038906301 
Si -0.0020605593 2.6948177801 8.2591354028 
Si 2.7572597058 -0.0521025432 8.3181412279 
Si 4.0007712176 1.4230745472 9.7558990365 
Si 5.4849126342 2.6267883734 8.2298702653 
Si 8.2032809904 0.0591003218 8.2138822105 
Si 9.5132558095 1.3663447217 9.6753992936 
Si 1.3193716656 4.0443397383 9.7354020144 
Si 2.6930308980 5.3785563047 8.2886250582 
Si 6.7938439926 4.0266026992 9.7172055860 
Si 4.1090391591 6.8707308928 9.5966398778 
Si 8.0917332034 5.4938677933 8.2025718677 
Si 9.3830149822 6.7546762419 9.6363014502 
Si 0.0157961049 8.1560885576 8.2999851762 
Si 1.2835122873 9.5136566305 9.7525805794 
Si 5.3547736562 8.2080598886 8.2138003912 
Si 6.8280916764 9.5626988214 9.6303376260 

