&CONTROL
   calculation      = 'scf'
   tstress          = .true.
   tprnfor          = .true.
   outdir           = './'
   disk_io          = 'none'
   pseudo_dir       = '/home/ppiaggi/pseudos'
/
&SYSTEM
   ecutwfc          = 30
   input_dft        = 'PBE'
   ntyp             = 1
   nat              = 64
   ibrav            = 0
/
&ELECTRONS
   electron_maxstep = 1000
   mixing_beta      = 0.5
/
&IONS
/
&CELL
/

ATOMIC_SPECIES
Si 28.085 Si_ONCV_PBE_sr.upf

K_POINTS gamma

CELL_PARAMETERS angstrom
11.17722109658505 0.00000000000000 0.00000000000000
0.00000000000000 10.69041012700064 0.00000000000000
0.00000000000000 0.00000000000000 10.83670028433455

ATOMIC_POSITIONS angstrom
Si -0.0245198147 0.0537615173 -0.0384711354 
Si -0.0559784349 2.5992755682 2.7745478371 
Si 2.8044929306 0.0789544229 2.6456003234 
Si 2.7719785084 2.6414516962 -0.0098131452 
Si 1.3627579269 1.3421948080 1.4294451031 
Si 5.5266641866 0.0487697885 0.0676781669 
Si 5.4212982918 2.6950796107 2.6497638670 
Si 6.7515924972 1.2902764473 1.4684002871 
Si 8.1254194520 0.0854570623 2.6974341309 
Si 8.1027994854 2.5679482488 0.0687348251 
Si 0.0358401923 5.3729950760 0.0420455517 
Si 2.7169822086 5.3773630643 2.7449815274 
Si 1.4331750888 6.6460993888 1.2874143936 
Si 4.1473992974 3.9966219634 1.3340551577 
Si 5.4279566661 5.1975726412 -0.0789654476 
Si 6.7565559900 6.6160821821 1.3380298525 
Si 9.6067381084 4.0009784720 1.3641858448 
Si 8.2277813364 5.2795118916 2.6546327167 
Si -0.0977603671 8.0252969548 2.7757867132 
Si 2.6444406825 7.9280727076 0.0361724412 
Si 4.0416791962 9.1584106238 1.2938600579 
Si 5.4228454838 8.0192103285 2.7498008736 
Si 8.2027464607 7.8501731799 -0.0607112649 
Si 9.4479428198 9.2461424933 1.4606578487 
Si 0.0251819884 0.0092199964 5.3869333872 
Si 2.6736910134 2.6040077124 5.4196268941 
Si 1.3305040251 1.2642986416 6.8029855480 
Si 4.1299105000 1.3214521068 4.0497546112 
Si 5.5090179477 0.0081861508 5.4086753486 
Si 6.8042938673 1.3783031678 6.8479080630 
Si 9.4757788987 1.3129917768 4.1724442676 
Si 8.1209781225 2.6332609722 5.5071479793 
Si 1.4041802061 4.0000047934 4.1216464704 
Si -0.0400310017 5.3718922302 5.4740457362 
Si 1.3129302358 6.6500553686 6.7927218206 
Si 6.8471051958 4.0012821270 4.1129758657 
Si 4.0221661844 6.5437110442 4.1512463438 
Si 4.1589344315 3.9536855553 6.7983335917 
Si 5.4989194745 5.2165684933 5.4010258933 
Si 6.7135953805 6.6171153707 6.8719111784 
Si 9.5776093281 6.6052237642 4.0453603430 
Si 9.4869533135 3.9611267183 6.8504805928 
Si 1.4387028901 9.2323531647 4.1420083995 
Si 2.6518569548 7.9199830119 5.4540199301 
Si 6.8855981576 9.3260263104 4.1418205803 
Si 4.1775276445 9.1971389558 6.8308270236 
Si 8.1294852683 7.8883776574 5.4733224147 
Si 9.5848775247 9.3344308364 6.8301488670 
Si -0.0250055034 2.5651218151 8.2025103618 
Si 2.6805391431 0.0902095970 8.2492157450 
Si 4.0111275517 1.3479842984 9.5777865633 
Si 5.4542710526 2.7142204659 8.2061328207 
Si 8.2185345725 -0.0713702406 8.2317145293 
Si 9.4816002771 1.4126004086 9.5087386354 
Si 1.4396192049 3.8778062987 9.5861727698 
Si 2.8103804077 5.2700253929 8.1438441471 
Si 6.8255848800 3.8703240174 9.6268902176 
Si 4.0270071521 6.6272181426 9.5370282694 
Si 8.1556748300 5.2897529437 8.2301700665 
Si 9.5439450646 6.6832326792 9.5079690492 
Si -0.0564760456 7.9683132585 8.1484198879 
Si 1.2734697791 9.1874597367 9.5499096159 
Si 5.4603660648 7.8908689510 8.2856043975 
Si 6.8786897681 9.2973743777 9.6148275359 

