&CONTROL
   calculation      = 'scf'
   tstress          = .true.
   tprnfor          = .true.
   outdir           = './'
   disk_io          = 'none'
   pseudo_dir       = '/home/ppiaggi/pseudos'
/
&SYSTEM
   ecutwfc          = 30
   input_dft        = 'PBE'
   ntyp             = 1
   nat              = 64
   ibrav            = 0
/
&ELECTRONS
   electron_maxstep = 1000
   mixing_beta      = 0.5
/
&IONS
/
&CELL
/

ATOMIC_SPECIES
Si 28.085 Si_ONCV_PBE_sr.upf

K_POINTS gamma

CELL_PARAMETERS angstrom
10.97616468249788 0.00000000000000 0.00000000000000
0.00000000000000 11.04689246055537 0.00000000000000
0.00000000000000 0.00000000000000 10.90461704109710

ATOMIC_POSITIONS angstrom
Si 0.0386737076 -0.0620533838 0.0883846295 
Si 0.0071081139 2.7964097932 2.7084983380 
Si 2.6418728692 0.0048684581 2.9088886321 
Si 2.6333312579 2.6869585600 -0.0439759172 
Si 1.3661119259 1.3459226641 1.4662200644 
Si 5.5042577833 0.0937848230 0.0601284923 
Si 5.4994520512 2.7828877048 2.8868041601 
Si 6.7661974493 1.4016503868 1.4107037824 
Si 8.1358532019 0.0992852295 2.7324135756 
Si 8.1844408901 2.8007145991 0.0971784352 
Si -0.0173944314 5.5112733862 -0.1015967882 
Si 2.6996036016 5.6369971246 2.7608518786 
Si 1.3026475981 7.0126573034 1.3768826295 
Si 4.1344777697 4.1700815134 1.4554999461 
Si 5.5287595557 5.5839036011 -0.0804767683 
Si 6.8462971328 6.8789325265 1.4458078394 
Si 9.6201446253 4.2491383495 1.3029037903 
Si 8.1600229383 5.4806768196 2.7842443118 
Si -0.0107445395 8.3592172171 2.7661723352 
Si 2.7878855092 8.3541331660 0.0046845829 
Si 4.0011777832 9.7797392788 1.4648906388 
Si 5.3905579870 8.2831824715 2.7175682935 
Si 8.2588075349 8.3885933853 -0.0951009957 
Si 9.4901152004 9.6712297882 1.4362462972 
Si 0.0175108434 0.0307902565 5.6802146271 
Si 2.6957232598 2.7707245557 5.5926402162 
Si 1.4388051457 1.4642311010 6.9507174411 
Si 3.9915720135 1.4348652231 4.2460750955 
Si 5.4689800974 -0.0239112966 5.7034447836 
Si 6.7652351093 1.3341379548 6.9917584772 
Si 9.6122532918 1.3840370901 4.1226782466 
Si 8.2140846069 2.7245811176 5.5173469174 
Si 1.3372089069 4.1956459794 4.1596182342 
Si 0.0076632031 5.5639438036 5.6934799666 
Si 1.3143960856 6.9867495749 7.0628347272 
Si 6.7404007180 4.1641226673 4.2297578139 
Si 4.0115236811 6.8537442728 4.1368826974 
Si 4.0863430433 4.2350969619 7.0884406486 
Si 5.3759757148 5.4375957199 5.6690351388 
Si 6.7818074066 6.9678232968 7.0731654256 
Si 9.5947914373 6.8928816743 4.1518306676 
Si 9.5380703581 4.0752596727 7.0286823011 
Si 1.4262549378 9.7103079768 4.1768204618 
Si 2.7618796584 8.2641832307 5.7048658529 
Si 6.7509554547 9.7149409693 4.1668671440 
Si 4.0410371290 9.6089396313 6.9772274255 
Si 8.0976628615 8.3011261757 5.7014514551 
Si 9.5525522858 9.6995054732 7.0978923798 
Si -0.0400812737 2.8303365881 8.5257921518 
Si 2.7056262971 -0.0176441492 8.3418246496 
Si 4.1448504632 1.4025324721 9.8577055638 
Si 5.5086664398 2.8494101218 8.4307282586 
Si 8.2101851996 -0.0030127037 8.3568038085 
Si 9.5447754960 1.2851332405 9.8982972272 
Si 1.2864164795 4.0563158430 9.8336854112 
Si 2.7357552589 5.5693993616 8.3927855733 
Si 6.7359290780 4.1842182529 9.8202385987 
Si 4.0851977952 6.8623086995 9.9191478082 
Si 8.1759614627 5.5024219881 8.4916175110 
Si 9.5200208815 6.9063971184 9.7302797064 
Si 0.0713444236 8.2153336748 8.3571082933 
Si 1.3082608894 9.7314999084 9.8321941780 
Si 5.4342165622 8.3252733641 8.5195076720 
Si 6.7349707550 9.7764235710 9.8193604069 

