&CONTROL
   calculation      = 'scf'
   tstress          = .true.
   tprnfor          = .true.
   outdir           = './'
   disk_io          = 'none'
   pseudo_dir       = '/home/ppiaggi/pseudos'
/
&SYSTEM
   ecutwfc          = 30
   input_dft        = 'PBE'
   ntyp             = 1
   nat              = 64
   ibrav            = 0
/
&ELECTRONS
   electron_maxstep = 1000
   mixing_beta      = 0.5
/
&IONS
/
&CELL
/

ATOMIC_SPECIES
Si 28.085 Si_ONCV_PBE_sr.upf

K_POINTS gamma

CELL_PARAMETERS angstrom
10.92545466145678 0.00000000000000 0.00000000000000
0.00000000000000 10.69983501876263 0.00000000000000
0.00000000000000 0.00000000000000 11.30557147420046

ATOMIC_POSITIONS angstrom
Si -0.0452217961 -0.0689287521 -0.0833245572 
Si -0.0259924195 2.6356636620 2.7914582197 
Si 2.6562049799 -0.0471388856 2.7492711830 
Si 2.7392762419 2.6596618973 -0.0091112355 
Si 1.3364166389 1.3586261728 1.4770972759 
Si 5.4417595148 0.0544573926 0.0053208905 
Si 5.5427648039 2.8046501376 2.8791700132 
Si 6.8142725854 1.4477929503 1.3514255967 
Si 8.3343506518 -0.0124286302 2.8864714751 
Si 8.2911108738 2.7988796864 0.0806814073 
Si 0.0582061959 5.4317489201 0.0080859386 
Si 2.7092076859 5.4093780177 2.7439216374 
Si 1.4584081993 6.7397394506 1.5055433576 
Si 4.1520146497 4.0900633936 1.3871016749 
Si 5.4541848908 5.4903999689 -0.0700995299 
Si 6.8582696219 6.7161805621 1.4522837428 
Si 9.6365612618 4.0000461030 1.4889513205 
Si 8.2938284293 5.4045298243 2.7810630187 
Si 0.0454766412 8.2225771832 2.7301880058 
Si 2.8228985809 8.1285488387 -0.0187744722 
Si 4.0449306708 9.5599662479 1.4998017315 
Si 5.5396372399 8.1924293087 2.7586300440 
Si 8.3487035020 8.1508333821 0.0736484734 
Si 9.5518636166 9.3895844293 1.3311500719 
Si -0.0979600641 0.0125620600 5.6788741206 
Si 2.8527499162 2.7772342948 5.7050352014 
Si 1.4004412688 1.2786656170 6.9797043849 
Si 4.2004495437 1.4437037732 4.1366271185 
Si 5.4494596784 -0.0072826760 5.5485916498 
Si 6.9236564514 1.3143946853 7.1086155031 
Si 9.5829395115 1.3242981395 4.1267538643 
Si 8.3182699830 2.7411847423 5.6941317749 
Si 1.4217035591 4.0100258904 4.1976506684 
Si 0.0313510740 5.3244779495 5.7123076191 
Si 1.4246950995 6.7244358716 6.9699851587 
Si 6.9394349299 4.0059883692 4.1367990227 
Si 4.1975533398 6.6936363476 4.1572274995 
Si 4.1153800349 4.0205907105 7.0034453507 
Si 5.4273561295 5.3859872916 5.6335540092 
Si 6.9788094283 6.7737176876 7.0806510899 
Si 9.6783810541 6.8032058565 4.2990156695 
Si 9.5668429645 4.1309378753 6.9350464437 
Si 1.2961424352 9.4921155010 4.2470023594 
Si 2.7310565827 8.1760995747 5.7089284418 
Si 6.9151045943 9.5404205239 4.1569219174 
Si 4.1151322990 9.4412125699 6.9626890854 
Si 8.2226155549 8.1585714070 5.5513125425 
Si 9.6628016905 9.4599671701 6.9800240704 
Si -0.0173444415 2.7182758164 8.4101413944 
Si 2.6785970463 0.0396361384 8.3364612265 
Si 4.0468926470 1.4339511944 9.8302048968 
Si 5.5152643501 2.6431755288 8.3523005389 
Si 8.3375101042 0.0464806780 8.4250160006 
Si 9.6292049021 1.3363613911 9.7949646578 
Si 1.3995516124 3.9850123537 9.8546042706 
Si 2.7370265495 5.3597744225 8.3636622164 
Si 6.9212002995 3.9732301027 9.8943267539 
Si 4.0630239863 6.7038775274 9.7753940108 
Si 8.2716498698 5.3334635869 8.5116911130 
Si 9.7061206627 6.7873987030 9.7968610862 
Si 0.0465407491 8.2126555964 8.4872184879 
Si 1.3905804263 9.5775716288 9.7470931070 
Si 5.5274150893 8.0480742535 8.3465523417 
Si 6.9762764935 9.4262100078 9.7931423542 

