&CONTROL
   calculation      = 'scf'
   tstress          = .true.
   tprnfor          = .true.
   outdir           = './'
   disk_io          = 'none'
   pseudo_dir       = '/home/ppiaggi/pseudos'
/
&SYSTEM
   ecutwfc          = 30
   input_dft        = 'PBE'
   ntyp             = 1
   nat              = 64
   ibrav            = 0
/
&ELECTRONS
   electron_maxstep = 1000
   mixing_beta      = 0.5
/
&IONS
/
&CELL
/

ATOMIC_SPECIES
Si 28.085 Si_ONCV_PBE_sr.upf

K_POINTS gamma

CELL_PARAMETERS angstrom
10.68629977372195 0.00000000000000 0.00000000000000
0.00000000000000 10.76198339231493 0.00000000000000
0.00000000000000 0.00000000000000 11.23738231254205

ATOMIC_POSITIONS angstrom
Si 0.0734312364 -0.0179118515 0.0230487021 
Si 0.0419269972 2.7890216260 2.7788171941 
Si 2.6725822106 -0.0948963119 2.9264998252 
Si 2.5360245796 2.8047676282 0.0052477513 
Si 1.2650514794 1.4020358398 1.4010013139 
Si 5.2487507566 -0.0430506638 0.0392226903 
Si 5.3184656455 2.7801045815 2.7982797726 
Si 6.5735517614 1.4244718646 1.3985784295 
Si 7.8374496894 -0.0328912579 2.9597160060 
Si 7.7877314062 2.7453303307 -0.0448468829 
Si -0.0352323025 5.4616966485 -0.0026287807 
Si 2.5667093246 5.4836126098 2.8550636439 
Si 1.2564839235 6.8752654097 1.4596981254 
Si 3.9590383456 4.0621842987 1.3900110404 
Si 5.1507386391 5.4866279588 -0.0091415647 
Si 6.5614157419 6.9421845740 1.3938973595 
Si 9.0857438102 4.0498414796 1.3779769386 
Si 7.9319932383 5.4831647156 2.8038792997 
Si -0.0558263200 8.2416272883 2.9000650453 
Si 2.6876366426 8.2433096333 0.0495945056 
Si 3.9868605416 9.5413176735 1.3688845673 
Si 5.3259053343 8.2916233697 2.8109857006 
Si 7.9096666544 8.1300181471 -0.0575997041 
Si 9.1781724256 9.5501226120 1.3503390346 
Si 0.0702865384 -0.0759648558 5.7208382693 
Si 2.5429817976 2.6836109721 5.7807332293 
Si 1.3682123200 1.4485399426 7.2346526137 
Si 3.9748673409 1.3255573246 4.2084197013 
Si 5.2503955224 -0.0846166602 5.6644290361 
Si 6.5955868792 1.2743218174 7.2136661955 
Si 9.2520693956 1.2732557867 4.2709985892 
Si 7.9528464287 2.8169965707 5.6812441739 
Si 1.2921781565 4.0747523653 4.3494218746 
Si -0.0954140658 5.4703395890 5.7767517973 
Si 1.3806478699 6.7815587798 7.0927076771 
Si 6.5119325111 4.1799784764 4.2814421986 
Si 3.8744591396 6.7544683219 4.3285770518 
Si 3.8507905117 4.0267721433 7.1858479219 
Si 5.2748805340 5.4046851552 5.6458424480 
Si 6.5003104636 6.9279801780 7.1898894902 
Si 9.2299602756 6.7823963182 4.2782696223 
Si 9.2195311324 4.1374672903 7.1302501388 
Si 1.3097859909 9.5278908276 4.2680595231 
Si 2.5344349488 8.1491148582 5.6843556937 
Si 6.6028830303 9.4897337926 4.3480077061 
Si 4.0125322021 9.5002444215 7.1510678912 
Si 7.9334267708 8.2134774888 5.8007969964 
Si 9.2137015134 9.6794647464 7.1097287198 
Si 0.0034031388 2.7150397192 8.5425592860 
Si 2.5994944921 0.0914909207 8.5053976574 
Si 3.9344139851 1.2841747108 10.0089748533 
Si 5.2614798264 2.8038028509 8.6810488818 
Si 7.8662932501 0.0691464559 8.6082937691 
Si 9.1894904762 1.2815857395 10.1299601707 
Si 1.2805857759 4.1411056264 10.1257237491 
Si 2.5439293970 5.4971212757 8.5054958458 
Si 6.5231146937 4.0739082920 10.0380049258 
Si 3.9177507732 6.9431041668 10.0708058726 
Si 7.9052133937 5.5541065752 8.5932351308 
Si 9.1680517190 6.8894929099 10.0518100521 
Si 0.0260975554 8.2244104311 8.5743199771 
Si 1.3323670286 9.6087249533 10.0054032233 
Si 5.1829797942 8.2119230616 8.5013998421 
Si 6.5861773905 9.5480712090 9.9417895704 

