&CONTROL
   calculation      = 'scf'
   tstress          = .true.
   tprnfor          = .true.
   outdir           = './'
   disk_io          = 'none'
   pseudo_dir       = '/home/ppiaggi/pseudos'
/
&SYSTEM
   ecutwfc          = 30
   input_dft        = 'PBE'
   ntyp             = 1
   nat              = 64
   ibrav            = 0
/
&ELECTRONS
   electron_maxstep = 1000
   mixing_beta      = 0.5
/
&IONS
/
&CELL
/

ATOMIC_SPECIES
Si 28.085 Si_ONCV_PBE_sr.upf

K_POINTS gamma

CELL_PARAMETERS angstrom
10.75591468815765 0.00000000000000 0.00000000000000
0.00000000000000 10.66859630145352 0.00000000000000
0.00000000000000 0.00000000000000 10.74343057966851

ATOMIC_POSITIONS angstrom
Si -0.0365433648 -0.0442862102 -0.0406500343 
Si 0.0184984275 2.6884386097 2.7063479940 
Si 2.5830832020 -0.0665258754 2.7856759455 
Si 2.5599213305 2.7281593123 0.0350772013 
Si 1.2578320049 1.3433956786 1.3687999997 
Si 5.1582118411 0.0209758452 0.0354209719 
Si 5.1556150688 2.5657054480 2.6800602259 
Si 6.5217706879 1.2363656241 1.3433006395 
Si 7.7529263149 -0.0427635735 2.7526704279 
Si 7.8282808819 2.7237364399 -0.0010136373 
Si 0.0053881059 5.2740944258 0.0857941608 
Si 2.6835686092 5.2274921517 2.6869118991 
Si 1.3110128950 6.6424519239 1.3753425382 
Si 3.9462094712 3.9795920941 1.3236963571 
Si 5.1631488971 5.3819165503 0.0269299174 
Si 6.5171116943 6.6418046202 1.4322921576 
Si 9.1238571681 3.9993288258 1.3874288051 
Si 7.7611216055 5.2563925784 2.6413074753 
Si -0.0913833191 8.0412991893 2.7645324998 
Si 2.6988735148 7.9413250496 -0.0452806410 
Si 3.9943614749 9.3198226575 1.2502856291 
Si 5.2267255730 8.0401808156 2.6303191637 
Si 7.8029600558 7.9429707998 -0.0851530347 
Si 9.0966487781 9.3376836729 1.4229603619 
Si 0.0857032572 -0.0880014077 5.4426022949 
Si 2.6000809465 2.6788660992 5.4688905820 
Si 1.2176494660 1.3648418344 6.7015510574 
Si 3.8520179663 1.3411435762 4.0320517251 
Si 5.3040347005 -0.0430426418 5.3353063507 
Si 6.4700310269 1.2670060940 6.8325258985 
Si 9.0515929812 1.3001512532 4.0679727060 
Si 7.8813727160 2.7477025369 5.4185395871 
Si 1.3537322402 3.9419350069 3.9967916078 
Si -0.0576690839 5.2219732168 5.4063215853 
Si 1.2166251265 6.5625456803 6.7718183101 
Si 6.6146614980 4.0470120151 4.1085822356 
Si 3.9474525024 6.6815206004 4.0514184069 
Si 3.8969522233 4.0256003626 6.6519295231 
Si 5.1972567338 5.2585492631 5.4277349204 
Si 6.5770376304 6.6239125245 6.6878814209 
Si 9.2099410880 6.5993912704 4.0176346579 
Si 9.1167698472 3.9983830800 6.7901932539 
Si 1.3298539186 9.3780247356 4.0217924300 
Si 2.5874779755 7.9151233421 5.4461818875 
Si 6.6213264244 9.3071006063 4.0265559311 
Si 3.8402567047 9.3118893338 6.6540999266 
Si 7.7493084557 8.0075912392 5.3501642619 
Si 9.2088951002 9.3018475872 6.8142907065 
Si -0.0136050429 2.6814827616 8.0365638792 
Si 2.6150909868 0.0888361626 8.1123129949 
Si 3.8531313955 1.2513013434 9.3519836831 
Si 5.2049202386 2.7330294025 8.0568679961 
Si 7.7664330351 0.0072105191 8.1817738350 
Si 9.2016026955 1.3390241150 9.4619413700 
Si 1.2162264307 3.9166843889 9.3849259392 
Si 2.5608528111 5.3530057588 8.1812938025 
Si 6.4591193342 4.0265538148 9.4437032891 
Si 3.9066113973 6.7437695150 9.3908795939 
Si 7.8870105765 5.2304814111 8.0663104046 
Si 9.1345780450 6.5910540043 9.3737078929 
Si 0.0022374584 7.9957969793 8.1113813816 
Si 1.2863367509 9.2138788302 9.3543363055 
Si 5.2552021312 7.9767969843 8.1242435064 
Si 6.4833003833 9.3456980813 9.4175027177 

