&CONTROL
   calculation      = 'scf'
   tstress          = .true.
   tprnfor          = .true.
   outdir           = './'
   disk_io          = 'none'
   pseudo_dir       = '/home/ppiaggi/pseudos'
/
&SYSTEM
   ecutwfc          = 30
   input_dft        = 'PBE'
   ntyp             = 1
   nat              = 64
   ibrav            = 0
/
&ELECTRONS
   electron_maxstep = 1000
   mixing_beta      = 0.5
/
&IONS
/
&CELL
/

ATOMIC_SPECIES
Si 28.085 Si_ONCV_PBE_sr.upf

K_POINTS gamma

CELL_PARAMETERS angstrom
11.08278750722964 0.00000000000000 0.00000000000000
0.00000000000000 11.24454878263135 0.00000000000000
0.00000000000000 0.00000000000000 11.15874345415162

ATOMIC_POSITIONS angstrom
Si 0.0404755792 -0.0028823968 -0.0705418840 
Si -0.0289098866 2.7009621755 2.8357080099 
Si 2.9123233577 -0.0721159717 2.8494156370 
Si 2.8036150560 2.7978378664 -0.0462670201 
Si 1.5071703992 1.4808658996 1.3650406667 
Si 5.5943171307 -0.0605311309 0.0868386744 
Si 5.6255371697 2.6932401233 2.8649869646 
Si 7.0115425593 1.3298093780 1.3871261204 
Si 8.5636956923 0.0973002997 2.8454410190 
Si 8.5438990737 2.7691585072 -0.0372314598 
Si -0.0671510857 5.6337138079 0.0031974437 
Si 2.7859744977 5.5421450735 2.7511222219 
Si 1.4923241421 7.0108474059 1.3846909289 
Si 4.2855035573 4.0929837080 1.4390317931 
Si 5.6711321915 5.6478117853 0.0664982592 
Si 7.1119806134 6.9676131948 1.4539899191 
Si 9.9064654495 4.1122745202 1.4883458527 
Si 8.4639387194 5.5223794225 2.8609136330 
Si 0.0274307298 8.4573890892 2.7973909765 
Si 2.8114507139 8.4489557881 0.0092463176 
Si 4.3309275007 9.6862069684 1.4284541015 
Si 5.6685820561 8.3536822294 2.7381886496 
Si 8.4499046636 8.4049461072 0.0737856351 
Si 9.8788209078 9.7448722973 1.4015909004 
Si 0.0928196200 0.0624798265 5.4938852468 
Si 2.8288181220 2.7364352911 5.6168925344 
Si 1.4736006471 1.3977463530 6.8522693289 
Si 4.3235310030 1.3670109101 4.1301103983 
Si 5.5785680044 -0.0993078126 5.5435744500 
Si 7.1461936152 1.4248691648 6.9183990185 
Si 9.9627403725 1.3279442752 4.2402347306 
Si 8.5547883154 2.7512448377 5.5999945004 
Si 1.5082316742 4.1401035110 4.2533635429 
Si 0.0408272966 5.6170063067 5.6407275584 
Si 1.5009137786 7.0243926462 6.9700369569 
Si 7.0319870106 4.1957465836 4.2091964239 
Si 4.1464843996 7.0180055499 4.0983323235 
Si 4.2366259357 4.2185539698 6.8468207025 
Si 5.6185975259 5.6283769047 5.6180120853 
Si 7.1317062603 7.0625467364 6.8553176498 
Si 9.8739617256 7.0589892264 4.1892998593 
Si 9.8724703045 4.1884576137 6.9628716561 
Si 1.3441737135 9.8129138697 4.1951608602 
Si 2.8242648971 8.4270453744 5.4883831910 
Si 7.1061632460 9.7561082305 4.1071103763 
Si 4.2950906812 9.7739202088 6.8543883073 
Si 8.4972452499 8.4582951828 5.4533180924 
Si 9.8225652942 9.7719586286 6.9541031247 
Si -0.0402365147 2.7637464254 8.2854655720 
Si 2.9180861585 -0.0811877121 8.3027220947 
Si 4.2678211598 1.4430604630 9.8033296505 
Si 5.6326695246 2.7081431376 8.3122133459 
Si 8.4753708620 -0.0838110420 8.3583423581 
Si 9.9837809740 1.3814422527 9.7661371482 
Si 1.3108310074 4.2303841375 9.8034417517 
Si 2.9013938126 5.5800673991 8.4138994793 
Si 7.0830915573 4.1630041358 9.7294019467 
Si 4.3171286824 7.0146731739 9.6372753784 
Si 8.4082525728 5.6746741969 8.2259217921 
Si 9.7940868787 7.0471366091 9.6387142722 
Si -0.0615145141 8.3771680753 8.3338022529 
Si 1.3473780173 9.7732951458 9.7618269971 
Si 5.6831580661 8.2993538097 8.2582177306 
Si 7.0829840439 9.7905825715 9.6551980393 

