&CONTROL
   calculation      = 'scf'
   tstress          = .true.
   tprnfor          = .true.
   outdir           = './'
   disk_io          = 'none'
   pseudo_dir       = '/home/ppiaggi/pseudos'
/
&SYSTEM
   ecutwfc          = 30
   input_dft        = 'PBE'
   ntyp             = 1
   nat              = 64
   ibrav            = 0
/
&ELECTRONS
   electron_maxstep = 1000
   mixing_beta      = 0.5
/
&IONS
/
&CELL
/

ATOMIC_SPECIES
Si 28.085 Si_ONCV_PBE_sr.upf

K_POINTS gamma

CELL_PARAMETERS angstrom
11.00129676046602 0.00000000000000 0.00000000000000
0.00000000000000 11.30576035709551 0.00000000000000
0.00000000000000 0.00000000000000 11.02139983739339

ATOMIC_POSITIONS angstrom
Si 0.0218625241 -0.0216572014 0.0313935131 
Si -0.0264183126 2.8073642452 2.7097878895 
Si 2.7620447307 0.0940915043 2.8082503789 
Si 2.6614121099 2.7852636466 0.0349218793 
Si 1.2531190913 1.3636420715 1.3184279422 
Si 5.3606536646 0.0197254142 0.0501597299 
Si 5.2846428739 2.7223009718 2.6798572589 
Si 6.7388658375 1.3556296206 1.4708395140 
Si 8.1103287119 -0.0155077402 2.6933274481 
Si 7.9670342356 2.8348484475 0.0604580268 
Si 0.0212406074 5.7097065728 0.0001529901 
Si 2.6465191204 5.6737819568 2.7112639013 
Si 1.2981425424 7.0288100233 1.4655147743 
Si 3.9587705633 4.2418277845 1.4226780288 
Si 5.4510773378 5.7222781358 -0.0669212321 
Si 6.7773788637 7.0249832490 1.3576964758 
Si 9.3540204716 4.3274164647 1.3230879806 
Si 8.0214658826 5.5405044085 2.8410800179 
Si -0.0275995017 8.3742698676 2.7814943117 
Si 2.7448642616 8.4402156935 -0.0744841669 
Si 4.0289973870 9.8483040041 1.4130144103 
Si 5.4206045640 8.3984711592 2.7678268273 
Si 8.0017834512 8.3833116729 0.0855205322 
Si 9.4624731880 9.8975512186 1.3028234111 
Si -0.0183002587 -0.0901512566 5.6354640068 
Si 2.6363328551 2.7474792575 5.5005495734 
Si 1.2780921067 1.4071088144 6.8988633884 
Si 3.9485193027 1.4992100031 4.0868296676 
Si 5.2600132891 -0.0807102522 5.5861170300 
Si 6.7468823163 1.3090689201 6.9645971421 
Si 9.3057871321 1.3666585579 4.1416116433 
Si 8.0518966846 2.8820160896 5.5438943924 
Si 1.2609481141 4.3154010625 4.1264792006 
Si 0.0600519625 5.6676303865 5.5551714189 
Si 1.3272705328 7.1455122257 6.9012551940 
Si 6.6856677208 4.1433651580 4.1573309412 
Si 3.9995172584 7.0040014645 4.1149552654 
Si 3.9912101412 4.1517222847 6.8619638531 
Si 5.3408835518 5.6694909820 5.4904952813 
Si 6.7397948122 7.0162994837 6.9518539926 
Si 9.4468768482 7.0766620096 4.1349710041 
Si 9.2733540907 4.2167435498 6.9084140304 
Si 1.3294419548 9.7982366886 4.1438186972 
Si 2.7644300442 8.3961188232 5.4840405182 
Si 6.6830750311 9.8583118729 4.1365842265 
Si 3.9583062620 9.8657419827 6.8609749509 
Si 7.9703632519 8.3879982244 5.6565568486 
Si 9.4091814945 9.9421394597 6.9790022036 
Si -0.0801591563 2.7195497542 8.4118570672 
Si 2.6215958537 -0.0192967628 8.4324346263 
Si 3.9761969410 1.3222387220 9.6440705659 
Si 5.4478144280 2.7258875843 8.3149177829 
Si 7.9792444328 -0.0923125572 8.2535057701 
Si 9.3373586427 1.3735063068 9.7313445893 
Si 1.3723537880 4.1739653693 9.7303354726 
Si 2.5916567774 5.6231669301 8.4039936207 
Si 6.6896719993 4.3049669502 9.8147110728 
Si 4.0826109560 6.9967173130 9.7890872436 
Si 8.0610597054 5.7011813398 8.2876149401 
Si 9.3287624124 7.0720751202 9.7494434744 
Si -0.0624259975 8.5351969430 8.2694542847 
Si 1.3502623951 9.8119304851 9.7101804636 
Si 5.2733794898 8.3582049469 8.2886334636 
Si 6.7603654584 9.8026860112 9.6888648721 

