&CONTROL
   calculation      = 'scf'
   tstress          = .true.
   tprnfor          = .true.
   outdir           = './'
   disk_io          = 'none'
   pseudo_dir       = '/home/ppiaggi/pseudos'
/
&SYSTEM
   ecutwfc          = 30
   input_dft        = 'PBE'
   ntyp             = 1
   nat              = 64
   ibrav            = 0
/
&ELECTRONS
   electron_maxstep = 1000
   mixing_beta      = 0.5
/
&IONS
/
&CELL
/

ATOMIC_SPECIES
Si 28.085 Si_ONCV_PBE_sr.upf

K_POINTS gamma

CELL_PARAMETERS angstrom
11.29471249279902 0.00000000000000 0.00000000000000
0.00000000000000 11.29655471284238 0.00000000000000
0.00000000000000 0.00000000000000 10.98132518888784

ATOMIC_POSITIONS angstrom
Si -0.0596389512 0.0228936311 0.0023977227 
Si 0.0906213315 2.7163337031 2.7803862808 
Si 2.9476376904 -0.0213269012 2.7950333860 
Si 2.8784092319 2.8195047466 0.0760176040 
Si 1.4773966912 1.3314256935 1.3614489104 
Si 5.7748459516 0.0739096360 -0.0225161360 
Si 5.6234988786 2.7616018832 2.7290336087 
Si 7.2139516816 1.4078332556 1.3690189874 
Si 8.5047276215 0.0542978747 2.7727332448 
Si 8.6390927175 2.6818432657 -0.0094315884 
Si 0.0906832234 5.5344991493 0.0517100813 
Si 2.7691057410 5.6031411080 2.8322210625 
Si 1.4985109780 6.8507542026 1.3480482772 
Si 4.2651910217 4.0811597762 1.4659965683 
Si 5.6977932399 5.6056554914 -0.0139775664 
Si 7.1869018797 6.9356438231 1.3440649285 
Si 10.0226604146 4.0930349571 1.4614607789 
Si 8.5660128466 5.4704461285 2.7207191196 
Si 0.0465431432 8.3674460574 2.9008820603 
Si 2.9302085205 8.3702438896 -0.0168730209 
Si 4.2920699973 9.5776525610 1.4116198065 
Si 5.7403794276 8.3707472196 2.8131369760 
Si 8.6592960972 8.3677724261 -0.0811330705 
Si 10.0717107722 9.5883937498 1.4101836961 
Si -0.0193827091 -0.0524052527 5.5820436589 
Si 2.8551987243 2.8473221693 5.7061052907 
Si 1.4238481700 1.3421448214 6.9972573699 
Si 4.3204694040 1.4485236528 4.2007498654 
Si 5.6784497160 -0.0962916846 5.6145898606 
Si 7.1837744711 1.3870460076 6.9593826866 
Si 9.9274852937 1.3341637588 4.1956318435 
Si 8.5025558820 2.7843075970 5.5691745857 
Si 1.3449335785 4.1217994865 4.2926755928 
Si -0.0125062869 5.4886650928 5.7020886175 
Si 1.3786778663 6.8891855556 7.0221293578 
Si 7.2383335498 4.2474819868 4.1715718330 
Si 4.2735457562 7.0095839828 4.2251751344 
Si 4.3040648380 4.0652296747 7.0047223413 
Si 5.7822289681 5.4523328250 5.5526397697 
Si 7.1570383319 6.9997459276 7.1096492560 
Si 10.1026495433 6.9433380532 4.3070638416 
Si 9.9528334105 4.2209922004 7.1142873653 
Si 1.4882752099 9.7615225833 4.2209542972 
Si 2.8501767715 8.2145865466 5.5462675311 
Si 7.1551333469 9.6725629715 4.2207864908 
Si 4.3762843629 9.7505663750 6.9394439841 
Si 8.5593528158 8.3504424365 5.6818308678 
Si 9.9815475041 9.7760821778 7.0910292979 
Si 0.0565541487 2.7347774416 8.4975574689 
Si 2.9066762118 -0.0269024944 8.4272477933 
Si 4.2219499708 1.2842879179 9.8404288401 
Si 5.7722411229 2.7829080962 8.3669540864 
Si 8.6002519348 -0.0193546238 8.5286717513 
Si 9.9341064668 1.3013780317 9.8718643178 
Si 1.3387929155 4.2219782486 9.8408853259 
Si 2.9297213513 5.5904684521 8.4368159163 
Si 7.1647684292 4.1593461532 9.7629212398 
Si 4.2223130956 6.8609246584 9.8861558857 
Si 8.6626955187 5.5302284711 8.4217833423 
Si 9.9628925730 6.9979859824 9.8123940065 
Si -0.0477462751 8.3192721498 8.4603008918 
Si 1.4529381810 9.6966418066 9.8872547141 
Si 5.6372785878 8.2319143769 8.3557941052 
Si 7.1396407972 9.6901842151 9.8407430595 

