&CONTROL
   calculation      = 'scf'
   tstress          = .true.
   tprnfor          = .true.
   outdir           = './'
   disk_io          = 'none'
   pseudo_dir       = '/home/ppiaggi/pseudos'
/
&SYSTEM
   ecutwfc          = 30
   occupations      = 'smearing'
   degauss          = 0.01
   smearing         = 'fermi-dirac'
   input_dft        = 'PBE'
   ntyp             = 1
   nat              = 64
   ibrav            = 0
/
&ELECTRONS
   electron_maxstep = 1000
   mixing_beta      = 0.5
/
&IONS
/
&CELL
/

ATOMIC_SPECIES
Si 28.085 Si_ONCV_PBE_sr.upf

K_POINTS gamma

CELL_PARAMETERS angstrom
10.88045710269199 0.00000000000000 0.00000000000000
0.00000000000000 11.08568252553674 0.00000000000000
0.00000000000000 0.00000000000000 11.26924056273596

ATOMIC_POSITIONS angstrom
Si 0.0531899057 0.0616723131 0.0180701476 
Si 0.0376444003 2.6186757062 2.8688537741 
Si 2.6613149524 -0.0884108317 2.8655687569 
Si 2.6857564528 2.7220910667 0.0865152729 
Si 1.3089785609 1.2647863122 1.4311667172 
Si 5.3852347913 -0.0040416818 -0.0105272940 
Si 5.5223566803 2.6170373273 2.9488689162 
Si 6.9179648226 1.3571685173 1.3712291274 
Si 8.2609908916 0.0359245815 2.8636403721 
Si 8.1750719242 2.7341685996 -0.0166392471 
Si 0.0080839921 5.2878319766 0.0424388132 
Si 2.6779101683 5.3473653823 2.9696674743 
Si 1.2864442783 6.6638276887 1.4512634645 
Si 4.1251796725 4.1199105296 1.4665354002 
Si 5.4709329553 5.3303207404 -0.0421220945 
Si 6.8402441098 6.6439285188 1.4734337154 
Si 9.5210919749 3.9796480497 1.3576496174 
Si 8.2006880382 5.3070842159 2.8618347283 
Si -0.0119933932 8.0593087412 2.9130755374 
Si 2.7549446432 8.0473090509 -0.0576016717 
Si 4.1153589528 9.4713780701 1.4240888740 
Si 5.5307796900 8.0074025036 2.8076056123 
Si 8.1108985083 8.0401945359 -0.0928684306 
Si 9.5981597477 9.4472164279 1.4557018144 
Si 0.0557721148 0.0964146302 5.7588591466 
Si 2.8124995772 2.7229127784 5.7123541633 
Si 1.3221739174 1.3524793380 7.1443311365 
Si 4.0970732629 1.2617670054 4.4023541403 
Si 5.3991047213 -0.0136411076 5.8796921807 
Si 6.8921802782 1.2771271622 7.2294218256 
Si 9.5627399326 1.3963049034 4.2594373696 
Si 8.2584009123 2.6038095515 5.8021086757 
Si 1.3539012206 4.1110280945 4.3541450883 
Si 0.0182474396 5.3081026898 5.7762549673 
Si 1.4265734731 6.7294882555 7.3061101775 
Si 6.7645380628 4.0764746643 4.4210386076 
Si 4.0159503982 6.6875703347 4.3935240056 
Si 4.0336400091 4.0056502585 7.2947410563 
Si 5.4204351723 5.3577964841 5.8176846739 
Si 6.7962323874 6.7114140928 7.2119157740 
Si 9.5300372819 6.8259428119 4.3729399153 
Si 9.6022351858 4.1243540289 7.3342905321 
Si 1.3060410176 9.4515896249 4.3852486121 
Si 2.8167451499 7.9968428471 5.8166915730 
Si 6.8339815336 9.3988525859 4.2708809067 
Si 4.1177773807 9.4581863636 7.1506242164 
Si 8.1623658512 8.1146551873 5.7574416290 
Si 9.5519608051 9.4849918218 7.2002972355 
Si -0.0134520333 2.7800960561 8.7771588987 
Si 2.6791040694 -0.0057331662 8.7055297796 
Si 4.1312749626 1.2966129386 10.1127716587 
Si 5.5387549880 2.7180812175 8.7504193089 
Si 8.1422624726 -0.0733834421 8.7018454966 
Si 9.6246980204 1.4067950573 10.0845657732 
Si 1.4067975295 3.9875472801 10.0412408699 
Si 2.6745063472 5.4017141843 8.7276971222 
Si 6.7622175551 4.1129632785 10.1600243449 
Si 4.1922910299 6.7042494786 10.0384625295 
Si 8.1817798582 5.3925251234 8.6861292672 
Si 9.4892034156 6.6706780569 10.1981890394 
Si 0.0813197725 7.9953232810 8.6947446575 
Si 1.4397364916 9.3543608421 10.0348604455 
Si 5.5006671507 8.1453021953 8.6168474008 
Si 6.7507296006 9.4421998273 10.0501929021 

