&CONTROL
   calculation      = 'scf'
   tstress          = '.true.'
   tprnfor          = '.true.'
   outdir           = './'
   disk_io          = 'none'
   pseudo_dir       = './'
/
&SYSTEM
   ecutwfc          = 30
   input_dft        = 'PBE'
   ntyp             = 1
   nat              = 64
   ibrav            = 0
/
&ELECTRONS
   electron_maxstep = 1000
   mixing_beta      = 0.5
/
&IONS
/
&CELL
/

ATOMIC_SPECIES
Si 28.085 Si_ONCV_PBE-1.0.upf

K_POINTS gamma

CELL_PARAMETERS angstrom
10.91098848071513 0.00000000000000 0.00000000000000
0.00000000000000 10.82739251413570 0.00000000000000
0.00000000000000 0.00000000000000 10.70346428286546

ATOMIC_POSITIONS angstrom
Si 4.2115725233 3.9742341315 1.3539372333 
Si 0.0492778365 2.6394024942 2.7527107140 
Si 4.1144657898 1.3494742891 3.9861994077 
Si -0.0113970505 -0.0851005099 -0.0373133969 
Si 1.4560047892 4.0278874854 4.1406368059 
Si 2.8140472693 2.5782126951 0.0584707274 
Si 1.3921260619 1.4304728557 1.2848576498 
Si 2.7912251066 0.0528469321 2.6358172044 
Si 4.1139562661 3.9217495724 6.7891465939 
Si 0.0728421277 2.7489445265 8.1730055104 
Si 4.1944055046 1.3630486880 9.4200739556 
Si 0.0555958546 -0.0800241488 5.4206149147 
Si 1.3852958198 3.9701035902 9.5684603991 
Si 2.7301389629 2.5803849751 5.3562662450 
Si 1.3030058026 1.3170539754 6.8431915815 
Si 2.6927527051 0.0478059457 8.1299548705 
Si 4.1257040960 9.4063917684 1.4373684540 
Si -0.0872554297 7.9721562262 2.7621645895 
Si 4.1887869089 6.7622792195 4.0325750761 
Si 0.0230363993 5.4136200356 0.0892198848 
Si 1.2903702428 9.2529842545 3.9803566781 
Si 2.7086348466 7.9926918183 0.0779948379 
Si 1.4032897373 6.5738479387 1.3414777827 
Si 2.7775650489 5.3817715855 2.6310219034 
Si 4.1953378144 9.3806823466 6.8450293676 
Si 0.0243047766 7.9688316828 8.1555005353 
Si 4.1212484329 6.5885281312 9.5508435632 
Si 0.0371785683 5.3714329662 5.3716639387 
Si 1.3057045486 9.4222907716 9.4434880653 
Si 2.7913765658 7.9694271390 5.3669811846 
Si 1.4267416473 6.5839117451 6.7581380893 
Si 2.7651072709 5.2925805762 8.1253873814 
Si 9.5577571849 3.9843212635 1.3661525674 
Si 5.4971474423 2.6457353054 2.7734305860 
Si 9.6286209602 1.2615816374 4.0358870302 
Si 5.5604571809 0.0845275780 0.0703247544 
Si 6.9026458790 4.0346734087 4.1618651670 
Si 8.2455014053 2.5758034933 0.0238061637 
Si 6.8177489566 1.3111732534 1.2663085475 
Si 8.3395779021 -0.0850661473 2.6443670487 
Si 9.6407108455 3.9351513111 6.6942102122 
Si 5.5743290205 2.6961997060 8.1769655187 
Si 9.6702477942 1.4092485189 9.5240334298 
Si 5.5073285351 -0.0790751403 5.3479831046 
Si 6.8152900244 4.0910678311 9.4818698911 
Si 8.3373517273 2.6987607885 5.3851971974 
Si 6.9134365542 1.3796154033 6.7036833274 
Si 8.2979819179 0.0342930013 8.2029125168 
Si 9.7328358624 9.3346635686 1.3645290034 
Si 5.4183693176 7.9836257463 2.7447064911 
Si 9.7112507291 6.7045181613 4.0442825696 
Si 5.5278923338 5.4179633382 -0.0165950596 
Si 6.7985998651 9.3844688066 4.0699522149 
Si 8.2693713484 7.9580339307 -0.0087831652 
Si 6.8622246449 6.6156040152 1.2769411380 
Si 8.2420984564 5.4157979109 2.6969559970 
Si 9.7396701629 9.3163461607 6.8314955588 
Si 5.5396142578 8.0602281971 8.0735943972 
Si 9.7383986225 6.6894764722 9.5873599893 
Si 5.4551951771 5.2511801505 5.4646114201 
Si 6.7877496594 9.2984138928 9.4876608139 
Si 8.3500387117 8.0549558568 5.4918182499 
Si 6.9073366318 6.6681366951 6.7136177790 
Si 8.2445881831 5.2358154875 8.0664134220 

