&CONTROL
   calculation      = 'scf'
   tstress          = '.true.'
   tprnfor          = '.true.'
   outdir           = './'
   disk_io          = 'none'
   pseudo_dir       = './'
/
&SYSTEM
   ecutwfc          = 30
   input_dft        = 'PBE'
   ntyp             = 1
   nat              = 64
   ibrav            = 0
/
&ELECTRONS
   electron_maxstep = 1000
   mixing_beta      = 0.5
/
&IONS
/
&CELL
/

ATOMIC_SPECIES
Si 28.085 Si_ONCV_PBE-1.0.upf

K_POINTS gamma

CELL_PARAMETERS angstrom
10.65212788198291 0.00000000000000 0.00000000000000
0.00000000000000 10.63968721703901 0.00000000000000
0.00000000000000 0.00000000000000 11.23828597154968

ATOMIC_POSITIONS angstrom
Si 3.9897840801 4.1865672864 1.4331502295 
Si 0.0223908329 2.6852476759 2.9140281055 
Si 3.9810400079 1.2981614515 4.2821459922 
Si -0.0882071372 0.0677565063 -0.0835158170 
Si 1.2313707445 4.1103279795 4.1590299783 
Si 2.6578600133 2.7923204278 -0.0207426545 
Si 1.3057018230 1.3380389075 1.4356459558 
Si 2.7114888732 -0.0372150104 2.9164279804 
Si 3.8809306348 3.9957201220 7.0989181944 
Si 0.0809804981 2.7029886522 8.4311572179 
Si 3.8787326519 1.3050884240 9.8258387238 
Si 0.0464594697 -0.0154477448 5.6915241715 
Si 1.2462586116 4.1349985759 9.8916216448 
Si 2.7186328050 2.7138081984 5.6222725176 
Si 1.3747602222 1.3246542592 7.0019939942 
Si 2.6182345691 0.0293314467 8.3965817912 
Si 4.0063188259 9.5667744947 1.3498293482 
Si 0.0622546701 8.1424949770 2.8527770589 
Si 3.9467431998 6.8777275115 4.3348159707 
Si 0.0730293706 5.4019714147 -0.0415178797 
Si 1.3145534688 9.6126516713 4.1804730203 
Si 2.5925386495 8.2116186518 0.0583615620 
Si 1.3789264428 6.8284466879 1.3153804862 
Si 2.6743150351 5.4428787349 2.7579089439 
Si 3.9525864682 9.5610127171 7.1453540578 
Si -0.0022851191 8.1457226633 8.5435287049 
Si 3.9777475252 6.7845818509 9.8307468996 
Si 0.0874496389 5.5137729847 5.5841283456 
Si 1.3889792290 9.5494208399 9.8443462511 
Si 2.6129238326 8.2411390955 5.6777508943 
Si 1.3336158243 6.8759036230 7.0210822183 
Si 2.5875148124 5.5508902811 8.5156787824 
Si 9.2971737249 4.0964423006 1.4491107440 
Si 5.3137975155 2.7352583824 2.7512104034 
Si 9.2442964253 1.4553558848 4.2622421322 
Si 5.3115444794 -0.0479786085 0.0762666111 
Si 6.4883355213 4.1635262229 4.3213538040 
Si 7.8853809490 2.6842024233 0.0660893783 
Si 6.6565309172 1.3843147132 1.3163447714 
Si 7.9474175633 0.0801626777 2.9060923533 
Si 9.2932377771 4.0218665647 6.9750601274 
Si 5.2110878523 2.6969244749 8.5277015076 
Si 9.2944531728 1.3735682086 9.9790185721 
Si 5.2181540201 -0.0886045074 5.7300099423 
Si 6.6232705943 4.1158623011 9.9751024085 
Si 7.8716078387 2.6537098900 5.5668848049 
Si 6.6166595191 1.3610783169 7.1570488558 
Si 7.9420478522 -0.0167043998 8.4851889792 
Si 9.1229386364 9.6381062211 1.3118804847 
Si 5.2991849511 8.0902442272 2.7728754636 
Si 9.2763332680 6.7532621142 4.2997525909 
Si 5.3143079323 5.5248743078 -0.0820958438 
Si 6.6024759116 9.5981084511 4.1631057126 
Si 7.8528284918 8.1773135558 -0.0913945255 
Si 6.4892203254 6.7766895552 1.4668227148 
Si 7.9739665655 5.4919873927 2.8320681432 
Si 9.1085172922 9.6094826311 7.1744153772 
Si 5.2351301337 8.1692689903 8.4331717353 
Si 9.2284730705 6.9010784602 9.8182162559 
Si 5.3105818415 5.5280116288 5.6679661378 
Si 6.5689490015 9.6055398715 9.9562820494 
Si 7.8839896305 8.2489057797 5.6766072531 
Si 6.4889034880 6.8971576102 7.0342411934 
Si 7.8730872711 5.5240863415 8.3951870302 

