&CONTROL
   calculation      = 'scf'
   tstress          = .true.
   tprnfor          = .true.
   outdir           = './'
   disk_io          = 'none'
   pseudo_dir       = '/home/ppiaggi/pseudos'
/
&SYSTEM
   ecutwfc          = 30
   occupations      = 'smearing'
   degauss          = 0.01
   smearing         = 'fermi-dirac'
   input_dft        = 'PBE'
   ntyp             = 1
   nat              = 64
   ibrav            = 0
/
&ELECTRONS
   electron_maxstep = 1000
   mixing_beta      = 0.5
/
&IONS
/
&CELL
/

ATOMIC_SPECIES
Si 28.085 Si_ONCV_PBE_sr.upf

K_POINTS gamma

CELL_PARAMETERS angstrom
10.87061116907909 0.00000000000000 0.00000000000000
0.00000000000000 10.83613694633934 0.00000000000000
0.00000000000000 0.00000000000000 11.13571239822694

ATOMIC_POSITIONS angstrom
Si 0.0051925891 -0.0900105111 0.0093827723 
Si -0.0974779921 2.6942540234 2.6517811557 
Si 2.8040674699 0.0142420666 2.7478080065 
Si 2.7501465403 2.6560245021 0.0183661495 
Si 1.2705213499 1.3976308811 1.3486675857 
Si 5.4373079248 -0.0217105765 0.0323001268 
Si 5.4364579220 2.7275652743 2.6611555665 
Si 6.8180474253 1.2978857243 1.3837619941 
Si 8.1563181942 -0.0629151322 2.7210886984 
Si 8.1375367466 2.7228613079 -0.0961314422 
Si 0.0818923926 5.3994269483 -0.0457700205 
Si 2.7576973022 5.3886742327 2.7684572848 
Si 1.3426645693 6.7195407236 1.4274988581 
Si 4.0557384815 4.0343682174 1.4385157489 
Si 5.3913757236 5.4845873866 -0.0229820394 
Si 6.9232459212 6.6925810439 1.4296281711 
Si 9.4935873142 3.9723262960 1.2799510875 
Si 8.1473682486 5.4203790852 2.8329414968 
Si 0.0978607212 7.9909066769 2.7648119387 
Si 2.6549463224 8.1118450545 0.0974289877 
Si 4.0257515066 9.3362785580 1.2730988154 
Si 5.5567828035 8.0498940023 2.6639890120 
Si 8.1913168040 8.1128721403 -0.0428105388 
Si 9.5816067718 9.4885063744 1.3054866117 
Si 0.0270292853 -0.0490429793 5.5361696484 
Si 2.7906782632 2.7163544307 5.5147308636 
Si 1.4035060399 1.3143915472 6.8263166520 
Si 4.0175214533 1.3163981891 4.1530995961 
Si 5.5664470314 -0.0677014821 5.4716197221 
Si 6.8891629461 1.2826899768 6.7446899819 
Si 9.5851153145 1.3262449310 4.1598962533 
Si 8.2953329035 2.7863734578 5.3922210382 
Si 1.4367053362 4.1168750960 4.1827672547 
Si 0.0606682211 5.4440435311 5.4639806743 
Si 1.3608762606 6.6700197554 6.7654061837 
Si 6.7800659699 4.0241815475 4.2004839722 
Si 4.1438097236 6.6867257050 4.0681117745 
Si 4.1976220646 4.0213205226 6.9150436003 
Si 5.4897117530 5.3905038193 5.4872292883 
Si 6.8625715457 6.6935146735 6.8345653734 
Si 9.5977910544 6.8152203873 4.0799928416 
Si 9.6268864782 4.0364242167 6.7671073745 
Si 1.4345372001 9.5224079349 4.1780496628 
Si 2.6716695776 8.0990629068 5.5138542695 
Si 6.8405117345 9.4525372252 4.0334612633 
Si 4.0293979940 9.3569298652 6.7564706248 
Si 8.2851161973 8.1715233894 5.4845388848 
Si 9.5228629611 9.4065336644 6.9273503123 
Si 0.0809127998 2.7548286759 8.1197545935 
Si 2.6457135271 -0.0889821639 8.2132756659 
Si 4.0460853300 1.2870049423 9.4749298404 
Si 5.5092011262 2.6829457268 8.2876425009 
Si 8.2463180389 0.0057541102 8.1133154676 
Si 9.5706998734 1.4186951872 9.6338378707 
Si 1.2697012046 4.0305923581 9.6332321072 
Si 2.8283532899 5.2900515007 8.2231183790 
Si 6.7532380836 4.0971083132 9.6469491461 
Si 4.1178927600 6.6977737837 9.6167561366 
Si 8.2214137223 5.3397850469 8.2704998313 
Si 9.6355495001 6.6914903999 9.5010425688 
Si -0.0475100594 8.0262050153 8.2691682560 
Si 1.4237935148 9.4466915515 9.4963878002 
Si 5.3764914596 8.0708564130 8.1824673354 
Si 6.8384139640 9.4287223848 9.5761759897 

