&CONTROL
   calculation      = 'scf'
   tstress          = '.true.'
   tprnfor          = '.true.'
   outdir           = './'
   disk_io          = 'none'
   pseudo_dir       = './'
/
&SYSTEM
   ecutwfc          = 30
   input_dft        = 'PBE'
   ntyp             = 1
   nat              = 64
   ibrav            = 0
/
&ELECTRONS
   electron_maxstep = 1000
   mixing_beta      = 0.5
/
&IONS
/
&CELL
/

ATOMIC_SPECIES
Si 28.085 Si_ONCV_PBE-1.0.upf

K_POINTS gamma

CELL_PARAMETERS angstrom
10.67546726990219 0.00000000000000 0.00000000000000
0.00000000000000 10.67401523347877 0.00000000000000
0.00000000000000 0.00000000000000 10.92760964754417

ATOMIC_POSITIONS angstrom
Si 4.0288916211 3.9636763377 1.4815772813 
Si -0.0923594871 2.6955996335 2.8186044081 
Si 3.9744439335 1.3549786752 4.1802276033 
Si 0.0636183473 -0.0719363937 0.0223165471 
Si 1.3108255509 3.9589409215 4.2848211688 
Si 2.7145555503 2.6215553727 -0.0841683878 
Si 1.3423384774 1.4079956988 1.3405280492 
Si 2.7186847977 0.0921986590 2.7957611878 
Si 4.1093661114 4.0276754091 7.0699914442 
Si -0.0195780265 2.6959370894 8.4586939107 
Si 3.9570533656 1.3305830311 9.8523424781 
Si -0.0278419949 0.0516941866 5.5864544733 
Si 1.3759808166 3.9269867946 9.7157157310 
Si 2.7066181202 2.6846966373 5.6310466949 
Si 1.3821704554 1.3412940787 6.8994457963 
Si 2.7267110725 -0.0252532838 8.3139862784 
Si 3.9835348977 9.3098366804 1.3309492563 
Si -0.0389378037 7.9709058142 2.7253515421 
Si 4.0035701274 6.6011247660 4.2286907199 
Si 0.0078743201 5.4012817992 0.0808235300 
Si 1.2592946128 9.3765882230 4.0973383494 
Si 2.6709778380 7.9831837063 0.0551131594 
Si 1.4032569559 6.6408075161 1.2961148905 
Si 2.7614009972 5.3356905682 2.8599664418 
Si 3.9230158797 9.3145518017 6.9118704664 
Si 0.0899468749 7.9464368363 8.4425853514 
Si 4.0255811017 6.5896334045 9.6937115622 
Si -0.0541543805 5.2942394044 5.6009944912 
Si 1.3635001551 9.2846333507 9.7302305346 
Si 2.7497776217 7.9488975883 5.5381476847 
Si 1.3991067015 6.7205640351 7.0105266446 
Si 2.6216949297 5.3050785017 8.3240906285 
Si 9.3312652843 4.0400683464 1.4444565704 
Si 5.3508287549 2.6992183322 2.8127868045 
Si 9.3928208550 1.3703150243 4.1785415172 
Si 5.3674381801 -0.0050747601 -0.0748739535 
Si 6.6653315316 4.0713015545 4.2740713170 
Si 7.9653729291 2.6818962975 -0.0748520610 
Si 6.7703434367 1.3280407530 1.3392122989 
Si 8.0001666223 0.0102324780 2.7823943871 
Si 9.4173189251 3.9809850908 6.9936203596 
Si 5.2893354005 2.6201856989 8.4460364706 
Si 9.4267594559 1.4165076846 9.6945969759 
Si 5.3192879501 0.0788813218 5.4838418228 
Si 6.7036516139 3.8883476477 9.8566055177 
Si 8.1105138099 2.6766120605 5.6178390769 
Si 6.7083409612 1.3504582412 6.9662617000 
Si 7.9714813157 -0.0141584764 8.4335645176 
Si 9.3143630874 9.3802371622 1.4703530879 
Si 5.2592621963 8.0425233996 2.7260897784 
Si 9.2947851632 6.5780257867 4.2531603289 
Si 5.2801242673 5.2379748641 -0.0432491547 
Si 6.6138594202 9.2209956326 4.1470910776 
Si 7.9425999534 7.9824655272 0.1001999763 
Si 6.6290442368 6.6970425998 1.4532224864 
Si 8.0045900238 5.3060031943 2.8680879478 
Si 9.3286645614 9.2025545911 7.0164503159 
Si 5.3538427228 8.0175368765 8.3746680722 
Si 9.4147709421 6.5781778090 9.7732100341 
Si 5.2918181302 5.3364596062 5.5700140630 
Si 6.6143463882 9.2515902549 9.6999958123 
Si 8.1004004713 7.8990623529 5.6620000362 
Si 6.7681199354 6.7152843055 7.0542613005 
Si 7.9527461395 5.3472980087 8.4323477745 

