&CONTROL
   calculation      = 'scf'
   tstress          = '.true.'
   tprnfor          = '.true.'
   outdir           = './'
   disk_io          = 'none'
   pseudo_dir       = './'
/
&SYSTEM
   ecutwfc          = 30
   input_dft        = 'PBE'
   ntyp             = 1
   nat              = 64
   ibrav            = 0
/
&ELECTRONS
   electron_maxstep = 1000
   mixing_beta      = 0.5
/
&IONS
/
&CELL
/

ATOMIC_SPECIES
Si 28.085 Si_ONCV_PBE-1.0.upf

K_POINTS gamma

CELL_PARAMETERS angstrom
10.88744009913124 0.00000000000000 0.00000000000000
0.00000000000000 10.84220038059454 0.00000000000000
0.00000000000000 0.00000000000000 11.15895650416088

ATOMIC_POSITIONS angstrom
Si 4.1163847392 3.9633839318 1.3604327300 
Si 0.0186678042 2.7029769279 2.9592476169 
Si 4.2157774853 1.2665662274 4.4033838469 
Si 0.0963323859 -0.0877064151 0.0705781366 
Si 1.4202309595 4.0471125153 4.2222463216 
Si 2.7639416334 2.7454171731 0.0309859070 
Si 1.3323505189 1.3134125760 1.5393904017 
Si 2.7961161179 -0.0089060871 2.8916556196 
Si 4.2605763944 4.0127398743 7.2589670533 
Si 0.0351685130 2.6971552049 8.5997653464 
Si 4.2638104970 1.2528845693 10.1501817842 
Si -0.0389906792 0.0441757074 5.8225768234 
Si 1.4605297482 4.0166064990 9.9998244086 
Si 2.8573890931 2.6769947710 5.7074500847 
Si 1.4422644637 1.4229758927 7.1035188764 
Si 2.7720631961 -0.0894835294 8.5793830510 
Si 4.1351490229 9.4653094560 1.4880634436 
Si -0.0878840379 7.9857241613 2.8010418248 
Si 4.1226945434 6.7021702100 4.3542944967 
Si 0.0536744247 5.3554182148 0.0422141300 
Si 1.4085239255 9.4885312479 4.2311117582 
Si 2.8387804191 8.1262975538 -0.0804572011 
Si 1.4600832455 6.6880033442 1.4914378735 
Si 2.8060938554 5.2835198187 2.8911042164 
Si 4.1409888755 9.4182679668 7.1764611214 
Si -0.0683754076 8.0065006653 8.6151341723 
Si 4.3068839557 6.7882215445 10.0044412345 
Si -0.0311414429 5.3956478251 5.7391944068 
Si 1.4557485106 9.3512568836 10.0726733536 
Si 2.8522049457 8.0776381209 5.7331479059 
Si 1.3493695114 6.7954865486 7.1511268210 
Si 2.8300098805 5.3337755047 8.6932755586 
Si 9.7365873362 3.9586238692 1.4086144155 
Si 5.6376647461 2.6781280664 2.8135469221 
Si 9.8151620089 1.3950047937 4.2844815773 
Si 5.5362785740 0.0639121302 -0.0305006597 
Si 7.0514631591 3.9536784473 4.3936099280 
Si 8.4561554795 2.7046637402 0.0052474825 
Si 6.9762533582 1.2901038966 1.4408098242 
Si 8.4154734982 -0.0003942336 2.7684661497 
Si 9.7471990594 3.9308399988 7.1981934647 
Si 5.6067812451 2.6057561610 8.5619669512 
Si 9.7690593351 1.3393503292 10.1504846800 
Si 5.6386416448 0.0182722631 5.6905859918 
Si 6.9261677478 4.0821127059 9.9992762124 
Si 8.4094113540 2.6572556284 5.8284130839 
Si 7.0341383401 1.2722740964 7.2590418776 
Si 8.3238940627 -0.0774646123 8.5116244966 
Si 9.7111168092 9.3582883450 1.3689672502 
Si 5.6972544062 7.9876474735 2.8142035048 
Si 9.8691037751 6.7637648600 4.3691372429 
Si 5.5369509743 5.4509034578 -0.0981291769 
Si 6.9883861916 9.3586263201 4.2740369681 
Si 8.4068419424 8.1230707752 0.0174316952 
Si 7.0240382257 6.7907081043 1.4277843692 
Si 8.3918810713 5.4129375048 2.8704667882 
Si 9.8125691809 9.3507213802 7.0977822939 
Si 5.5438175565 8.1488347858 8.5957237232 
Si 9.8102871038 6.7608073228 10.0833954642 
Si 5.7070422932 5.3453513675 5.7108414772 
Si 7.0249749286 9.3970918727 10.0180603776 
Si 8.3797418557 8.0888258309 5.7945446403 
Si 7.1064632459 6.7744368567 7.2455160953 
Si 8.3371279555 5.3709678440 8.7064226294 

