&CONTROL
   calculation      = 'scf'
   tstress          = '.true.'
   tprnfor          = '.true.'
   outdir           = './'
   disk_io          = 'none'
   pseudo_dir       = './'
/
&SYSTEM
   ecutwfc          = 30
   input_dft        = 'PBE'
   ntyp             = 1
   nat              = 64
   ibrav            = 0
/
&ELECTRONS
   electron_maxstep = 1000
   mixing_beta      = 0.5
/
&IONS
/
&CELL
/

ATOMIC_SPECIES
Si 28.085 Si_ONCV_PBE-1.0.upf

K_POINTS gamma

CELL_PARAMETERS angstrom
11.11128963507469 0.00000000000000 0.00000000000000
0.00000000000000 11.19733646923338 0.00000000000000
0.00000000000000 0.00000000000000 11.02537009974800

ATOMIC_POSITIONS angstrom
Si 4.0481508168 4.2653539522 1.3347094686 
Si -0.0370783894 2.8408268777 2.7484093943 
Si 4.0708282488 1.4979518703 4.2240927416 
Si 0.0950554560 0.0808071161 -0.0181838489 
Si 1.4194773744 4.2765992899 4.2832285721 
Si 2.6707461498 2.8126219991 0.0037268844 
Si 1.3923688788 1.4334550850 1.3851391806 
Si 2.6929380476 -0.0370968308 2.7730077025 
Si 3.9782639865 4.2317232958 7.0135576819 
Si 0.0862728872 2.8761283824 8.5259424825 
Si 4.0010989164 1.4956273375 9.8508041492 
Si -0.0621163674 0.0638903561 5.7235314100 
Si 1.2789022383 4.3060980090 9.9501822069 
Si 2.7678436848 2.9507722495 5.5755233936 
Si 1.3593493361 1.4453101400 7.1001331596 
Si 2.7983490082 -0.0929580733 8.4027462518 
Si 4.0104728838 10.0448970026 1.4533513152 
Si 0.0410584305 8.6698123424 2.7981517317 
Si 4.0020565597 7.1480206687 4.1807073283 
Si -0.0790187931 5.7560185883 0.0585168348 
Si 1.3354358865 10.1151737955 4.3003666400 
Si 2.8080670992 8.5394382958 -0.1018129491 
Si 1.3077095852 7.2382027202 1.4074373474 
Si 2.7123565642 5.7074524461 2.7411864467 
Si 4.0164194804 9.9800315855 7.0886357917 
Si 0.0762119326 8.5821173731 8.4046026941 
Si 4.0454009707 7.0581383718 9.9645199685 
Si 0.0238693067 5.6310624618 5.6688493071 
Si 1.3855404150 10.0325332209 9.7985505703 
Si 2.8055023127 8.5237143364 5.7216532603 
Si 1.3597612704 7.1713390935 7.1409845451 
Si 2.6914468309 5.6259053321 8.4037786389 
Si 9.5883838588 4.2595292236 1.3958872270 
Si 5.3743156550 2.7620471505 2.8580077102 
Si 9.5063631685 1.4656080382 4.2812852383 
Si 5.3562848946 0.0656249745 0.0317939833 
Si 6.8161127417 4.2016548296 4.2385881966 
Si 8.1624229693 2.9333928255 0.0845845757 
Si 6.8016395065 1.4146758883 1.4645405448 
Si 8.1759416587 -0.0323257043 2.9001708811 
Si 9.5714670151 4.2170397760 7.0661649819 
Si 5.3812460700 2.9351988517 8.5574834230 
Si 9.5123363341 1.3877060567 9.8201470233 
Si 5.3772035798 0.0569212865 5.6791934798 
Si 6.8168800228 4.2952348245 9.7837087285 
Si 8.1818353472 2.7799010249 5.6747146727 
Si 6.8298951630 1.3429606998 7.0261015973 
Si 8.1005044152 0.0148784351 8.5268942258 
Si 9.5198869305 10.0001358187 1.4122574714 
Si 5.4045055902 8.5561062919 2.7353369011 
Si 9.5744911920 7.1757984656 4.3096082993 
Si 5.4853286190 5.7135396329 0.0415747818 
Si 6.7148139069 9.9847050713 4.2231068689 
Si 8.1312084221 8.6569960856 0.0795876046 
Si 6.7123558077 7.0792470212 1.5031550236 
Si 8.1819557474 5.7918604834 2.9171909193 
Si 9.4901484438 9.9836630796 7.0230918785 
Si 5.4961753360 8.5976275139 8.4101011239 
Si 9.4717012169 7.2425398292 9.9361371381 
Si 5.4432174506 5.6613258982 5.5865243050 
Si 6.7996660109 9.9481081194 9.9706285627 
Si 8.1847270996 8.5389712818 5.6523040008 
Si 6.7030035374 7.1311337255 7.1306721688 
Si 8.1533162315 5.7803625667 8.5130937659 

