&CONTROL
   calculation      = 'scf'
   tstress          = '.true.'
   tprnfor          = '.true.'
   outdir           = './'
   disk_io          = 'none'
   pseudo_dir       = './'
/
&SYSTEM
   ecutwfc          = 30
   input_dft        = 'PBE'
   ntyp             = 1
   nat              = 64
   ibrav            = 0
/
&ELECTRONS
   electron_maxstep = 1000
   mixing_beta      = 0.5
/
&IONS
/
&CELL
/

ATOMIC_SPECIES
Si 28.085 Si_ONCV_PBE-1.0.upf

K_POINTS gamma

CELL_PARAMETERS angstrom
10.72036596773454 0.00000000000000 0.00000000000000
0.00000000000000 11.05548730937320 0.00000000000000
0.00000000000000 0.00000000000000 11.14517980996041

ATOMIC_POSITIONS angstrom
Si 3.9544723023 4.2981622954 1.5276199426 
Si 0.0368272122 2.7647914222 2.8137637004 
Si 4.0223488730 1.3937957373 4.2824065302 
Si -0.0784891913 -0.0900735376 0.0737644320 
Si 1.3780018247 4.1913799753 4.3026890317 
Si 2.6359221911 2.7287630822 0.0990849999 
Si 1.2676796815 1.3727475202 1.3684319232 
Si 2.6081573542 0.0014040224 2.7874007125 
Si 4.0262341577 4.1141821010 7.1923490016 
Si -0.0573966499 2.8748266050 8.6973699061 
Si 3.9394327214 1.4666243460 10.0345731819 
Si -0.0573994490 0.0530993200 5.6407236303 
Si 1.2352737403 4.2948942114 9.9532736822 
Si 2.6767522205 2.7755941942 5.8197682916 
Si 1.4036647883 1.4888111915 7.0947254199 
Si 2.7228207924 0.0190749139 8.5852131342 
Si 4.0632244498 9.7876265159 1.3449973724 
Si 0.0390232986 8.4320235065 2.8487372152 
Si 4.0893925510 6.9115047421 4.3367804677 
Si -0.0832608484 5.6014963636 -0.0611123293 
Si 1.3407091208 9.7909340729 4.2566871348 
Si 2.6080484871 8.5144724622 0.0345963478 
Si 1.2344251799 7.0044886652 1.4325804013 
Si 2.6817900582 5.6609772454 2.9197044557 
Si 4.0150630110 9.7540030071 7.1378422431 
Si 0.0878450134 8.3215333693 8.5433693394 
Si 3.9724687874 6.9539680418 10.1048293376 
Si 0.0272768076 5.6524212016 5.8253956452 
Si 1.4272661361 9.7479721310 10.0162453423 
Si 2.7311899643 8.4734950754 5.6936184141 
Si 1.4214816165 6.9942137340 7.1755309673 
Si 2.6499102390 5.5206217043 8.5821952117 
Si 9.3166450561 4.2914863894 1.5026275192 
Si 5.2297688777 2.7404141004 2.9044807477 
Si 9.3733513461 1.3671305141 4.3952998282 
Si 5.4024394063 0.0182111603 -0.0447763074 
Si 6.6147736192 4.2686361982 4.2960907424 
Si 7.8999048552 2.7635673266 0.0935881046 
Si 6.5629407403 1.4654126282 1.5212221416 
Si 8.0000196182 0.0010444341 2.7997492433 
Si 9.2313428829 4.1496050392 7.0835650716 
Si 5.3821112223 2.7519998270 8.6930276670 
Si 9.3554163096 1.4339833010 10.0900196729 
Si 5.3009336809 0.0241630903 5.6725211065 
Si 6.6616622698 4.2940237529 10.1205604789 
Si 8.0792786205 2.8654619529 5.6656349198 
Si 6.5631892810 1.3944514739 7.1092870081 
Si 7.9603101199 -0.0077423572 8.7041997945 
Si 9.2289121268 9.9037020174 1.3796564028 
Si 5.3094497351 8.4784469035 2.8374847635 
Si 9.3844054564 6.9283931480 4.3636385285 
Si 5.3029413609 5.6629797151 -0.0915596282 
Si 6.6784309039 9.7370890646 4.3665542778 
Si 7.9167544813 8.4401513735 -0.0506285106 
Si 6.6259107077 7.0804866210 1.5298385663 
Si 8.0759042052 5.6733867805 2.8130857972 
Si 9.3380705588 9.8566918934 7.0984827398 
Si 5.2802277439 8.4061767427 8.5711975629 
Si 9.3795886982 7.1099705942 9.9893269181 
Si 5.4205078336 5.5942066852 5.6642503709 
Si 6.6124144146 9.9067716870 10.1331369690 
Si 7.9916357621 8.3670177863 5.7531487664 
Si 6.6876578883 7.0105968447 7.1752150004 
Si 8.0594461612 5.6550625750 8.6456149819 

