&CONTROL
   calculation      = 'scf'
   tstress          = '.true.'
   tprnfor          = '.true.'
   outdir           = './'
   disk_io          = 'none'
   pseudo_dir       = './'
/
&SYSTEM
   ecutwfc          = 30
   input_dft        = 'PBE'
   ntyp             = 1
   nat              = 64
   ibrav            = 0
/
&ELECTRONS
   electron_maxstep = 1000
   mixing_beta      = 0.5
/
&IONS
/
&CELL
/

ATOMIC_SPECIES
Si 28.085 Si_ONCV_PBE-1.0.upf

K_POINTS gamma

CELL_PARAMETERS angstrom
10.97109205047434 0.00000000000000 0.00000000000000
0.00000000000000 11.05028608787829 0.00000000000000
0.00000000000000 0.00000000000000 10.70874844386678

ATOMIC_POSITIONS angstrom
Si 4.1650271775 4.1574615039 1.4697420482 
Si 0.0836512508 2.7102000597 2.7542353221 
Si 4.1555383669 1.3964074933 4.0620056247 
Si -0.0877032489 -0.0066269264 0.0247930342 
Si 1.4031093507 4.1597493931 4.2166495478 
Si 2.7035414588 2.6305342285 0.0920623038 
Si 1.3506366660 1.3929797630 1.3378458646 
Si 2.7158284386 -0.0659745609 2.7283164402 
Si 4.1190432144 4.1693822545 6.7837133798 
Si -0.0089282991 2.6809066576 8.3414718308 
Si 4.1036448644 1.3177913855 9.5847703070 
Si 0.0754047656 0.0613648099 5.4173651160 
Si 1.4987111419 4.0939867699 9.7015570588 
Si 2.7685566040 2.7864427901 5.4910962576 
Si 1.4091294087 1.3103722982 6.8138348265 
Si 2.7941107195 0.0023466421 8.2765193410 
Si 4.1617299585 9.4402242952 1.4310578069 
Si -0.0786761391 8.2507175053 2.8094586855 
Si 4.1647359959 6.7936970044 4.1789922459 
Si -0.0722940188 5.5252591639 0.0761935850 
Si 1.5000778113 9.5419786627 4.0450717919 
Si 2.8729623752 8.0897263758 -0.0161773503 
Si 1.4562924076 6.8445023488 1.2995606817 
Si 2.7562754453 5.3898982047 2.8000370539 
Si 4.1927247115 9.5206764430 6.9650394360 
Si 0.0754839620 8.2300618567 8.1921990842 
Si 4.2783469752 6.8177882246 9.5336328912 
Si -0.0133906147 5.3679060455 5.4998390078 
Si 1.4935151378 9.6213900741 9.5903361929 
Si 2.8303352653 8.0991327240 5.5025803155 
Si 1.4171734634 6.8663985621 6.7763473763 
Si 2.8286231472 5.4861766826 8.1607198124 
Si 9.7115272972 4.1033627449 1.4126997518 
Si 5.6635341266 2.7986160504 2.7119574463 
Si 9.8744156845 1.2727232906 4.0907675487 
Si 5.5863157678 0.0422291562 -0.0302610276 
Si 6.8968752051 4.1659643383 4.0668696864 
Si 8.3303977029 2.6985118680 0.0782683573 
Si 7.0439623630 1.3783030439 1.3102475819 
Si 8.4953413440 -0.0476714605 2.8053048594 
Si 9.8573941700 4.1464105127 6.9045015326 
Si 5.6826240249 2.6694847846 8.2648395093 
Si 9.8386126089 1.4105722969 9.5881010079 
Si 5.6315957107 0.0194706868 5.5573393792 
Si 6.9830516675 4.0205799857 9.5666725924 
Si 8.4993567329 2.7072801954 5.5922275653 
Si 6.9900632847 1.3550141788 6.8884232980 
Si 8.4900349920 0.0554470779 8.1628719539 
Si 9.7073406978 9.6183098885 1.2842504791 
Si 5.6678809145 8.2248153592 2.7487476567 
Si 9.7933872244 6.8680176019 4.1646617488 
Si 5.6760381922 5.4588477558 0.0540771873 
Si 6.9946579319 9.5518963100 4.0706726659 
Si 8.2979011717 8.1045509424 0.0609475496 
Si 7.0651342993 6.8904626173 1.3508600792 
Si 8.4085365366 5.4900358995 2.7585901334 
Si 9.8184339464 9.4488263873 6.8698221665 
Si 5.6752364546 8.1415008353 8.3127002740 
Si 9.8279432844 6.7729424751 9.7131681927 
Si 5.6877461961 5.4021135439 5.4243847227 
Si 7.0221432359 9.4983008484 9.6367265220 
Si 8.3683765432 8.2449866883 5.4948141199 
Si 6.9365831169 6.8164117060 6.8241531209 
Si 8.4248046055 5.4346403824 8.3459223760 

