&CONTROL
   calculation      = 'scf'
   tstress          = .true.
   tprnfor          = .true.
   outdir           = './'
   disk_io          = 'none'
   pseudo_dir       = '/home/ppiaggi/pseudos'
/
&SYSTEM
   ecutwfc          = 30
   occupations      = 'smearing'
   degauss          = 0.01
   smearing         = 'fermi-dirac'
   input_dft        = 'PBE'
   ntyp             = 1
   nat              = 64
   ibrav            = 0
/
&ELECTRONS
   electron_maxstep = 1000
   mixing_beta      = 0.5
/
&IONS
/
&CELL
/

ATOMIC_SPECIES
Si 28.085 Si_ONCV_PBE_sr.upf

K_POINTS gamma

CELL_PARAMETERS angstrom
11.01166978198167 0.00000000000000 0.00000000000000
0.00000000000000 11.17557679872704 0.00000000000000
0.00000000000000 0.00000000000000 11.22612292363901

ATOMIC_POSITIONS angstrom
Si 0.0542485205 0.0611944071 -0.0462178040 
Si 0.0002844449 2.8243843261 2.8599988583 
Si 2.7414953152 0.0615610400 2.7733077036 
Si 2.8368328211 2.8922209394 0.0610505056 
Si 1.4516829114 1.4877071981 1.3566217602 
Si 5.5282815955 0.0278010006 0.0742249683 
Si 5.5751696087 2.8240734102 2.8434275877 
Si 6.9806831360 1.3580831289 1.4097195279 
Si 8.3718507866 0.0973099696 2.7675106541 
Si 8.2999933661 2.9069848365 -0.0184556224 
Si -0.0161593063 5.5507675645 -0.0736658450 
Si 2.7996293911 5.6299113727 2.7685174560 
Si 1.3638468817 7.1601836233 1.3100230439 
Si 4.2298232440 4.2795870326 1.3567716217 
Si 5.5159449162 5.6931758378 -0.0850854313 
Si 6.8938027078 7.0378192654 1.3017138664 
Si 9.7490755379 4.1431987493 1.3660964398 
Si 8.3803929938 5.6317344143 2.7712716109 
Si -0.0948798259 8.5346390101 2.7652680586 
Si 2.6961861939 8.4678926517 -0.0984629215 
Si 4.1187800033 9.9229977723 1.4928472312 
Si 5.5438187385 8.5088775897 2.8372967980 
Si 8.3239958268 8.4954900787 -0.0643551930 
Si 9.7104567991 9.8366885640 1.4215089187 
Si 0.0320774525 -0.0305982062 5.5326632672 
Si 2.6882976996 2.8774435034 5.5800931414 
Si 1.3513958728 1.4183970197 7.0213009899 
Si 4.0986356216 1.3111768046 4.2534474707 
Si 5.5435069611 0.0530466568 5.6785962586 
Si 6.8946944822 1.5021853758 7.0531649468 
Si 9.6726469064 1.4042836291 4.1094368734 
Si 8.4002445115 2.7975742648 5.5759850911 
Si 1.3746682079 4.2375023037 4.1602642209 
Si -0.0224712955 5.7125971101 5.5545314125 
Si 1.2969166115 6.9924235784 7.0547428022 
Si 6.8986481801 4.2611927203 4.1301416502 
Si 4.1097494942 7.1469503841 4.1538563779 
Si 4.1240109714 4.2917371990 7.0223944250 
Si 5.6379181062 5.7324292759 5.5042017633 
Si 7.0078352611 6.9798511837 7.0504375508 
Si 9.7563460327 7.0004672412 4.1406230677 
Si 9.8256533348 4.2447548064 6.9189644860 
Si 1.3929745043 9.7798697560 4.2293227696 
Si 2.7114035076 8.4667006694 5.6875326422 
Si 6.9251354973 9.8792580080 4.1663556650 
Si 4.1078445752 9.8025327872 7.0836361865 
Si 8.4228583542 8.4621556792 5.6245558937 
Si 9.6630641486 9.8981508983 6.8974334843 
Si 0.0569232877 2.7676157163 8.3235632900 
Si 2.8530330437 -0.0719591660 8.3129143561 
Si 4.1201719768 1.3549365245 9.7491839983 
Si 5.6282411716 2.8482163732 8.3365588101 
Si 8.2762651111 -0.0035530737 8.2876304559 
Si 9.7184714319 1.3746676331 9.6979923911 
Si 1.3131090004 4.1907647035 9.8387208931 
Si 2.8607243857 5.7132594670 8.3969294650 
Si 6.8714340595 4.2711503908 9.7596464220 
Si 4.2549343554 6.9883941622 9.7968752490 
Si 8.3975778323 5.7068938464 8.3534053201 
Si 9.8253531563 7.1117835389 9.6971843609 
Si 0.0471349959 8.4313461579 8.4345437832 
Si 1.4934917388 9.8563731398 9.8597415428 
Si 5.6725358599 8.4115831354 8.4675403491 
Si 6.9060292492 9.9611818657 9.8787606787 

