&CONTROL
   calculation      = 'scf'
   tstress          = '.true.'
   tprnfor          = '.true.'
   outdir           = './'
   disk_io          = 'none'
   pseudo_dir       = './'
/
&SYSTEM
   ecutwfc          = 30
   input_dft        = 'PBE'
   ntyp             = 1
   nat              = 64
   ibrav            = 0
/
&ELECTRONS
   electron_maxstep = 1000
   mixing_beta      = 0.5
/
&IONS
/
&CELL
/

ATOMIC_SPECIES
Si 28.085 Si_ONCV_PBE-1.0.upf

K_POINTS gamma

CELL_PARAMETERS angstrom
10.93359516069111 0.00000000000000 0.00000000000000
0.00000000000000 10.95074234772490 0.00000000000000
0.00000000000000 0.00000000000000 11.15868649094968

ATOMIC_POSITIONS angstrom
Si 4.1127621500 4.2521731031 1.4697516793 
Si 0.0109654142 2.7351079335 2.8229977584 
Si 4.2681756701 1.4801966688 4.1654485490 
Si -0.0354537504 0.0825981471 0.0684454707 
Si 1.4037499288 4.2800665290 4.2571704483 
Si 2.7145217430 2.7119552446 0.0551004555 
Si 1.3834879210 1.3327368634 1.4986529039 
Si 2.7841269055 -0.0230600839 2.7893166786 
Si 4.2879217638 4.1143204248 6.8930598432 
Si 0.0969329020 2.8379696341 8.4365219373 
Si 4.2268787388 1.3811558281 9.7084273207 
Si -0.0654378749 0.1020450626 5.5292507878 
Si 1.3812722664 4.1787580032 9.7659737496 
Si 2.7744440094 2.8909616664 5.5606207827 
Si 1.4010285936 1.4694235480 7.0881219208 
Si 2.7040605683 0.0833491775 8.3236652198 
Si 4.1679721072 9.8074964168 1.3674344246 
Si -0.0882427866 8.5246464178 2.7969492991 
Si 4.2774890074 7.0083987919 4.1858263823 
Si 0.0735150942 5.6535179422 -0.0700115017 
Si 1.4223035024 9.8219546640 4.1707554568 
Si 2.9010142168 8.4495883351 -0.0455885952 
Si 1.4013270331 6.9317481101 1.4329497184 
Si 2.8361823241 5.6092287002 2.8671578347 
Si 4.1149252951 9.9295206870 6.9176299802 
Si 0.0526833405 8.5060914463 8.4559277270 
Si 4.1904257305 6.9916685805 9.6939136948 
Si -0.0949549627 5.5930454645 5.6150753547 
Si 1.3793861567 9.7336226063 9.6909145911 
Si 2.8413716610 8.4142360343 5.5541735945 
Si 1.4015155440 7.0880815737 6.9196550167 
Si 2.7534190865 5.5454891690 8.3179430816 
Si 9.7826310253 4.1931330499 1.4660119727 
Si 5.6497986885 2.8401857250 2.8929668973 
Si 9.8224145026 1.4984666659 4.1196825000 
Si 5.6736457584 -0.0380480909 0.0845401794 
Si 7.0425708157 4.3070171906 4.1126947732 
Si 8.3771409812 2.8251680200 -0.0147229324 
Si 7.0133505045 1.3734988428 1.4474713665 
Si 8.3961716497 0.0444367397 2.7101506334 
Si 9.7861729496 4.1567759521 7.0252707986 
Si 5.7034774480 2.7873943544 8.3272985998 
Si 9.8024420862 1.4868530407 9.6976415007 
Si 5.5712328709 0.0477850384 5.5656260848 
Si 6.9502903838 4.3129262910 9.7754457009 
Si 8.3688519494 2.8211283133 5.6055542760 
Si 7.0496961533 1.3295833622 7.0114948428 
Si 8.4822178348 0.0122673295 8.3022109831 
Si 9.7546779272 9.7547850090 1.4356639454 
Si 5.6931927477 8.5186504810 2.7165935675 
Si 9.7833685786 6.9265730425 4.2125812012 
Si 5.6727729008 5.6381497229 -0.0515548636 
Si 6.9132116126 9.8768942142 4.2153804812 
Si 8.4571710690 8.3274660159 0.0663333958 
Si 6.9146710310 7.0790506466 1.4251088285 
Si 8.4365665421 5.6037724370 2.8795815561 
Si 9.9060873775 9.7786090346 6.9378136896 
Si 5.6091224316 8.4099366711 8.3458945943 
Si 9.8439090567 7.0695008543 9.7775964949 
Si 5.6012889842 5.5269746606 5.5900928207 
Si 6.9631788460 9.8017143882 9.8363129897 
Si 8.4075799133 8.5018729062 5.5793398516 
Si 6.9907950163 7.1174019542 6.9914062760 
Si 8.3809991728 5.6315486719 8.4779424791 

