&CONTROL
   calculation      = 'scf'
   tstress          = .true.
   tprnfor          = .true.
   outdir           = './'
   disk_io          = 'none'
   pseudo_dir       = '/home/ppiaggi/pseudos'
/
&SYSTEM
   ecutwfc          = 30
   occupations      = 'smearing'
   degauss          = 0.01
   smearing         = 'fermi-dirac'
   input_dft        = 'PBE'
   ntyp             = 1
   nat              = 64
   ibrav            = 0
/
&ELECTRONS
   electron_maxstep = 1000
   mixing_beta      = 0.5
/
&IONS
/
&CELL
/

ATOMIC_SPECIES
Si 28.085 Si_ONCV_PBE_sr.upf

K_POINTS gamma

CELL_PARAMETERS angstrom
11.27166613581654 0.00000000000000 0.00000000000000
0.00000000000000 10.66551273945795 0.00000000000000
0.00000000000000 0.00000000000000 10.86537863004144

ATOMIC_POSITIONS angstrom
Si 0.0963768966 0.0581438267 -0.0557785819 
Si -0.0758800213 2.5724497673 2.7893770132 
Si 2.7093663782 0.0021218112 2.7160097525 
Si 2.7130153536 2.7195761634 0.0501086835 
Si 1.4681069082 1.2804059254 1.4427365115 
Si 5.6528463965 0.0184423820 -0.0147223189 
Si 5.6279399777 2.5405874650 2.7451091066 
Si 7.0937860529 1.4090952489 1.3671071026 
Si 8.3647506464 -0.0676209907 2.6537144870 
Si 8.4985492491 2.6485288845 -0.0425715304 
Si -0.0872986847 5.3303621749 -0.0171855094 
Si 2.7107598849 5.3348741969 2.6875412727 
Si 1.3036675318 6.5618481535 1.4155090136 
Si 4.1457183622 3.9238154628 1.3557776335 
Si 5.5052235914 5.2088145644 0.0794573179 
Si 7.0950985255 6.6629574779 1.4184038315 
Si 9.8667216706 4.0177717167 1.3659132655 
Si 8.4695182685 5.2243215612 2.7044339175 
Si 0.0091029294 7.9604008473 2.7796033939 
Si 2.8416564003 7.8240849539 0.0541376839 
Si 4.1282371594 9.1431646127 1.2924392049 
Si 5.6540577452 7.8839962249 2.7933573748 
Si 8.4968370748 7.8034953967 -0.0679842828 
Si 9.7789412293 9.2152688672 1.3657609909 
Si 0.0922441592 0.0123924585 5.4615381505 
Si 2.7956275207 2.6052635494 5.3597308697 
Si 1.4362863695 1.3888899885 6.8581732042 
Si 4.1654664111 1.3732160007 4.0015617309 
Si 5.5508585853 0.0808329662 5.3761350627 
Si 6.8976547295 1.2199558470 6.8145749414 
Si 9.7109401810 1.2507069955 4.0674816135 
Si 8.4273169715 2.5853683549 5.5071774625 
Si 1.3808554481 3.8990881985 4.0056713125 
Si 0.0282947690 5.1952996370 5.5086660965 
Si 1.4999765394 6.5157905785 6.8255753478 
Si 7.0716223092 3.9447759187 4.0945030281 
Si 4.2209514601 6.5019032646 4.0977818954 
Si 4.1679781010 3.9419882308 6.8207124417 
Si 5.5711973156 5.2721074840 5.4165768000 
Si 7.0915392714 6.5759031680 6.7063752268 
Si 9.7408001759 6.6216323949 4.1055869851 
Si 9.8800191270 3.8658075323 6.8352160013 
Si 1.4639170939 9.2593415549 4.0950524779 
Si 2.8372403664 7.8134277653 5.4685574920 
Si 6.9974370572 9.1623069646 4.1166703539 
Si 4.1267192208 9.2426836418 6.8700451649 
Si 8.4493093381 7.8809563289 5.4611460102 
Si 9.8003534429 9.1142555141 6.6871353276 
Si -0.0814631251 2.6042113449 8.2093151156 
Si 2.7607954472 0.0756019548 8.1528148414 
Si 4.1995251752 1.3580900574 9.5010018285 
Si 5.6293142250 2.6783022551 8.1480581769 
Si 8.3113322617 -0.0864339902 8.0532103987 
Si 9.8470582162 1.2404004711 9.5676346833 
Si 1.3446602091 3.9980552068 9.4226786156 
Si 2.8992541844 5.3027995725 8.0644510975 
Si 6.9023987538 3.8782454524 9.4946296721 
Si 4.1354489245 6.5057135132 9.5546705296 
Si 8.3210248303 5.2393636448 8.1461367742 
Si 9.8323124555 6.5150848529 9.5528295885 
Si -0.0768258363 7.8497479820 8.0682551540 
Si 1.3395679870 9.2062426638 9.4177962781 
Si 5.6701586732 7.8359281128 8.2274257131 
Si 7.0055322150 9.2253461233 9.4363990177 

