&CONTROL
   calculation      = 'scf'
   tstress          = '.true.'
   tprnfor          = '.true.'
   outdir           = './'
   disk_io          = 'none'
   pseudo_dir       = './'
/
&SYSTEM
   ecutwfc          = 30
   input_dft        = 'PBE'
   ntyp             = 1
   nat              = 64
   ibrav            = 0
/
&ELECTRONS
   electron_maxstep = 1000
   mixing_beta      = 0.5
/
&IONS
/
&CELL
/

ATOMIC_SPECIES
Si 28.085 Si_ONCV_PBE-1.0.upf

K_POINTS gamma

CELL_PARAMETERS angstrom
11.22066614906679 0.00000000000000 0.00000000000000
0.00000000000000 10.99274631518646 0.00000000000000
0.00000000000000 0.00000000000000 10.84949323009694

ATOMIC_POSITIONS angstrom
Si 4.1010647863 4.1581925219 1.3004905570 
Si -0.0480056669 2.6402998099 2.6735921051 
Si 4.1033722124 1.3172568735 4.2309688429 
Si 0.1009446405 -0.0271872249 -0.0073500291 
Si 1.3232632696 4.0128837317 4.1647616425 
Si 2.8505867979 2.7843873761 -0.0310842934 
Si 1.3661263847 1.4045774595 1.3354005732 
Si 2.7890530002 -0.0841364523 2.7328283967 
Si 4.0783455489 4.1293419367 6.9188944145 
Si 0.0123015090 2.6410264518 8.2575922423 
Si 4.2485101287 1.4362133818 9.6663322073 
Si -0.0222779462 0.0581088452 5.5958462508 
Si 1.3554582841 4.1305555259 9.7037697051 
Si 2.8578337508 2.7608094344 5.5772145087 
Si 1.4454622765 1.4307144863 6.9613309865 
Si 2.7145462306 -0.0979459146 8.2199739583 
Si 4.1803182400 9.5923363510 1.3850942742 
Si -0.0806035153 8.0605512201 2.8413411082 
Si 4.1971735383 6.8947851834 4.1972358701 
Si -0.0407954244 5.5376790230 0.0652591574 
Si 1.3335753090 9.4249522439 4.2181052219 
Si 2.6836529152 8.0789561022 0.0048245261 
Si 1.3930252580 6.7715264544 1.4495481041 
Si 2.7829370985 5.4279110560 2.8383366761 
Si 4.1258789280 9.5653659530 6.8528208717 
Si 0.0368795461 8.1543920248 8.1965683995 
Si 4.1340392234 6.7287602678 9.6770742568 
Si -0.0410912316 5.5125616867 5.4943783341 
Si 1.3986771598 9.5209213169 9.7672545526 
Si 2.7359489738 8.1361675885 5.4310747849 
Si 1.3918965089 6.7978577817 6.9918138399 
Si 2.7845919850 5.3669524661 8.3859540396 
Si 9.7864275738 4.1619328575 1.3865482454 
Si 5.5042653817 2.8047020484 2.7391417932 
Si 9.7961608264 1.3708636617 4.1064482594 
Si 5.5071248492 -0.0557052290 -0.0749265209 
Si 6.9859603768 4.0537911770 4.0968152359 
Si 8.3328240609 2.7524243399 -0.0598751641 
Si 6.8580933114 1.2660034494 1.3527278750 
Si 8.2361798327 0.0091585200 2.6702830713 
Si 9.7726186877 4.1717717479 6.9992935463 
Si 5.4597466404 2.6808587349 8.2175502722 
Si 9.8160305019 1.2845249586 9.6299691074 
Si 5.5642272701 0.0060467002 5.5715167823 
Si 6.8566825311 4.0014422212 9.6062253809 
Si 8.3204260365 2.7655835992 5.5895225603 
Si 6.9563820086 1.4285769180 6.8107243914 
Si 8.3712361536 -0.0153889298 8.3122506956 
Si 9.6896194320 9.5756103765 1.3989710634 
Si 5.4854353135 8.1583280662 2.7853667463 
Si 9.7701981821 6.8480292207 4.2383883831 
Si 5.5935899141 5.4511400837 -0.0997780918 
Si 6.8462001032 9.5386861474 4.1989084402 
Si 8.3169551330 8.1148307777 0.0935752500 
Si 7.0379620370 6.7271862711 1.4199001044 
Si 8.3582806188 5.4420784296 2.8017181295 
Si 9.7331976267 9.4555065427 7.0072842754 
Si 5.5907399333 8.1840280718 8.2182554606 
Si 9.6710206955 6.8188978639 9.6113210520 
Si 5.4575654275 5.3684862699 5.4417776967 
Si 7.0274813579 9.4561676864 9.5771892511 
Si 8.2302859408 8.2160404494 5.5806361008 
Si 6.8999439668 6.8643832799 6.8506104809 
Si 8.4243893799 5.3458247501 8.2409236448 

