&CONTROL
   calculation      = 'scf'
   tstress          = .true.
   tprnfor          = .true.
   outdir           = './'
   disk_io          = 'none'
   pseudo_dir       = '/home/ppiaggi/pseudos'
/
&SYSTEM
   ecutwfc          = 30
   occupations      = 'smearing'
   degauss          = 0.01
   smearing         = 'fermi-dirac'
   input_dft        = 'PBE'
   ntyp             = 1
   nat              = 64
   ibrav            = 0
/
&ELECTRONS
   electron_maxstep = 1000
   mixing_beta      = 0.5
/
&IONS
/
&CELL
/

ATOMIC_SPECIES
Si 28.085 Si_ONCV_PBE_sr.upf

K_POINTS gamma

CELL_PARAMETERS angstrom
10.67295606159972 0.00000000000000 0.00000000000000
0.00000000000000 11.27160886953901 0.00000000000000
0.00000000000000 0.00000000000000 10.71710327239148

ATOMIC_POSITIONS angstrom
Si -0.0721625821 -0.0565080628 0.0133722923 
Si -0.0347939477 2.9379046491 2.6915118428 
Si 2.5544673846 0.0709221819 2.6123208967 
Si 2.7211214913 2.8005393330 0.0826447962 
Si 1.2365209724 1.3763260242 1.2136966887 
Si 5.2366520488 -0.0449327245 0.0223971193 
Si 5.3800161625 2.8414796006 2.5771308864 
Si 6.6753448511 1.4309087461 1.3142645626 
Si 7.8515257230 -0.0101021266 2.6419724300 
Si 7.9201105810 2.9598811512 0.0398824456 
Si -0.0952508706 5.8077690720 0.0745865771 
Si 2.6828620157 5.8367700041 2.6150065290 
Si 1.2574935343 7.2379093977 1.3764755727 
Si 4.0507253535 4.2391225589 1.3647140655 
Si 5.3149069247 5.8716944076 0.0289000618 
Si 6.5370274090 7.2227591932 1.2497999282 
Si 9.2882319145 4.2591381873 1.2783585651 
Si 7.8408539424 5.7509174534 2.5839276904 
Si 0.0765433267 8.7539577508 2.6880513557 
Si 2.5552399576 8.6003178859 0.0406441646 
Si 3.9162770263 10.1551136125 1.3834978056 
Si 5.2586060634 8.5653954959 2.6715729836 
Si 7.9533173743 8.6918655565 0.0557162778 
Si 9.2004480836 10.1460111020 1.3630905005 
Si -0.0236322342 -0.0942301976 5.1398004064 
Si 2.5868580007 2.9632472229 5.1301070048 
Si 1.3004922652 1.5138107105 6.5712838884 
Si 4.0043694602 1.3851718686 3.9346422182 
Si 5.2148494880 0.0868603705 5.2087910464 
Si 6.6340195958 1.4249285915 6.5195513577 
Si 9.2231426045 1.5090493783 3.8618744093 
Si 7.8439099572 2.9709875971 5.2541074695 
Si 1.2586373985 4.3061019371 3.8826660794 
Si 0.0843680801 5.6634743632 5.1106519670 
Si 1.3508414703 7.2432947063 6.4612335800 
Si 6.5879149089 4.3890246317 3.8684834099 
Si 3.9662957403 7.1179664073 3.8965395635 
Si 3.9266033270 4.2925507145 6.4929704175 
Si 5.2655362073 5.7037009176 5.1697419517 
Si 6.6323529433 7.2672535496 6.5914579940 
Si 9.3250926509 7.3078838063 3.9295796417 
Si 9.2674159246 4.3407512750 6.5815849737 
Si 1.4135740158 10.1842616871 3.9558807416 
Si 2.5728977109 8.7372972623 5.2520725674 
Si 6.5157111564 10.1549926901 3.8503030791 
Si 3.8752876649 10.1641355959 6.4132238283 
Si 7.9387306603 8.5817922448 5.1381509435 
Si 9.2224122229 9.9871581890 6.4723013460 
Si 0.0394752902 2.9317924567 7.9017229197 
Si 2.6962979461 -0.0827837415 7.7450051933 
Si 3.8862242558 1.5032604854 9.1121979293 
Si 5.2452405748 2.8278653341 7.8190416821 
Si 7.8918071796 -0.0012433455 7.7587492492 
Si 9.2766615221 1.3636960761 9.1531753246 
Si 1.2982081720 4.3696927921 9.1308628105 
Si 2.5599488153 5.7213375663 7.7715173423 
Si 6.5750558051 4.3175613127 9.0876958580 
Si 3.9648117203 7.1747868940 9.0190580318 
Si 8.0166736545 5.7940910174 7.7759649951 
Si 9.1731330335 7.2252628070 9.1890840432 
Si 0.0512294766 8.6065280081 7.8804866320 
Si 1.2413073297 10.1036788399 9.0874251771 
Si 5.2909212165 8.6232863042 7.7206046149 
Si 6.5917406654 10.0173924616 9.0819125001 

