&CONTROL
   calculation      = 'scf'
   tstress          = .true.
   tprnfor          = .true.
   outdir           = './'
   disk_io          = 'none'
   pseudo_dir       = '/home/ppiaggi/pseudos'
/
&SYSTEM
   ecutwfc          = 30
   occupations      = 'smearing'
   degauss          = 0.01
   smearing         = 'fermi-dirac'
   input_dft        = 'PBE'
   ntyp             = 1
   nat              = 64
   ibrav            = 0
/
&ELECTRONS
   electron_maxstep = 1000
   mixing_beta      = 0.5
/
&IONS
/
&CELL
/

ATOMIC_SPECIES
Si 28.085 Si_ONCV_PBE_sr.upf

K_POINTS gamma

CELL_PARAMETERS angstrom
10.82885904069705 0.00000000000000 0.00000000000000
0.00000000000000 10.77694774062876 0.00000000000000
0.00000000000000 0.00000000000000 11.19224273259129

ATOMIC_POSITIONS angstrom
Si -0.0305519155 -0.0246181325 -0.0422627846 
Si -0.0282331635 2.6496226991 2.7809309106 
Si 2.6895158346 0.0179503299 2.7562940488 
Si 2.6337023771 2.7124069348 0.0034273651 
Si 1.3661984833 1.3783564452 1.4416097439 
Si 5.3091044043 0.0173467502 -0.0157701923 
Si 5.3976257261 2.6631932517 2.7866171392 
Si 6.6786854974 1.3574193641 1.4022314309 
Si 8.0072624873 0.0344482603 2.8188783090 
Si 8.0778722143 2.6363148134 -0.0011129219 
Si 0.0013597974 5.3284047909 0.0158327349 
Si 2.6881703409 5.3116559428 2.7870916771 
Si 1.3104320050 6.7209267914 1.4211262833 
Si 4.0652483795 4.0468349910 1.4284410659 
Si 5.4054174926 5.3831205598 0.0496269019 
Si 6.6514804267 6.6577106352 1.4009358046 
Si 9.3906914664 4.0331319538 1.3564134332 
Si 8.0304250713 5.3614254193 2.8331914701 
Si 0.0075058306 7.9786233393 2.8092694513 
Si 2.6690257377 8.0071512418 -0.0459267996 
Si 3.9852348513 9.3710404521 1.4346611278 
Si 5.3855734295 8.0345629195 2.7449141038 
Si 8.0312745068 8.0518400572 -0.0356486088 
Si 9.4104358141 9.3772458306 1.4297300189 
Si -0.0144859672 0.0387553437 5.5855428345 
Si 2.7025704857 2.6358162106 5.5737409450 
Si 1.3667499340 1.2978575514 6.9468371430 
Si 4.0656168057 1.3186538953 4.1507034245 
Si 5.3864750723 -0.0445627532 5.5681200403 
Si 6.7011345541 1.3070676686 6.9780004453 
Si 9.4221283266 1.3303369856 4.1511558168 
Si 8.0422557891 2.6244910380 5.5958856897 
Si 1.3107432676 4.0242248285 4.1868068743 
Si -0.0104382538 5.3918900440 5.5271091556 
Si 1.3497420201 6.6692321116 6.9360510353 
Si 6.7025592343 4.0564129721 4.2193847521 
Si 4.0260287108 6.6691592072 4.1468307212 
Si 4.0120233755 3.9807001598 6.9672343500 
Si 5.3591803052 5.3717086852 5.5963048852 
Si 6.7154991621 6.7106916491 6.9232244953 
Si 9.4175955440 6.6452992233 4.1524779760 
Si 9.3474443974 3.9652359711 6.9923541556 
Si 1.3135946308 9.3796425545 4.2244454452 
Si 2.7047606333 8.0522620920 5.5779696581 
Si 6.7448349329 9.3921883021 4.1568806250 
Si 4.0555898293 9.3281302034 6.9787873850 
Si 7.9909891791 8.0295832381 5.5819372768 
Si 9.4051871484 9.3730407405 6.9387610896 
Si -0.0064906030 2.6446294390 8.3566964886 
Si 2.7204428460 0.0410513247 8.3397389988 
Si 4.0085766088 1.3023719643 9.7176563108 
Si 5.3724293881 2.7174204971 8.3380765442 
Si 8.0017314892 -0.0405237258 8.3155565672 
Si 9.3762020904 1.3124303442 9.7286593171 
Si 1.3762696288 3.9912336298 9.7216569878 
Si 2.6956223602 5.3258957951 8.3695279540 
Si 6.7038578395 4.0447505837 9.7798194005 
Si 3.9907801776 6.7207935845 9.7628159627 
Si 8.0108866008 5.3802768416 8.3375930208 
Si 9.4234376548 6.7020943076 9.7884498119 
Si 0.0119863866 8.0319991426 8.3529510385 
Si 1.3745929290 9.3323639922 9.7468816835 
Si 5.3709582603 8.0155279258 8.4126014616 
Si 6.7258285637 9.3565736992 9.7700960644 

