&CONTROL
   calculation      = 'scf'
   tstress          = .true.
   tprnfor          = .true.
   outdir           = './'
   disk_io          = 'none'
   pseudo_dir       = '/home/ppiaggi/pseudos'
/
&SYSTEM
   ecutwfc          = 30
   occupations      = 'smearing'
   degauss          = 0.01
   smearing         = 'fermi-dirac'
   input_dft        = 'PBE'
   ntyp             = 1
   nat              = 64
   ibrav            = 0
/
&ELECTRONS
   electron_maxstep = 1000
   mixing_beta      = 0.5
/
&IONS
/
&CELL
/

ATOMIC_SPECIES
Si 28.085 Si_ONCV_PBE_sr.upf

K_POINTS gamma

CELL_PARAMETERS angstrom
11.09514581675837 0.00000000000000 0.00000000000000
0.00000000000000 11.16779053558852 0.00000000000000
0.00000000000000 0.00000000000000 11.19227305245391

ATOMIC_POSITIONS angstrom
Si 0.0039325785 -0.0291080138 0.0455776630 
Si -0.0158871261 2.7795819880 2.7739240311 
Si 2.7782746748 -0.0443172884 2.7235619942 
Si 2.7453790600 2.7722773213 0.0389514041 
Si 1.3408059529 1.3780951427 1.4146329834 
Si 5.4715744500 -0.0497553010 0.0130587645 
Si 5.4637982181 2.7387100743 2.7552290405 
Si 6.8324378660 1.4027999880 1.3643542229 
Si 8.2478106669 -0.0306349022 2.7676612246 
Si 8.1960905351 2.7249383008 -0.0059958780 
Si 0.0018781137 5.5587901487 -0.0317318314 
Si 2.6981752003 5.4908501788 2.7020707615 
Si 1.4000981590 6.9352393535 1.3352074688 
Si 4.1343644893 4.0848731632 1.3837748182 
Si 5.5338794780 5.5197362352 -0.0338966565 
Si 6.8837947755 6.8657829589 1.4004088900 
Si 9.6350467784 4.0925496908 1.4222870277 
Si 8.2120940916 5.5142544402 2.7568887267 
Si 0.0154249654 8.2299461631 2.6988093598 
Si 2.7124289005 8.2725335789 -0.0491868422 
Si 4.1215331782 9.6139312107 1.3962875678 
Si 5.4502514122 8.2691572882 2.7089939487 
Si 8.1997662720 8.2948305998 -0.0157343521 
Si 9.6192597435 9.6929708642 1.3379696331 
Si 0.0076600757 -0.0107539385 5.5192428054 
Si 2.7078399728 2.7810636689 5.5032183364 
Si 1.3367829676 1.4022544873 6.8966306326 
Si 4.0691602150 1.3368837487 4.1287193168 
Si 5.4901995274 -0.0231812769 5.4958784361 
Si 6.8665479513 1.3869865253 6.8931636502 
Si 9.5507798739 1.4140813983 4.0726269969 
Si 8.2487978923 2.7672591030 5.4600017133 
Si 1.3223210533 4.1558844976 4.0858058710 
Si 0.0300241251 5.5133121296 5.4698817323 
Si 1.3316175097 6.8724985982 6.8480567565 
Si 6.8773513268 4.1235982607 4.1596858495 
Si 4.1405491210 6.8496616600 4.1380284069 
Si 4.0807399479 4.0993204561 6.8372745788 
Si 5.4523272755 5.5223415695 5.5371695699 
Si 6.8165227032 6.9303612219 6.8685695527 
Si 9.5535482920 6.9301595890 4.1226381777 
Si 9.5593212008 4.1168546464 6.9142841386 
Si 1.3935367664 9.6196133209 4.0752140314 
Si 2.7018258916 8.2938017254 5.5175318812 
Si 6.8212015072 9.6899462140 4.1592812074 
Si 4.0873879506 9.6726421653 6.9013522902 
Si 8.2680665730 8.2239560005 5.5346771954 
Si 9.6116289228 9.6708301738 6.8786789501 
Si 0.0207839593 2.7433976501 8.2658637752 
Si 2.7909043708 -0.0376131041 8.2089376665 
Si 4.0848789387 1.4131667468 9.5811550557 
Si 5.4728250462 2.7223644967 8.2590955307 
Si 8.2762250445 0.0258023870 8.2465081392 
Si 9.6244380798 1.3408615970 9.5872393489 
Si 1.3530718539 4.1485967836 9.5981148454 
Si 2.7571869228 5.4797249690 8.2642477520 
Si 6.8934815135 4.1431683903 9.5720871827 
Si 4.0937895286 6.9104268920 9.5888912622 
Si 8.2253600311 5.4968300729 8.2614153559 
Si 9.6247449133 6.8471740894 9.5681254572 
Si -0.0277636143 8.3046493173 8.2306030795 
Si 1.3848156003 9.5984569046 9.6250231317 
Si 5.4920617406 8.2876131070 8.2515862838 
Si 6.8198471603 9.6642145016 9.5917939212 

