&CONTROL
   calculation      = 'scf'
   tstress          = '.true.'
   tprnfor          = '.true.'
   outdir           = './'
   disk_io          = 'none'
   pseudo_dir       = './'
/
&SYSTEM
   ecutwfc          = 30
   input_dft        = 'PBE'
   ntyp             = 1
   nat              = 64
   ibrav            = 0
/
&ELECTRONS
   electron_maxstep = 1000
   mixing_beta      = 0.5
/
&IONS
/
&CELL
/

ATOMIC_SPECIES
Si 28.085 Si_ONCV_PBE-1.0.upf

K_POINTS gamma

CELL_PARAMETERS angstrom
11.06306206902821 0.00000000000000 0.00000000000000
0.00000000000000 11.02189294582381 0.00000000000000
0.00000000000000 0.00000000000000 10.84152466163409

ATOMIC_POSITIONS angstrom
Si 4.2004865169 4.0286544287 1.3960187823 
Si -0.0460609308 2.6980315754 2.7470169714 
Si 4.2696200807 1.3653033389 4.1142109990 
Si -0.0109436514 0.0389576049 -0.0176128207 
Si 1.3973521528 4.0222375008 4.0535177955 
Si 2.8515006664 2.7020456604 -0.0011979070 
Si 1.4236438533 1.3899887879 1.3576218488 
Si 2.7996919922 -0.0291218753 2.7391336055 
Si 4.2295062463 4.1177996218 6.8388372901 
Si 0.0404423036 2.7060917373 8.1910561563 
Si 4.2719477245 1.3843994623 9.5500678943 
Si -0.0002683596 -0.0209803069 5.4148861675 
Si 1.4232979531 4.0616418696 9.5137072286 
Si 2.8047709167 2.6785229246 5.4323880493 
Si 1.4418137652 1.4047989921 6.7936103349 
Si 2.7853912741 -0.0036353041 8.1557102082 
Si 4.2376756661 9.4701223616 1.3657637340 
Si 0.0171653762 8.0942196538 2.6870954107 
Si 4.2576210236 6.7897216881 4.1416764228 
Si 0.0030374465 5.3997020414 -0.0452063622 
Si 1.4184706835 9.5038615912 4.0897248611 
Si 2.7923873255 8.1181497291 -0.0482570763 
Si 1.3705310726 6.7791499851 1.3453448489 
Si 2.7998496099 5.3785010807 2.7139469922 
Si 4.1834120451 9.4556428892 6.8473705017 
Si 0.0413557619 8.0951069184 8.1888171947 
Si 4.2010571244 6.7739889037 9.5363128815 
Si -0.0357208879 5.4173419986 5.4998509103 
Si 1.3574141800 9.4522446016 9.5055520402 
Si 2.8359369607 8.0882842906 5.4583003148 
Si 1.3667524550 6.8015143388 6.8381603322 
Si 2.8366403170 5.4649720651 8.1454478444 
Si 9.8234609572 4.0864760288 1.4062363821 
Si 5.5939602991 2.7040540937 2.6933054916 
Si 9.8303646686 1.3815026178 4.0657268800 
Si 5.5816247220 -0.0364073742 0.0308010348 
Si 7.0631119899 4.1046184769 4.1184940813 
Si 8.3970357827 2.7229943471 0.0157994197 
Si 7.0095182018 1.3375465536 1.3175110149 
Si 8.4596726767 -0.0160995363 2.6876811721 
Si 9.8409409609 4.0241315665 6.8120716248 
Si 5.6277551479 2.7614517449 8.1652303466 
Si 9.8673141621 1.3858128974 9.5506834354 
Si 5.6612594748 -0.0203760445 5.4965082763 
Si 7.0223154408 4.0848757992 9.5207976837 
Si 8.4169676115 2.6914978878 5.4559350105 
Si 6.9982873832 1.3107653593 6.8365070822 
Si 8.4735342615 0.0030217730 8.2125546614 
Si 9.9044428087 9.4507266061 1.3829241539 
Si 5.6664958986 8.1393441078 2.6808230101 
Si 9.8886844439 6.7320186842 4.0913687893 
Si 5.5871441037 5.3908837463 -0.0413343037 
Si 7.0027093041 9.4747605425 4.0633125190 
Si 8.4949420702 8.1486507124 -0.0057752459 
Si 7.0468384387 6.8020283109 1.3615387018 
Si 8.4538430607 5.4465529998 2.7549457456 
Si 9.8432932400 9.4717062453 6.8704917271 
Si 5.6689049440 8.0962016999 8.1824915562 
Si 9.9024554569 6.8306065922 9.5299473292 
Si 5.6101332150 5.4507403603 5.4947375081 
Si 7.0409909154 9.5330983782 9.5322688206 
Si 8.4419144167 8.1549700763 5.4503007317 
Si 6.9950079205 6.7833459797 6.7991490493 
Si 8.4492045521 5.4028857568 8.2041673746 

