&CONTROL
   calculation      = 'scf'
   tstress          = .true.
   tprnfor          = .true.
   outdir           = './'
   disk_io          = 'none'
   pseudo_dir       = '/home/ppiaggi/pseudos'
/
&SYSTEM
   ecutwfc          = 30
   occupations      = 'smearing'
   degauss          = 0.01
   smearing         = 'fermi-dirac'
   input_dft        = 'PBE'
   ntyp             = 1
   nat              = 64
   ibrav            = 0
/
&ELECTRONS
   electron_maxstep = 1000
   mixing_beta      = 0.5
/
&IONS
/
&CELL
/

ATOMIC_SPECIES
Si 28.085 Si_ONCV_PBE_sr.upf

K_POINTS gamma

CELL_PARAMETERS angstrom
11.17291120079294 0.00000000000000 0.00000000000000
0.00000000000000 10.97420391678047 0.00000000000000
0.00000000000000 0.00000000000000 11.02832933924523

ATOMIC_POSITIONS angstrom
Si 0.0131880787 0.0050824391 0.0266713312 
Si 0.0141497097 2.7924826380 2.7464502153 
Si 2.7911172885 0.0447073591 2.8058741685 
Si 2.7323177207 2.7871741073 0.0436064359 
Si 1.3424884719 1.4333966472 1.3663019584 
Si 5.5864931099 0.0335132368 -0.0165351818 
Si 5.5476096320 2.8293918481 2.8159067325 
Si 6.9330793097 1.4335535191 1.3891424033 
Si 8.3511366966 0.0010662146 2.8214739542 
Si 8.3451985473 2.7924023724 0.0487581240 
Si -0.0041964229 5.5620438109 -0.0236247135 
Si 2.7835995471 5.6207349337 2.7636346500 
Si 1.3884520675 7.0152190619 1.3819626201 
Si 4.1820857100 4.1719040771 1.4201954166 
Si 5.5717577200 5.6235604297 -0.0355907762 
Si 6.9675420297 6.9560415198 1.3651829772 
Si 9.6893348112 4.1713222765 1.4175837515 
Si 8.2680815033 5.5358570854 2.7762122080 
Si 0.0480077373 8.3410372609 2.7528937677 
Si 2.7342964389 8.4129622380 0.0331016352 
Si 4.1846680313 9.7240567855 1.3407103435 
Si 5.5721592833 8.3651029638 2.7957969835 
Si 8.2803638428 8.3168110970 0.0310108899 
Si 9.6627829469 9.7514275241 1.3448364409 
Si 0.0043214682 -0.0210399672 5.5220405184 
Si 2.8136136295 2.7925443138 5.5277672571 
Si 1.4149796690 1.3538051657 6.9749908304 
Si 4.1492658870 1.4385356905 4.1493423603 
Si 5.5661109002 0.0392077674 5.5551674867 
Si 6.9538524748 1.4136282985 6.9608467381 
Si 9.7044560201 1.3919107396 4.1750967046 
Si 8.3376636576 2.8350834410 5.5056407464 
Si 1.4118197729 4.1392448599 4.1527461882 
Si -0.0076848615 5.5552336158 5.5655899069 
Si 1.3858304944 6.9925251638 6.9461160162 
Si 6.8869865351 4.1813071355 4.1187573761 
Si 4.2029574751 7.0089088706 4.1708124813 
Si 4.1517236253 4.1370437441 6.9004246273 
Si 5.5408460849 5.5255497983 5.5065343186 
Si 6.9518996742 6.9445995085 6.8982202091 
Si 9.7224011469 7.0133665955 4.1530568747 
Si 9.6699879810 4.1822263310 6.9538011349 
Si 1.4175943504 9.7777501283 4.1782219958 
Si 2.7586004411 8.3970336566 5.5412250119 
Si 6.9356332083 9.7457683330 4.1749153224 
Si 4.1287700277 9.7098123764 6.9459830736 
Si 8.3538823201 8.3604358185 5.5484588801 
Si 9.7383451420 9.7486688391 6.9168038767 
Si -0.0344332422 2.8180143005 8.3079833802 
Si 2.8207055945 -0.0301219297 8.3272962034 
Si 4.1514720273 1.4078597304 9.7324068204 
Si 5.5855852394 2.8199350597 8.2675702949 
Si 8.3196095241 -0.0321523365 8.3006558271 
Si 9.6989424040 1.4389454219 9.7330502715 
Si 1.4226317891 4.1653313413 9.6577003078 
Si 2.7377467551 5.5856015558 8.2912380991 
Si 6.9434114828 4.2284562417 9.7446540361 
Si 4.1871995316 6.9960667616 9.6944940749 
Si 8.3510308410 5.5422865801 8.2687860913 
Si 9.7236066105 6.9918424983 9.6603015459 
Si 0.0492481884 8.3470658544 8.2768234054 
Si 1.3786317707 9.7831250333 9.6654018305 
Si 5.5888872526 8.3970303691 8.3054487505 
Si 6.9288000587 9.7110427330 9.7490094134 

