&CONTROL
   calculation      = 'scf'
   tstress          = '.true.'
   tprnfor          = '.true.'
   outdir           = './'
   disk_io          = 'none'
   pseudo_dir       = './'
/
&SYSTEM
   ecutwfc          = 30
   input_dft        = 'PBE'
   ntyp             = 1
   nat              = 64
   ibrav            = 0
/
&ELECTRONS
   electron_maxstep = 1000
   mixing_beta      = 0.5
/
&IONS
/
&CELL
/

ATOMIC_SPECIES
Si 28.085 Si_ONCV_PBE-1.0.upf

K_POINTS gamma

CELL_PARAMETERS angstrom
10.80923679908641 0.00000000000000 0.00000000000000
0.00000000000000 11.05589939390789 0.00000000000000
0.00000000000000 0.00000000000000 10.90502167034127

ATOMIC_POSITIONS angstrom
Si 4.0963175857 4.0716976971 1.3890954416 
Si -0.0313030062 2.7717541230 2.7312741019 
Si 4.0751311951 1.3475275657 4.0750836928 
Si -0.0028755060 0.0117424204 -0.0020995178 
Si 1.3838071476 4.1226761563 4.0669632730 
Si 2.7412478653 2.7164386347 -0.0347635227 
Si 1.3385153260 1.3937527204 1.3442334708 
Si 2.6663064483 -0.0383194300 2.6623343432 
Si 4.0978768002 4.0793289679 6.7374605072 
Si 0.0282383349 2.7482189746 8.1504993828 
Si 4.0499118232 1.3991345325 9.4466061575 
Si 0.0028433401 0.0047055901 5.4077751421 
Si 1.3241180895 4.1196584847 9.5165701061 
Si 2.7105452950 2.7567667397 5.4300797289 
Si 1.3766164908 1.3645100203 6.7460118262 
Si 2.6851024429 -0.0299547914 8.1449690269 
Si 4.0460961461 9.6089000751 1.3643037389 
Si -0.0026075312 8.1674101237 2.7423417783 
Si 4.0666756030 6.8614525399 4.0393809603 
Si -0.0078054679 5.5062109746 -0.0248639237 
Si 1.3973329543 9.5620318188 4.0118622455 
Si 2.6946443279 8.2118904981 0.0400681766 
Si 1.3648094815 6.8747264203 1.4006336911 
Si 2.7075919283 5.4627606469 2.6832083485 
Si 4.0433170130 9.5701622741 6.7919749562 
Si 0.0165501077 8.2195498675 8.1554143473 
Si 4.0716475517 6.8062246304 9.4507842940 
Si -0.0439846758 5.5041485733 5.4291897897 
Si 1.3893464870 9.6074324736 9.4298841472 
Si 2.7277185169 8.2255036714 5.4471784505 
Si 1.3207749316 6.8429583583 6.7831131479 
Si 2.6877298694 5.4315942569 8.0955081274 
Si 9.4809409764 4.1055116905 1.3903896334 
Si 5.3783634523 2.6892240508 2.6596323080 
Si 9.4864261479 1.4017606010 4.0955416005 
Si 5.3960670014 0.0223715456 -0.0304320855 
Si 6.7064134984 4.0767135235 4.1060264254 
Si 8.0646387738 2.7541899063 -0.0355378248 
Si 6.7967739954 1.4189523074 1.3541950369 
Si 8.1283690287 -0.0217016658 2.7233526248 
Si 9.4879809575 4.0995050454 6.7687744280 
Si 5.4004186822 2.7214970531 8.0850003127 
Si 9.4434981619 1.3908640820 9.4282757779 
Si 5.4369963743 0.0063494369 5.4461715501 
Si 6.7949823313 4.1088966707 9.4707469047 
Si 8.0930939447 2.6907868155 5.3708302329 
Si 6.7866993547 1.3416812221 6.7131256147 
Si 8.1420821260 -0.0009913315 8.1173407681 
Si 9.4184482846 9.5593636816 1.3130266512 
Si 5.4095282679 8.2321064664 2.7434699907 
Si 9.4547087847 6.8722077420 4.0645075604 
Si 5.3740228910 5.4923567119 0.0083328066 
Si 6.7809980773 9.5808263097 4.0502766929 
Si 8.0646346055 8.2386526076 0.0099549318 
Si 6.7562335908 6.8919375800 1.3555243486 
Si 8.1528294147 5.4885854992 2.7041826088 
Si 9.5031436659 9.5688077857 6.7653065929 
Si 5.3909570039 8.2103117719 8.0998094495 
Si 9.4299796744 6.8721268976 9.4744978127 
Si 5.3930135349 5.4408975890 5.3844783650 
Si 6.7790260654 9.5888597219 9.4612782403 
Si 8.0644734306 8.2261532396 5.4133024821 
Si 6.7677267999 6.8660521961 6.7192390999 
Si 8.1042500830 5.4375638257 8.1179247411 

