&CONTROL
   calculation      = 'scf'
   tstress          = .true.
   tprnfor          = .true.
   outdir           = './'
   disk_io          = 'none'
   pseudo_dir       = '/home/ppiaggi/pseudos'
/
&SYSTEM
   ecutwfc          = 30
   occupations      = 'smearing'
   degauss          = 0.01
   smearing         = 'fermi-dirac'
   input_dft        = 'PBE'
   ntyp             = 1
   nat              = 64
   ibrav            = 0
/
&ELECTRONS
   electron_maxstep = 1000
   mixing_beta      = 0.5
/
&IONS
/
&CELL
/

ATOMIC_SPECIES
Si 28.085 Si_ONCV_PBE_sr.upf

K_POINTS gamma

CELL_PARAMETERS angstrom
10.90856847912120 0.00000000000000 0.00000000000000
0.00000000000000 10.91738619356927 0.00000000000000
0.00000000000000 0.00000000000000 10.94402358368206

ATOMIC_POSITIONS angstrom
Si 0.0344815417 0.0129903302 -0.0135002416 
Si 0.0132592102 2.7907545478 2.7557828289 
Si 2.6395793811 0.0000271726 2.7651155224 
Si 2.6921327040 2.8003518653 0.0119666842 
Si 1.3715516144 1.4064962084 1.3882382779 
Si 5.3868787093 -0.0375513104 0.0483522660 
Si 5.3245220069 2.7533955339 2.7299418659 
Si 6.6554430225 1.3827835588 1.3670545280 
Si 8.0649226308 -0.0353950805 2.7940705618 
Si 8.0213003276 2.8273241707 0.0081166937 
Si -0.0036068174 5.5199071103 -0.0205770208 
Si 2.6566944061 5.5867882563 2.6986114812 
Si 1.2913909232 6.9915557168 1.3980208741 
Si 4.0557982087 4.1464307069 1.3293859539 
Si 5.3551656521 5.5607048998 0.0249828838 
Si 6.6759819748 6.9822592774 1.3815009867 
Si 9.3844774817 4.1501403795 1.4095769519 
Si 8.0102582725 5.5334577327 2.7429529126 
Si 0.0434917601 8.3626166487 2.7934418661 
Si 2.6860463388 8.3714927246 -0.0171907577 
Si 4.0040035174 9.7568627483 1.3492282808 
Si 5.3165128743 8.2989667836 2.7168257986 
Si 8.0818525683 8.3509465661 -0.0267519757 
Si 9.3576533983 9.7328407759 1.4124280009 
Si -0.0165570996 0.0330053518 5.4956066219 
Si 2.6574597967 2.7759316425 5.4504138095 
Si 1.3186898777 1.3616650232 6.8442940205 
Si 4.0241882166 1.3888302768 4.1261867657 
Si 5.3446111650 -0.0096036631 5.5012100403 
Si 6.6777936134 1.4240304303 6.8548239529 
Si 9.3469718486 1.4209910637 4.1043036273 
Si 7.9975675696 2.8272583876 5.5387432661 
Si 1.3651724171 4.1994543575 4.1365470632 
Si 0.0006066912 5.6114797898 5.5118954113 
Si 1.3048737741 6.9148538768 6.8955570696 
Si 6.6566938157 4.2084533298 4.1359980793 
Si 3.9940167906 6.9505497397 4.1137336134 
Si 4.0222207225 4.1647801423 6.8722735654 
Si 5.3832379680 5.5439843688 5.5070794819 
Si 6.6628655002 6.9965364295 6.8270209087 
Si 9.3652410227 6.9729815124 4.1274173864 
Si 9.3649680612 4.1812852444 6.8835975957 
Si 1.3071308123 9.6883834610 4.0744479011 
Si 2.6961695390 8.3335938785 5.4449574871 
Si 6.6830313234 9.7806210369 4.1503197517 
Si 4.0376486063 9.7363615338 6.9017412576 
Si 8.0841449402 8.3171693271 5.4840596280 
Si 9.3462415666 9.7781271761 6.8342027724 
Si 0.0128263383 2.7842160448 8.2025508509 
Si 2.7254934177 -0.0436056845 8.2006396382 
Si 4.0034087072 1.3884108476 9.6315062724 
Si 5.3339492829 2.8139444818 8.1990370071 
Si 8.0325242945 0.0093049492 8.2383081819 
Si 9.3600679982 1.3558447867 9.5746464545 
Si 1.3170243366 4.1453096249 9.6530668502 
Si 2.6358505193 5.5786778018 8.2251116367 
Si 6.7397295766 4.1319384828 9.6041415534 
Si 4.0281831131 6.9610877039 9.5573974260 
Si 8.0612576322 5.5282613986 8.1871783084 
Si 9.3866616535 6.9216052767 9.5965758896 
Si -0.0014924765 8.3316497824 8.2508076500 
Si 1.3201286197 9.7388315151 9.6186486214 
Si 5.3602482327 8.3645780290 8.1964086224 
Si 6.6747261987 9.7096386201 9.5835723535 

