&CONTROL
   calculation      = 'scf'
   tstress          = '.true.'
   tprnfor          = '.true.'
   outdir           = './'
   disk_io          = 'none'
   pseudo_dir       = './'
/
&SYSTEM
   ecutwfc          = 30
   input_dft        = 'PBE'
   ntyp             = 1
   nat              = 64
   ibrav            = 0
/
&ELECTRONS
   electron_maxstep = 1000
   mixing_beta      = 0.5
/
&IONS
/
&CELL
/

ATOMIC_SPECIES
Si 28.085 Si_ONCV_PBE-1.0.upf

K_POINTS gamma

CELL_PARAMETERS angstrom
10.95895565542948 0.00000000000000 0.00000000000000
0.00000000000000 10.94311199893036 0.00000000000000
0.00000000000000 0.00000000000000 11.13479091204747

ATOMIC_POSITIONS angstrom
Si 4.1560640254 4.0802784291 1.3518957907 
Si 0.0289904997 2.6485011471 2.8007546422 
Si 4.1837542806 1.3330859091 4.1120196533 
Si -0.0199257446 -0.0201542473 0.0072644567 
Si 1.3766433085 4.0352717872 4.1776659542 
Si 2.7530783683 2.7186165145 -0.0425301747 
Si 1.3852739821 1.3709326447 1.4314196926 
Si 2.7551908544 -0.0198799504 2.8015954681 
Si 4.1880377633 4.0288676009 6.8826437799 
Si 0.0005187581 2.7413549835 8.3176650256 
Si 4.1651782931 1.3086502864 9.7213949406 
Si 0.0105746719 -0.0082884335 5.5379446764 
Si 1.4241084827 4.0495728660 9.6593540908 
Si 2.7644682702 2.7395839225 5.5718801113 
Si 1.3982811056 1.2999864627 6.9680444196 
Si 2.7993705886 0.0403201091 8.2969160167 
Si 4.1903591299 9.4106914650 1.4163115612 
Si 0.0084030676 8.1132025901 2.7853075240 
Si 4.1481824149 6.7618074462 4.1363748035 
Si -0.0502082606 5.4189023949 -0.0241087663 
Si 1.4340236355 9.3926408798 4.1309383818 
Si 2.7537159781 8.1328903961 -0.0251319849 
Si 1.4146198447 6.7525765791 1.3400503303 
Si 2.8240349193 5.3767712317 2.8076680471 
Si 4.2083212037 9.4839467186 6.9496902049 
Si -0.0116896477 8.1234090132 8.3438175129 
Si 4.2082858000 6.7515740033 9.6608750858 
Si 0.0095121724 5.3878927145 5.5734205782 
Si 1.3796657186 9.4479505152 9.6687140496 
Si 2.7560122099 8.0868366626 5.5149671330 
Si 1.3467441711 6.7387628273 6.8949075172 
Si 2.7479933244 5.4163954685 8.2784762323 
Si 9.7470106850 4.0589033123 1.3729225892 
Si 5.6123633057 2.7185784540 2.7468181480 
Si 9.7377135653 1.3354594292 4.1652674724 
Si 5.5728080914 -0.0466862368 -0.0498222234 
Si 6.9920165721 4.0743845028 4.1994694294 
Si 8.3806341521 2.7132834015 -0.0465116088 
Si 6.9721346738 1.3056056223 1.3499366397 
Si 8.3711137436 -0.0394653564 2.7903081525 
Si 9.7371965460 4.0505452705 6.9251809981 
Si 5.6077689904 2.6847749582 8.3578302126 
Si 9.7428197435 1.3021008315 9.6979824538 
Si 5.6009906340 -0.0095408892 5.5294453922 
Si 6.9923942495 4.0512072353 9.7131424851 
Si 8.3551173184 2.7054980484 5.5853627669 
Si 6.9139712631 1.3583108514 6.9509653574 
Si 8.3968592560 -0.0412430548 8.3031628632 
Si 9.7712075736 9.4510228705 1.3799460086 
Si 5.5280217943 8.1039441263 2.7262878115 
Si 9.7582809771 6.7021328085 4.1292627864 
Si 5.5263011214 5.4408999557 -0.0298603370 
Si 6.9461589067 9.4215784094 4.1911606771 
Si 8.3043901562 8.1051543304 0.0092069541 
Si 6.9450926162 6.7194162557 1.3870265573 
Si 8.3495888763 5.3546922155 2.8062421524 
Si 9.7239933928 9.4201879571 6.9620874127 
Si 5.5776026009 8.1379388897 8.2877480770 
Si 9.7111431777 6.7535308503 9.6926403455 
Si 5.6155680988 5.3811443186 5.5495513599 
Si 6.9984919524 9.4601527077 9.7066629478 
Si 8.3098295987 8.1209926139 5.5575663387 
Si 6.9643219331 6.7092782745 6.8825576167 
Si 8.3142650580 5.3730967704 8.3140574012 

