&CONTROL
   calculation      = 'scf'
   tstress          = '.true.'
   tprnfor          = '.true.'
   outdir           = './'
   disk_io          = 'none'
   pseudo_dir       = './'
/
&SYSTEM
   ecutwfc          = 30
   input_dft        = 'PBE'
   ntyp             = 1
   nat              = 64
   ibrav            = 0
/
&ELECTRONS
   electron_maxstep = 1000
   mixing_beta      = 0.5
/
&IONS
/
&CELL
/

ATOMIC_SPECIES
Si 28.085 Si_ONCV_PBE-1.0.upf

K_POINTS gamma

CELL_PARAMETERS angstrom
11.00550061243476 0.00000000000000 0.00000000000000
0.00000000000000 10.94399100425615 0.00000000000000
0.00000000000000 0.00000000000000 10.74503163660988

ATOMIC_POSITIONS angstrom
Si 4.1057397393 4.0956840517 1.3018078853 
Si 0.0329400173 2.7415517453 2.7085570237 
Si 4.0927763190 1.3597815893 4.0362020426 
Si -0.0449436568 0.0377119028 -0.0034332810 
Si 1.4202710000 4.0835008466 4.0651269800 
Si 2.7441685164 2.7471122842 0.0438970855 
Si 1.3793499469 1.3736136249 1.3277167066 
Si 2.8105215881 0.0415356676 2.6677391221 
Si 4.1160188942 4.0144992759 6.7131280507 
Si -0.0181185598 2.6960911278 8.0554616305 
Si 4.1296875818 1.3108244129 9.4526018665 
Si 0.0467708153 -0.0458184955 5.4262902128 
Si 1.3933220154 4.0442905407 9.4690296903 
Si 2.7658357557 2.6782943536 5.3521420471 
Si 1.4295928593 1.3689827696 6.7805463811 
Si 2.7285533735 0.0016595019 8.1309981898 
Si 4.1537221837 9.4884348054 1.3553108654 
Si 0.0186176566 8.0846608170 2.6556547263 
Si 4.1405002730 6.7227556606 4.0912386823 
Si 0.0291259508 5.3712566997 -0.0178789074 
Si 1.3800933495 9.4840210085 4.0028753805 
Si 2.7497831601 8.1160682647 0.0223972652 
Si 1.4111685492 6.7774643204 1.3598481276 
Si 2.7901345194 5.3902605487 2.7134623593 
Si 4.1290198995 9.4845361933 6.6980719975 
Si 0.0272784697 8.0802616571 8.1146708999 
Si 4.1664928974 6.7486507399 9.4104354389 
Si -0.0065049153 5.4002382409 5.3711949548 
Si 1.3678571781 9.4381734172 9.4022071746 
Si 2.7413719543 8.1519935729 5.3979676066 
Si 1.4271183148 6.7584494780 6.7804437088 
Si 2.7228570304 5.4363862916 8.1346634834 
Si 9.7101389838 4.0642975149 1.3326173009 
Si 5.4949734147 2.7330319719 2.7213044303 
Si 9.6645771591 1.3890797552 4.0320496565 
Si 5.4866291961 0.0099180621 -0.0445993355 
Si 6.8525349043 4.0904629799 3.9947753047 
Si 8.3259868148 2.7432317570 -0.0042633567 
Si 6.9455235105 1.3591977985 1.3488012467 
Si 8.2458364722 0.0036711073 2.7220196299 
Si 9.6788291291 4.0489334723 6.7432307814 
Si 5.5665996523 2.6886181003 8.1286640009 
Si 9.7069594093 1.3483211201 9.3912562458 
Si 5.5123126869 0.0170903815 5.3630302004 
Si 6.9058459174 4.0936565295 9.3874890603 
Si 8.2837109548 2.6676046970 5.3625461272 
Si 6.9218006066 1.3360191621 6.7311820381 
Si 8.2695719203 0.0285804555 8.0710114919 
Si 9.6331145425 9.4696481352 1.3353449319 
Si 5.4816417978 8.0927844105 2.6550943832 
Si 9.6508183643 6.7811809556 4.0730148932 
Si 5.4861718063 5.4420798506 -0.0086561990 
Si 6.9463918280 9.4600809441 4.0486944477 
Si 8.3301953482 8.1265257537 0.0450045258 
Si 6.8840713211 6.7629548696 1.3453878200 
Si 8.3199470615 5.3937204903 2.7256713464 
Si 9.6246713678 9.4658358721 6.7554197590 
Si 5.5112451154 8.0887358616 8.1053010770 
Si 9.6268202749 6.7304039906 9.4345838478 
Si 5.5536045142 5.3854804926 5.3943069258 
Si 6.8944301170 9.4557728309 9.4208080749 
Si 8.2488590313 8.0706540571 5.4270552739 
Si 6.8739654942 6.7876985650 6.7200503796 
Si 8.3117206302 5.4111514807 8.0515939546 

