&CONTROL
   calculation      = 'scf'
   tstress          = .true.
   tprnfor          = .true.
   outdir           = './'
   disk_io          = 'none'
   pseudo_dir       = '/home/ppiaggi/pseudos'
/
&SYSTEM
   ecutwfc          = 30
   occupations      = 'smearing'
   degauss          = 0.01
   smearing         = 'fermi-dirac'
   input_dft        = 'PBE'
   ntyp             = 1
   nat              = 64
   ibrav            = 0
/
&ELECTRONS
   electron_maxstep = 1000
   mixing_beta      = 0.5
/
&IONS
/
&CELL
/

ATOMIC_SPECIES
Si 28.085 Si_ONCV_PBE_sr.upf

K_POINTS gamma

CELL_PARAMETERS angstrom
10.93809066633928 0.00000000000000 0.00000000000000
0.00000000000000 10.82408056195301 0.00000000000000
0.00000000000000 0.00000000000000 11.12400250523762

ATOMIC_POSITIONS angstrom
Si -0.0073696202 0.0274832037 -0.0064040055 
Si -0.0189933743 2.6368192463 2.8484114775 
Si 2.8340638818 -0.0424212635 2.7811837614 
Si 2.7621506126 2.6714483323 0.0012953750 
Si 1.3872031556 1.3083778326 1.3884240369 
Si 5.5648931251 -0.0269602240 0.0235052281 
Si 5.5542337116 2.6524844258 2.7984176422 
Si 6.9853299434 1.3128296531 1.4269828885 
Si 8.4026807446 -0.0008181902 2.8064879014 
Si 8.3295100780 2.6671998730 0.0150432517 
Si 0.0135038049 5.3010957442 0.0336884110 
Si 2.7859483629 5.3673974697 2.8467181066 
Si 1.4287704766 6.6745636614 1.4165371791 
Si 4.1820120602 4.0318489499 1.4355740025 
Si 5.5910939246 5.3129843305 -0.0277998617 
Si 6.9297219533 6.6056772920 1.4183523004 
Si 9.7338603527 4.0368003027 1.4480980125 
Si 8.3561050680 5.3279954940 2.8156600556 
Si 0.0428494767 7.9773195251 2.7902097080 
Si 2.7769279914 7.9329720020 -0.0419843418 
Si 4.1769853974 9.3447436181 1.4151545263 
Si 5.5979350524 7.9906629828 2.8029819025 
Si 8.3961068873 7.9994904079 0.0075292182 
Si 9.7418560943 9.3558333060 1.3888349669 
Si 0.0405370788 -0.0200877223 5.6130761450 
Si 2.7560368805 2.7024236747 5.6102929893 
Si 1.4336173103 1.3277670189 6.9744677056 
Si 4.1926061856 1.3410630345 4.2288391520 
Si 5.5503827133 0.0077061572 5.5736763620 
Si 6.9844652017 1.3116835145 7.0362979490 
Si 9.7811778119 1.2914982618 4.2299033395 
Si 8.3955954824 2.6976804373 5.6337756052 
Si 1.4346172150 3.9577333901 4.1709917089 
Si -0.0391146096 5.3257731587 5.5939960654 
Si 1.3551145635 6.6414378208 6.9937743298 
Si 6.9981053700 4.0094378959 4.2136864047 
Si 4.1824902253 6.6737141044 4.1601232777 
Si 4.1597274545 3.9783813309 6.9848786194 
Si 5.5817085384 5.3403627629 5.5878909919 
Si 6.9398379762 6.6870235941 7.0323941220 
Si 9.7249164781 6.6426779213 4.1511906767 
Si 9.7739889673 3.9668383760 7.0428107082 
Si 1.3790035474 9.3460763003 4.1761455324 
Si 2.7674639763 7.9583701618 5.5615378934 
Si 6.9593697081 9.3463301886 4.2278797220 
Si 4.1390738077 9.2666780157 6.9638009767 
Si 8.3828521049 7.9884676684 5.6183361943 
Si 9.7314935003 9.3342032363 7.0099246944 
Si -0.0211678788 2.6194554372 8.4045248464 
Si 2.7787866527 -0.0293925275 8.3681528096 
Si 4.1875803777 1.3278698941 9.8443638100 
Si 5.5259868421 2.6501479063 8.3918267674 
Si 8.4149672076 0.0043346101 8.3974763072 
Si 9.7782598944 1.2953909517 9.7708923064 
Si 1.3989699942 4.0029721324 9.8335126582 
Si 2.7734534987 5.3454677117 8.3774827559 
Si 6.9636243880 3.9640200700 9.8196338877 
Si 4.1893956526 6.6612069632 9.7453642120 
Si 8.3963997675 5.3174519563 8.3962116253 
Si 9.7392529855 6.6957385014 9.7726470283 
Si -0.0340106422 7.9461717966 8.3925465627 
Si 1.3934906189 9.3471115777 9.7830507496 
Si 5.5725409643 8.0143123944 8.4005628879 
Si 6.9260070720 9.3013463670 9.7592217139 

