&CONTROL
   calculation      = 'scf'
   tstress          = '.true.'
   tprnfor          = '.true.'
   outdir           = './'
   disk_io          = 'none'
   pseudo_dir       = './'
/
&SYSTEM
   ecutwfc          = 30
   input_dft        = 'PBE'
   ntyp             = 1
   nat              = 64
   ibrav            = 0
/
&ELECTRONS
   electron_maxstep = 1000
   mixing_beta      = 0.5
/
&IONS
/
&CELL
/

ATOMIC_SPECIES
Si 28.085 Si_ONCV_PBE-1.0.upf

K_POINTS gamma

CELL_PARAMETERS angstrom
10.76544977977606 0.00000000000000 0.00000000000000
0.00000000000000 10.92525136285143 0.00000000000000
0.00000000000000 0.00000000000000 10.98866987381105

ATOMIC_POSITIONS angstrom
Si 3.9829149090 4.0779297052 1.3268939999 
Si -0.0468738793 2.6997841378 2.7543858720 
Si 4.0276337661 1.3354222101 4.1220971542 
Si -0.0402725160 -0.0302637364 0.0361863622 
Si 1.3110837723 4.0123320046 4.1306763199 
Si 2.7112819985 2.7023890955 0.0079239672 
Si 1.3820251571 1.3789290171 1.4217831197 
Si 2.6325364196 -0.0284420112 2.7888466359 
Si 4.0375416362 4.0932127648 6.8284184579 
Si 0.0486258092 2.6634981439 8.2549097773 
Si 4.0287014341 1.3308577190 9.6075227794 
Si -0.0054654967 0.0036819352 5.5326983270 
Si 1.3277174626 4.0532305329 9.5783416786 
Si 2.6822962483 2.7139752611 5.4615493864 
Si 1.3398992887 1.3049023054 6.8716020129 
Si 2.7062011886 0.0073052203 8.2484447892 
Si 3.9812353041 9.4977460168 1.3868195298 
Si 0.0453905602 8.1145436076 2.7791929586 
Si 4.0437466842 6.7928533228 4.1545022029 
Si 0.0206247405 5.3599762447 0.0202326095 
Si 1.3171071526 9.4517705406 4.0963415780 
Si 2.7195813248 8.1470280461 -0.0284195283 
Si 1.3525020567 6.7389885830 1.3843007148 
Si 2.6498294498 5.3812716719 2.7000503910 
Si 4.0488819981 9.4145013197 6.8524411479 
Si -0.0306770231 8.0605928222 8.2707962248 
Si 3.9848968690 6.7484816836 9.5829239023 
Si 0.0304321232 5.3795769587 5.4820370705 
Si 1.3014280199 9.4205621284 9.5954756754 
Si 2.6949925455 8.1495723157 5.4646110533 
Si 1.3595001250 6.7253011677 6.8689335024 
Si 2.7127141184 5.3726868606 8.2279723967 
Si 9.3781103949 4.0518817466 1.3855910025 
Si 5.3609416190 2.7512243024 2.7585527313 
Si 9.3656584121 1.3900647957 4.0967281829 
Si 5.3820610990 -0.0415686437 -0.0173543009 
Si 6.6943016992 4.0406835303 4.0846259329 
Si 8.0033522051 2.6753525078 -0.0159307080 
Si 6.7112313928 1.3730492775 1.4032806429 
Si 8.0271822578 -0.0091974360 2.7855793649 
Si 9.4171521177 4.0859555412 6.8606854979 
Si 5.3888137752 2.6586005564 8.2307934557 
Si 9.3480070240 1.3242057635 9.6027108167 
Si 5.3607091216 -0.0087231522 5.4548684157 
Si 6.6602478956 4.0262619633 9.5806111224 
Si 8.0167127206 2.7500613503 5.5256537570 
Si 6.7259534228 1.3795975855 6.8726829454 
Si 8.0819145442 -0.0391420352 8.2144436922 
Si 9.3924221389 9.4370166628 1.3492000002 
Si 5.3655186456 8.0998523333 2.7324471035 
Si 9.3473781531 6.7613533162 4.0736004516 
Si 5.3228396175 5.3918272602 0.0434574558 
Si 6.7359317688 9.4984847217 4.1015446514 
Si 8.0052282491 8.0944031518 0.0395992970 
Si 6.6735249272 6.7414924949 1.4044622900 
Si 8.0055010880 5.4370788949 2.7821652990 
Si 9.3703244334 9.4588843436 6.8246706150 
Si 5.3509889043 8.1050732245 8.2515359838 
Si 9.3376350107 6.7406706653 9.6487092523 
Si 5.3679931449 5.3855892645 5.4607026158 
Si 6.7281614882 9.5043435544 9.6586865023 
Si 8.0604172019 8.1109186533 5.5331151237 
Si 6.7219217670 6.8064955242 6.8799776438 
Si 8.0012692134 5.4468568209 8.2573955633 

