&CONTROL
   calculation      = 'scf'
   tstress          = '.true.'
   tprnfor          = '.true.'
   outdir           = './'
   disk_io          = 'none'
   pseudo_dir       = './'
/
&SYSTEM
   ecutwfc          = 30
   input_dft        = 'PBE'
   ntyp             = 1
   nat              = 64
   ibrav            = 0
/
&ELECTRONS
   electron_maxstep = 1000
   mixing_beta      = 0.5
/
&IONS
/
&CELL
/

ATOMIC_SPECIES
Si 28.085 Si_ONCV_PBE-1.0.upf

K_POINTS gamma

CELL_PARAMETERS angstrom
11.06124002889966 0.00000000000000 0.00000000000000
0.00000000000000 11.11889386525769 0.00000000000000
0.00000000000000 0.00000000000000 10.76119392585004

ATOMIC_POSITIONS angstrom
Si 4.0724904304 4.1961158980 1.2998415007 
Si 0.0286819997 2.7870482344 2.6726565244 
Si 4.0413686983 1.3611429163 4.0623688479 
Si 0.0189769342 -0.0015346334 -0.0233016663 
Si 1.3196474232 4.1903371170 4.0515612885 
Si 2.7352051087 2.8483765685 -0.0338748560 
Si 1.3655985759 1.4096091022 1.3272585410 
Si 2.6958974010 -0.0361028876 2.6583792755 
Si 4.1172264702 4.2214956818 6.7379505813 
Si -0.0284419208 2.7897528358 8.0699180845 
Si 4.0598029121 1.4574769352 9.3671668629 
Si -0.0477119353 -0.0332449326 5.4176476399 
Si 1.3264470312 4.2069973766 9.3888369974 
Si 2.7195507775 2.8009549858 5.4009188013 
Si 1.3537753546 1.4313757571 6.7070816038 
Si 2.6720717069 -0.0276452361 8.0521734160 
Si 4.1190777046 9.8757651123 1.3122401549 
Si 0.0373391169 8.4251818537 2.6796518383 
Si 4.0438656386 7.0354032825 4.0059882528 
Si -0.0385733201 5.6396624710 0.0055862126 
Si 1.3844330041 9.8828176491 4.0708200962 
Si 2.7261064694 8.4546595048 0.0337538847 
Si 1.4000768009 7.0859687955 1.3341822861 
Si 2.7028519745 5.6065798616 2.6784710777 
Si 4.0848319292 9.8470724844 6.6839357172 
Si -0.0048097553 8.4379234549 8.0417749598 
Si 4.0599408911 7.0526719319 9.3988139891 
Si -0.0180987804 5.6572145822 5.3579674708 
Si 1.3463655743 9.8628306665 9.3901613707 
Si 2.7129086632 8.5162054504 5.3402150540 
Si 1.4018433384 7.0971649414 6.6971331506 
Si 2.7384718300 5.6776796374 8.0955576390 
Si 9.4826245329 4.2090198191 1.3581652587 
Si 5.4885513602 2.8139252456 2.7248968063 
Si 9.5151883999 1.3610122301 4.0147273105 
Si 5.4756344131 -0.0031118802 0.0012699054 
Si 6.8260048823 4.2833159678 4.0468712533 
Si 8.1621232805 2.8012033613 -0.0338674015 
Si 6.7801700502 1.3853686274 1.3323454335 
Si 8.1789692533 0.0427779174 2.6881289903 
Si 9.5273954916 4.2390966697 6.7488077459 
Si 5.4305148948 2.7896162102 8.1020568319 
Si 9.5559903148 1.3666561150 9.4112129916 
Si 5.4698126760 0.0450398409 5.3539920322 
Si 6.8350613329 4.2362660864 9.4275873504 
Si 8.1532200269 2.8622328350 5.3733284041 
Si 6.8204775406 1.4474751911 6.6854019977 
Si 8.1468721643 0.0253222761 8.0639741115 
Si 9.5048585748 9.8511091802 1.3834660843 
Si 5.4650185780 8.4994654559 2.6893312951 
Si 9.5311971893 7.0556907723 4.0834098477 
Si 5.4908568422 5.6893570225 0.0060134823 
Si 6.8520202528 9.8670886458 4.0560216258 
Si 8.1673897075 8.4374000274 -0.0205454723 
Si 6.8317663266 7.0349861229 1.3264308105 
Si 8.1860629102 5.6913954628 2.6933597068 
Si 9.4890414374 9.8282456793 6.7017558727 
Si 5.3954898489 8.4386838127 8.1075483757 
Si 9.5689571548 7.0898272403 9.4527443347 
Si 5.4149544829 5.6337203172 5.4212210024 
Si 6.7858326584 9.9238452161 9.4409213843 
Si 8.1366816693 8.5052656388 5.3692126776 
Si 6.8116568820 7.1021773573 6.7574401973 
Si 8.1807801921 5.6829894145 8.0582290098 

