&CONTROL
   calculation      = 'scf'
   tstress          = .true.
   tprnfor          = .true.
   outdir           = './'
   disk_io          = 'none'
   pseudo_dir       = '/home/ppiaggi/pseudos'
/
&SYSTEM
   ecutwfc          = 30
   occupations      = 'smearing'
   degauss          = 0.01
   smearing         = 'fermi-dirac'
   input_dft        = 'PBE'
   ntyp             = 1
   nat              = 64
   ibrav            = 0
/
&ELECTRONS
   electron_maxstep = 1000
   mixing_beta      = 0.5
/
&IONS
/
&CELL
/

ATOMIC_SPECIES
Si 28.085 Si_ONCV_PBE_sr.upf

K_POINTS gamma

CELL_PARAMETERS angstrom
10.88189254335052 0.00000000000000 0.00000000000000
0.00000000000000 11.04099344493737 0.00000000000000
0.00000000000000 0.00000000000000 11.03282717040200

ATOMIC_POSITIONS angstrom
Si -0.0146137043 0.0029403289 0.0329653140 
Si 0.0373746283 2.8130418911 2.7007054464 
Si 2.6678243342 -0.0477396707 2.7666856336 
Si 2.6737109795 2.7766144504 -0.0437638956 
Si 1.3699873588 1.3733829505 1.3904345628 
Si 5.4513656817 0.0294904192 0.0296201020 
Si 5.3737113925 2.8204928474 2.7302844438 
Si 6.7684212590 1.3603937415 1.3532188758 
Si 8.1050555593 -0.0474874984 2.7792304127 
Si 8.1538274073 2.8134228757 0.0149347142 
Si -0.0268759658 5.5107883914 -0.0464274622 
Si 2.6899488177 5.5578843874 2.6997961945 
Si 1.3571882569 6.9519379504 1.4110757928 
Si 4.0415680436 4.1470530775 1.3887795579 
Si 5.4186916709 5.5801091966 0.0019299092 
Si 6.7911559061 6.9486964622 1.3994127163 
Si 9.5228397544 4.1806755854 1.4188430074 
Si 8.1399015843 5.5584045482 2.7945897595 
Si -0.0474064717 8.2890903351 2.7143751606 
Si 2.6640788354 8.3321726095 0.0122151603 
Si 4.0345820970 9.7132961076 1.3913468923 
Si 5.4346200962 8.2892014700 2.7961692590 
Si 8.1226748800 8.3843286696 -0.0101623615 
Si 9.4455646031 9.6843375630 1.3920642877 
Si 0.0461305223 0.0175748519 5.4600371367 
Si 2.7315328088 2.7783494303 5.5369258132 
Si 1.3503879278 1.4099918084 6.8635066460 
Si 4.0839017471 1.3726876570 4.1400198614 
Si 5.4081903319 -0.0413065642 5.5116005720 
Si 6.7869397191 1.4309208019 6.9166084077 
Si 9.4931508380 1.3701915535 4.1048745531 
Si 8.1474690285 2.7810393115 5.5088969397 
Si 1.3747462511 4.1439560879 4.1349637108 
Si 0.0233662333 5.5962234384 5.4826284694 
Si 1.3956002926 6.9565190048 6.8975515176 
Si 6.7948632093 4.2069532917 4.1561930303 
Si 4.0563180210 6.9400613377 4.0750017834 
Si 4.0405072245 4.1542030545 6.8806323912 
Si 5.3892169415 5.5152493114 5.5023815429 
Si 6.7489425052 6.9812749239 6.8643783657 
Si 9.4998446627 6.9895520652 4.0869283620 
Si 9.4908398555 4.1650335288 6.9115430765 
Si 1.3331042187 9.6951697082 4.1482658787 
Si 2.7277547597 8.3213581838 5.4523430397 
Si 6.7419198383 9.7430241627 4.1576123035 
Si 4.0512042655 9.7602418399 6.9202610672 
Si 8.1418871059 8.3020625000 5.4581852958 
Si 9.4626083627 9.6907687625 6.8645042810 
Si -0.0200334869 2.8191210058 8.2103282040 
Si 2.7386798964 -0.0155660967 8.2251164788 
Si 4.1081498624 1.4145810724 9.6531973660 
Si 5.4478529382 2.7840433856 8.2812170827 
Si 8.1223624016 0.0098631291 8.2356629228 
Si 9.4597587899 1.4311567637 9.6396728588 
Si 1.3179688623 4.1863900535 9.5754397503 
Si 2.6862027841 5.5518029960 8.2230483727 
Si 6.8113576425 4.2017506256 9.5891794619 
Si 4.0956096830 6.9516780109 9.6682072996 
Si 8.1346642949 5.5181648950 8.2500517875 
Si 9.5215236680 6.9258433164 9.6548513146 
Si -0.0267275433 8.3087445993 8.2150143309 
Si 1.3237064449 9.6727587745 9.5994523992 
Si 5.4523449396 8.3671323781 8.2130728263 
Si 6.7888321176 9.7580701941 9.6148891549 

