&CONTROL
   calculation      = 'scf'
   tstress          = .true.
   tprnfor          = .true.
   outdir           = './'
   disk_io          = 'none'
   pseudo_dir       = '/home/ppiaggi/pseudos'
/
&SYSTEM
   ecutwfc          = 30
   occupations      = 'smearing'
   degauss          = 0.01
   smearing         = 'fermi-dirac'
   input_dft        = 'PBE'
   ntyp             = 1
   nat              = 64
   ibrav            = 0
/
&ELECTRONS
   electron_maxstep = 1000
   mixing_beta      = 0.5
/
&IONS
/
&CELL
/

ATOMIC_SPECIES
Si 28.085 Si_ONCV_PBE_sr.upf

K_POINTS gamma

CELL_PARAMETERS angstrom
11.05103855141552 0.00000000000000 0.00000000000000
0.00000000000000 10.76919102025459 0.00000000000000
0.00000000000000 0.00000000000000 11.14427561335913

ATOMIC_POSITIONS angstrom
Si 0.0177805358 0.0144772172 0.0424386148 
Si -0.0004409181 2.6296873578 2.8584957513 
Si 2.8306120275 -0.0346820903 2.7717246654 
Si 2.7890653476 2.6741386822 -0.0504760606 
Si 1.4054858908 1.3438624216 1.3669716442 
Si 5.6481000244 0.0452087892 -0.0379985534 
Si 5.6093516671 2.6590548325 2.8190537234 
Si 7.0636814082 1.3196429712 1.3827546384 
Si 8.4629305144 -0.0169667312 2.7645878258 
Si 8.4515069710 2.6686261340 -0.0100018150 
Si 0.0294554618 5.3848198934 -0.0015743299 
Si 2.8501812813 5.3602044640 2.7952630749 
Si 1.3834872615 6.7047584355 1.3700262328 
Si 4.1787437826 3.9973182351 1.3662227647 
Si 5.6567196748 5.4004421383 -0.0483273658 
Si 7.0305619721 6.7111240495 1.4379670481 
Si 9.8347856050 3.9807835634 1.4002188786 
Si 8.4105246898 5.3550205271 2.7921471985 
Si -0.0169325612 8.0183124035 2.8545452060 
Si 2.8165520231 8.0129833416 -0.0129946292 
Si 4.2090534238 9.3869303686 1.3961234338 
Si 5.6244860831 7.9925496801 2.8201883545 
Si 8.3756872311 8.0650699365 0.0344984789 
Si 9.8363234150 9.3833482394 1.3791650887 
Si 0.0441353910 0.0110565184 5.6356971191 
Si 2.7997589304 2.7117691686 5.6526713603 
Si 1.3628309419 1.2949314997 7.0279789606 
Si 4.2496304533 1.3718861920 4.2626828306 
Si 5.6434964756 -0.0008162217 5.6254124979 
Si 7.0530156662 1.2926781159 7.0396991975 
Si 9.8629820947 1.3795155464 4.2644269158 
Si 8.3895253669 2.6892097337 5.5818241898 
Si 1.4059060748 4.0629790350 4.2007247340 
Si 0.0192159179 5.3120737375 5.6223509168 
Si 1.3617698865 6.7323795130 7.0376580572 
Si 7.0059787906 3.9831295659 4.2472904615 
Si 4.2235147817 6.7243469502 4.1708648084 
Si 4.2331390643 3.9720152116 7.0409488093 
Si 5.5654698497 5.3477206572 5.6639176249 
Si 7.0447938209 6.6943834872 7.0319599479 
Si 9.8142849431 6.7311963306 4.2313952556 
Si 9.8382171894 4.0251182297 7.0493239397 
Si 1.3787265842 9.3963073513 4.2269744761 
Si 2.8327598016 8.0489216995 5.6551650949 
Si 7.0164731313 9.3224249757 4.2062715096 
Si 4.2278001615 9.3814410666 6.9951213575 
Si 8.4057388105 8.0115751756 5.6172064182 
Si 9.7731793883 9.3317159880 7.0783744467 
Si 0.0175769026 2.6786535647 8.4147045345 
Si 2.7612341420 0.0083563524 8.4754328291 
Si 4.1853235967 1.3161872644 9.8363457853 
Si 5.5985303065 2.6437047511 8.4357467127 
Si 8.4271325928 -0.0318246684 8.4319057318 
Si 9.8557963895 1.3841981998 9.8725019991 
Si 1.4214131524 3.9913639313 9.8696160016 
Si 2.8004860622 5.3098500983 8.4245651179 
Si 6.9982488647 3.9690088381 9.8329510644 
Si 4.1974148638 6.6934788774 9.8771579448 
Si 8.3777764782 5.3535238724 8.4239033877 
Si 9.8609814593 6.7028981055 9.7994257456 
Si -0.0270056946 7.9869843830 8.4525424473 
Si 1.3867021927 9.3582945612 9.8425948786 
Si 5.6305320100 7.9940415119 8.4837169176 
Si 7.0377404412 9.3684193248 9.8477019963 

