&CONTROL
   calculation      = 'scf'
   tstress          = .true.
   tprnfor          = .true.
   outdir           = './'
   disk_io          = 'none'
   pseudo_dir       = '/home/ppiaggi/pseudos'
/
&SYSTEM
   ecutwfc          = 30
   occupations      = 'smearing'
   degauss          = 0.01
   smearing         = 'fermi-dirac'
   input_dft        = 'PBE'
   ntyp             = 1
   nat              = 64
   ibrav            = 0
/
&ELECTRONS
   electron_maxstep = 1000
   mixing_beta      = 0.5
/
&IONS
/
&CELL
/

ATOMIC_SPECIES
Si 28.085 Si_ONCV_PBE_sr.upf

K_POINTS gamma

CELL_PARAMETERS angstrom
11.00481606329988 0.00000000000000 0.00000000000000
0.00000000000000 10.80396516222929 0.00000000000000
0.00000000000000 0.00000000000000 11.02822290410550

ATOMIC_POSITIONS angstrom
Si 0.0279663761 0.0082270980 -0.0177561981 
Si -0.0472720872 2.7165793739 2.7655245420 
Si 2.7443241527 -0.0445828869 2.7840739511 
Si 2.7605994760 2.7478016966 -0.0055966629 
Si 1.4126708452 1.3443639272 1.4064383816 
Si 5.5608416907 0.0301956164 0.0349570439 
Si 5.5786801413 2.7583458452 2.7144474063 
Si 6.9906698927 1.3758556793 1.3314737953 
Si 8.3537401622 -0.0459610199 2.7894610546 
Si 8.2989033281 2.7438397262 -0.0003395471 
Si -0.0247520408 5.3893840546 0.0464451003 
Si 2.7935663006 5.4490669677 2.7582035024 
Si 1.4254922156 6.8149493678 1.3599862200 
Si 4.1696264676 4.0244266870 1.3971884026 
Si 5.5602572192 5.4525940200 -0.0384141423 
Si 6.9342458197 6.7442472751 1.3466418769 
Si 9.6981798808 4.0953445265 1.3852611864 
Si 8.3894469253 5.4562222982 2.7831066537 
Si 0.0324556274 8.1337718324 2.7569180845 
Si 2.7338986548 8.1328120085 0.0304318463 
Si 4.1574969448 9.5065397510 1.3724257258 
Si 5.5517919832 8.0816854161 2.7428703026 
Si 8.3812547358 8.1298052674 -0.0019779970 
Si 9.7713698838 9.5177330952 1.3961269316 
Si -0.0022996689 -0.0328662495 5.4671156721 
Si 2.7412065985 2.6831864508 5.4867803259 
Si 1.3430781623 1.3098326544 6.8883600761 
Si 4.1743440341 1.3364231932 4.1279265474 
Si 5.5638940991 0.0447646021 5.5479827064 
Si 6.9455137536 1.3157626576 6.8534665997 
Si 9.7254616446 1.3215182411 4.1738541016 
Si 8.3862358265 2.7277534498 5.4663144847 
Si 1.4131107017 4.0882710114 4.1758604889 
Si 0.0026381314 5.4620521036 5.4896581219 
Si 1.4294144157 6.7319299415 6.8447138767 
Si 6.9087024185 4.0897125336 4.0863612576 
Si 4.1272294310 6.8081413214 4.0821706135 
Si 4.2206285607 4.0410047345 6.8724088266 
Si 5.5992122950 5.4059139550 5.5367770225 
Si 6.9598650222 6.7386334669 6.9091419878 
Si 9.6885750374 6.8126837967 4.1767732208 
Si 9.7727850769 4.0536758897 6.9131179903 
Si 1.4256624627 9.4594541918 4.1093252331 
Si 2.7680822328 8.1639148680 5.4932584544 
Si 6.9990465043 9.5187102970 4.1042844528 
Si 4.1261856288 9.5302477006 6.8698484498 
Si 8.3617647624 8.1455147651 5.4898916646 
Si 9.7631900800 9.5100796153 6.8891774940 
Si -0.0277458932 2.6698751115 8.2412397466 
Si 2.7773710674 -0.0006131919 8.2700181586 
Si 4.1602172176 1.3415093457 9.6732100981 
Si 5.5971712848 2.7443602020 8.2925861492 
Si 8.3874404311 -0.0334476673 8.2895523852 
Si 9.6860735775 1.3790631649 9.6676437491 
Si 1.4269673387 4.0864003923 9.6198926493 
Si 2.8158700123 5.4647200884 8.2606319794 
Si 6.9486798626 4.0338511554 9.6398167244 
Si 4.1513905196 6.8170291386 9.6430330632 
Si 8.2989121804 5.4269507240 8.3068547129 
Si 9.7678939243 6.7666219782 9.6490079339 
Si 0.0172188395 8.1410420642 8.2729894800 
Si 1.3789781852 9.4422594296 9.6224568898 
Si 5.5262853751 8.1258872747 8.2354624753 
Si 6.9971544907 9.4980221270 9.6855837156 

