&CONTROL
   calculation      = 'scf'
   tstress          = '.true.'
   tprnfor          = '.true.'
   outdir           = './'
   disk_io          = 'none'
   pseudo_dir       = './'
/
&SYSTEM
   ecutwfc          = 30
   input_dft        = 'PBE'
   ntyp             = 1
   nat              = 64
   ibrav            = 0
/
&ELECTRONS
   electron_maxstep = 1000
   mixing_beta      = 0.5
/
&IONS
/
&CELL
/

ATOMIC_SPECIES
Si 28.085 Si_ONCV_PBE-1.0.upf

K_POINTS gamma

CELL_PARAMETERS angstrom
11.12780290238146 0.00000000000000 0.00000000000000
0.00000000000000 10.78452595506470 0.00000000000000
0.00000000000000 0.00000000000000 10.95174655127554

ATOMIC_POSITIONS angstrom
Si 4.2670479944 3.9405775427 1.3900750560 
Si -0.0254126957 2.6874878009 2.7043849533 
Si 4.2473831056 1.3696587978 4.0768107004 
Si 0.0383271415 0.0225285887 -0.0020784515 
Si 1.3908928339 3.9467145050 4.0685064527 
Si 2.8187379648 2.6778281778 -0.0209422551 
Si 1.3940467525 1.3187053644 1.3894875228 
Si 2.8014415307 0.0352249299 2.7360415555 
Si 4.2050227345 4.0329387050 6.8680122474 
Si -0.0355006132 2.6259767501 8.1804913003 
Si 4.2268276345 1.3240581551 9.5679596875 
Si 0.0412089988 0.0071255477 5.4910096871 
Si 1.4358256228 4.0294097304 9.5899991558 
Si 2.7887748569 2.6737197120 5.4463297457 
Si 1.4677916054 1.3343946113 6.8619357942 
Si 2.8128142788 0.0038416698 8.2541298467 
Si 4.2564870559 9.3070321803 1.3873074954 
Si 0.0025265789 7.9832447665 2.7789414140 
Si 4.2932836152 6.6488871303 4.1012420740 
Si 0.0135267685 5.3109522161 0.0413868690 
Si 1.4410657018 9.2528385329 4.0734731969 
Si 2.8430022138 8.0116363223 0.0148627725 
Si 1.3971565061 6.6511416525 1.3195875776 
Si 2.8088703214 5.3071327478 2.7594651731 
Si 4.2518987536 9.2856341035 6.8606750240 
Si -0.0284566160 7.9336564866 8.2024784931 
Si 4.2706829641 6.6237884325 9.5621718863 
Si -0.0361929050 5.3609824824 5.4745766993 
Si 1.4652610115 9.2587264124 9.5532227920 
Si 2.8023835824 7.9448269963 5.4366593560 
Si 1.4034105755 6.6297682845 6.8289758146 
Si 2.8049882501 5.3250953480 8.1732476887 
Si 9.9179807878 4.0064530956 1.3666351470 
Si 5.6762048395 2.6674068965 2.7546170524 
Si 9.9429808238 1.3329123346 4.1426542168 
Si 5.6433972316 0.0431171467 -0.0127426118 
Si 7.0694283382 3.9483773182 4.0813881126 
Si 8.5576200511 2.6663288801 -0.0329275625 
Si 7.1176531906 1.3089128444 1.3881317517 
Si 8.4856599219 -0.0196285365 2.7173969353 
Si 9.8818558562 3.9657770397 6.7949275929 
Si 5.6729371630 2.6787070665 8.1924810758 
Si 9.9236789229 1.3496139310 9.5367531619 
Si 5.7157680454 0.0035558714 5.4349858801 
Si 7.1153171320 4.0307473308 9.5653785441 
Si 8.4906671073 2.6603047307 5.4642997136 
Si 7.0824692824 1.2980469518 6.8864361651 
Si 8.4941340442 0.0438801206 8.2263246311 
Si 9.9270171685 9.2518866004 1.3419586797 
Si 5.7226381723 7.9716767119 2.7432305526 
Si 9.9179125700 6.6164864210 4.0856743825 
Si 5.6803853291 5.3267449132 0.0271712442 
Si 7.1154807853 9.2665204115 4.1282941335 
Si 8.5533438332 8.0115802369 -0.0016279293 
Si 7.0964446005 6.6727515189 1.3359088866 
Si 8.4750703817 5.3476388473 2.7461919234 
Si 9.9050395515 9.2944059253 6.8806416306 
Si 5.6438236153 7.9689127651 8.1959051627 
Si 9.9075015016 6.6447707428 9.5619708582 
Si 5.6848543878 5.3143355905 5.4773013670 
Si 7.1238919238 9.2886076417 9.6019205909 
Si 8.4899358779 8.0032252995 5.4695649901 
Si 7.1331402381 6.6531031167 6.8658129282 
Si 8.5172807508 5.3177002954 8.2407297011 

