&CONTROL
   calculation      = 'scf'
   tstress          = .true.
   tprnfor          = .true.
   outdir           = './'
   disk_io          = 'none'
   pseudo_dir       = '/home/ppiaggi/pseudos'
/
&SYSTEM
   ecutwfc          = 30
   occupations      = 'smearing'
   degauss          = 0.01
   smearing         = 'fermi-dirac'
   input_dft        = 'PBE'
   ntyp             = 1
   nat              = 64
   ibrav            = 0
/
&ELECTRONS
   electron_maxstep = 100
   mixing_beta      = 0.5
/
&IONS
/
&CELL
/

ATOMIC_SPECIES
Si 28.085 Si_ONCV_PBE_sr.upf

K_POINTS gamma

CELL_PARAMETERS angstrom
10.44900429358677 0.00000000000000 0.00000000000000
0.00000000000000 10.44900429358677 0.00000000000000
0.00000000000000 0.00000000000000 10.44900429358677

ATOMIC_POSITIONS angstrom
Si 10.0923902261 3.2930977442 2.8020049914 
Si 3.5853041492 0.6892737927 6.7223564633 
Si 7.3424630721 2.7598746061 10.1777899381 
Si 5.6465269812 9.4066011763 0.8230795621 
Si 1.9040593584 2.0087583814 10.2119163862 
Si 4.0554048524 10.4095802004 2.9812472110 
Si 2.4102927184 2.8633406466 3.9092755274 
Si 6.5067830557 1.3591437845 1.6727497503 
Si 5.5004812482 9.8561277900 8.2189255522 
Si 0.8264838477 9.7188905676 6.2581907945 
Si 2.7822981693 5.9005945206 3.3030242982 
Si 8.5532936896 5.9214193862 1.1719812196 
Si 8.1570883448 7.0995341713 7.8907536744 
Si 8.1067032461 3.3830636711 4.5500607157 
Si 1.4310433830 6.2509391856 8.3920446554 
Si 4.3798568847 5.7412890011 5.0874112105 
Si 5.2883769100 7.3206142041 9.4487524596 
Si 0.1554780492 0.7028700371 0.1200883165 
Si 6.6265390939 3.5621282577 6.2147333857 
Si 1.9621244753 5.0502232042 1.1981873223 
Si 6.5612014701 0.9782451861 6.2681695936 
Si 9.3281396030 9.8671305915 7.2911689100 
Si 0.2156287873 3.9324200719 5.3434013667 
Si 5.9387124883 7.0187633681 2.5873301982 
Si 8.9492691563 0.4415832807 1.8365796887 
Si 8.9785890624 5.8200535955 3.4029481263 
Si 7.0502671160 0.7835917300 3.9360249783 
Si 0.6688710669 1.0130320112 2.6114256021 
Si 5.2366020938 8.5538579359 4.5035104015 
Si 9.6201997220 7.8722902838 4.7203585876 
Si 5.3024830658 4.7730111203 9.5010392771 
Si 0.2044514874 6.7274764754 1.9653427686 
Si 1.7744917052 7.2427273261 10.4195589995 
Si 9.9244747271 9.1278321907 9.4012721841 
Si 6.4168066797 7.2848577114 6.2136048932 
Si 2.3554876909 8.3180239089 3.6563260314 
Si 3.5989505488 8.6403443444 9.1380931129 
Si 1.7721406792 7.4800451116 5.9432264581 
Si 4.1382654564 7.6308764886 6.9465920954 
Si 1.4606976572 1.6112155641 5.8465418214 
Si 8.1529923351 0.6631272493 9.4258273442 
Si 7.7085543865 9.1465672554 3.6992505411 
Si 3.1210235415 2.4347015924 1.6892487281 
Si 9.3313578963 3.5362669721 0.3497699697 
Si 0.7508455954 8.8301818544 1.1977798112 
Si 9.5637750988 1.5359827331 5.8207118828 
Si 4.5927971432 1.4010129447 4.5183166406 
Si 4.8962048809 3.7015911180 3.6197231694 
Si 4.4926747841 3.5480012039 7.4209768903 
Si 0.7441833103 6.3031633090 4.2490875960 
Si 2.3169204160 4.4662910482 6.3500897873 
Si 7.7955005512 2.1189326827 7.6739890803 
Si 7.7473828865 8.2920163373 1.5565986186 
Si 4.3365457619 1.8507798855 8.8145919400 
Si 3.9130894139 6.4700130096 1.0414271803 
Si 1.2437031850 3.9095367525 9.2203058787 
Si 7.5014969174 8.8458553608 9.3341582295 
Si 5.4985377334 3.5717204437 1.1314495319 
Si 1.8133933481 0.4200541522 8.3984916910 
Si 9.6786305540 3.3112372156 7.8457393639 
Si 3.1822024616 10.1936306287 0.4744642074 
Si 7.0592219127 4.6794716338 2.7371793687 
Si 9.2200133066 5.4215390208 9.3643140559 
Si 8.9657472361 5.6479271478 5.9345015395 

