&CONTROL
   calculation      = 'scf'
   tstress          = .true.
   tprnfor          = .true.
   outdir           = './'
   disk_io          = 'none'
   pseudo_dir       = '/home/ppiaggi/pseudos'
/
&SYSTEM
   ecutwfc          = 30
   occupations      = 'smearing'
   degauss          = 0.01
   smearing         = 'fermi-dirac'
   input_dft        = 'PBE'
   ntyp             = 1
   nat              = 64
   ibrav            = 0
/
&ELECTRONS
   electron_maxstep = 100
   mixing_beta      = 0.5
/
&IONS
/
&CELL
/

ATOMIC_SPECIES
Si 28.085 Si_ONCV_PBE_sr.upf

K_POINTS gamma

CELL_PARAMETERS angstrom
10.82294588358709 0.00000000000000 0.00000000000000
0.00000000000000 10.82294588358709 0.00000000000000
0.00000000000000 0.00000000000000 10.82294588358709

ATOMIC_POSITIONS angstrom
Si 0.8327250323 3.1541960565 5.8374424459 
Si 3.3906016635 9.0861877576 5.2736643719 
Si 7.0484759755 3.1610686272 9.3688073435 
Si 6.2814646237 1.3093924618 0.5010461151 
Si 3.7640798800 2.1021840708 10.3597129768 
Si 2.9508761952 10.6628853369 2.7470368324 
Si 3.1043239219 1.1942146717 6.2326856066 
Si 7.2735066663 2.7773951956 1.8685707839 
Si 5.7695284605 10.2207247058 7.9016920913 
Si 10.2183111889 1.3092625865 3.6732861870 
Si 1.8904114886 5.2799633264 4.6352945548 
Si 9.3493260409 7.2865050243 0.0792353280 
Si 8.4935990017 7.2727815290 8.7710127506 
Si 9.2731974396 3.8896368752 4.9266807268 
Si 4.3632706330 7.3262252357 8.7084777693 
Si 4.2560152393 5.7663248685 5.5177650933 
Si 6.2540284559 6.6654843895 10.5325121308 
Si 10.6898994098 0.0660494083 0.7992799650 
Si 6.1225513093 4.0358115823 5.2057287405 
Si 10.4779536606 3.9580054244 1.5663508430 
Si 6.8958724386 10.3442686330 5.6358434329 
Si 9.8853107899 9.2172319864 7.9848123157 
Si 10.2711812795 2.6455608918 7.6819862899 
Si 5.9900026911 8.7111077451 2.1422614394 
Si 9.0703213190 10.2290800200 2.2951571959 
Si 8.9063103971 6.0501890931 2.2137686428 
Si 6.6352559017 0.0939951204 2.3531357170 
Si 0.9951016894 2.0366186646 2.1625977547 
Si 4.9500258211 10.3007387447 4.1591931654 
Si 10.0997241708 8.4020477025 5.7220481969 
Si 5.1809658404 4.6164085142 10.2978814870 
Si 1.3535609040 7.0236697836 1.3969609170 
Si 2.9769811406 8.0661900458 10.3339002509 
Si 0.6542459964 7.3439640440 8.0695884508 
Si 7.5609316402 8.2331989237 6.2353264054 
Si 1.2350171777 7.6903307811 4.5695992733 
Si 3.2638649672 9.0006648393 7.7326917913 
Si 1.3664077407 10.0443864485 8.3907160781 
Si 6.2627842191 6.3714898876 6.3202107700 
Si 0.7454239040 0.1006582670 5.6124334010 
Si 9.9077251108 1.4805898198 9.7074140284 
Si 6.8399178083 7.2606922984 3.8175560556 
Si 2.7642669622 3.4987986535 3.1631682787 
Si 8.8351711738 3.1003735467 10.7531054138 
Si 0.6299106025 9.2052293394 2.8672364694 
Si 8.5729853097 1.0783680236 5.6260053751 
Si 4.5928794299 2.3404836932 4.1251874694 
Si 4.9136390770 4.8760726319 2.9766348064 
Si 5.2610339940 3.4478766931 7.2324768785 
Si 9.2754919041 5.9139714962 5.8880505408 
Si 3.5387353238 5.2347991732 7.8974386736 
Si 7.6045589350 2.6615247370 6.8586956195 
Si 7.6136285637 9.1920469913 0.3114042927 
Si 4.4370181862 1.3779774699 8.2181333831 
Si 4.3354448391 6.9800533116 1.1914439976 
Si 2.1094137986 4.5574451051 9.5415740286 
Si 7.9009885998 0.0673825788 9.4505963455 
Si 3.4118038145 4.3053570495 0.9986245583 
Si 1.7504707984 9.7014938770 0.8659276657 
Si 0.9733670495 5.4843763053 6.6832773126 
Si 4.0279324777 0.2205705548 0.7074461869 
Si 7.3768225077 4.9684031832 3.5304449472 
Si 0.3584408155 5.4899501224 10.5877524466 
Si 7.8771131812 4.9882308201 7.7119766729 

