&CONTROL
   calculation      = 'scf'
   tstress          = .true.
   tprnfor          = .true.
   outdir           = './'
   disk_io          = 'none'
   pseudo_dir       = '/home/ppiaggi/pseudos'
/
&SYSTEM
   ecutwfc          = 30
   occupations      = 'smearing'
   degauss          = 0.01
   smearing         = 'fermi-dirac'
   input_dft        = 'PBE'
   ntyp             = 1
   nat              = 64
   ibrav            = 0
/
&ELECTRONS
   electron_maxstep = 100
   mixing_beta      = 0.5
/
&IONS
/
&CELL
/

ATOMIC_SPECIES
Si 28.085 Si_ONCV_PBE_sr.upf

K_POINTS gamma

CELL_PARAMETERS angstrom
10.50826454776229 0.00000000000000 0.00000000000000
0.00000000000000 10.50826454776229 0.00000000000000
0.00000000000000 0.00000000000000 10.50826454776229

ATOMIC_POSITIONS angstrom
Si 0.4688461885 3.0505702147 4.5605237641 
Si 4.4127040067 2.8495786387 4.8309329357 
Si 7.9693837669 1.9646461564 1.6881421913 
Si 4.2446348236 8.6398951112 2.4731305696 
Si 0.9921777287 1.7569397993 8.6274218012 
Si 1.4818754665 0.2543000021 1.2419192456 
Si 1.8425821554 4.8330766217 2.9772855778 
Si 4.7536341417 0.8241358670 0.5225276579 
Si 9.1731790287 7.1608884009 9.3430976664 
Si 2.0765066325 2.2589406133 6.6524355125 
Si 3.7545083485 6.2545085506 1.7147491172 
Si 1.7832209690 6.6993549137 0.6762929914 
Si 6.9480119777 4.3397871591 5.6456071613 
Si 6.4546174323 1.4694231730 5.8005410138 
Si 2.4618341852 8.8963913405 6.2388092033 
Si 5.1990164263 7.5452386850 4.7012504430 
Si 4.2434473897 5.0756494005 10.2145270289 
Si 9.0136845894 2.6738174059 7.9475055601 
Si 5.7423567530 3.2716325760 0.6357142770 
Si 1.7687826135 6.1571179547 8.8388480839 
Si 2.7983088160 0.6948558407 9.9006136420 
Si 0.0933949333 9.2261301738 7.0519807471 
Si 2.2394687991 4.2272751705 5.3588786549 
Si 6.9036881178 8.0089053499 1.3951717757 
Si 6.7587055918 0.1142311406 2.6512771785 
Si 9.9123408653 7.2382922775 4.0356464582 
Si 7.3781152456 9.0410796351 6.1569918556 
Si 10.4788729318 9.8799964270 3.8673040602 
Si 7.5487484453 8.1851604711 3.7234984599 
Si 8.0235223459 6.7584639017 5.8009823609 
Si 7.5137559244 5.9158902338 0.1544157951 
Si 10.1936681237 5.8841762914 1.6734306210 
Si 1.8132430808 8.3402624559 9.3274928936 
Si 1.7099363320 6.7483549513 6.7182697898 
Si 4.8131739687 8.0167865483 7.0214647468 
Si 4.4925458008 0.4225436224 3.3184363863 
Si 9.0157126845 10.4156026710 8.7715951907 
Si 3.2130910342 0.3880050585 5.2880424436 
Si 4.0820824793 6.9961608458 8.8885626834 
Si 2.1887979474 2.6515819181 1.7303538900 
Si 10.4345911050 9.2117023265 10.5015707832 
Si 7.3249644435 8.9231243655 9.8119659223 
Si 3.4314002302 2.9641712636 9.9510322953 
Si 9.8726616583 2.7022737863 0.0488626946 
Si 9.3182876538 8.6856586033 1.9065039286 
Si 8.1890695455 1.6684181788 4.4142487216 
Si 6.5748529953 0.2496679590 7.7642519347 
Si 4.2374156458 4.0267144334 2.1796662656 
Si 5.2873383899 2.3599250356 7.6115353260 
Si 1.7770946507 7.0175346559 4.2024231249 
Si 4.7010612942 5.3454596011 5.4424718994 
Si 7.1114680327 1.1039352238 10.2210001198 
Si 9.8959059395 6.7692663977 7.1165225079 
Si 4.9035135190 8.8739877205 0.0572176055 
Si 2.0216429833 8.9485963988 3.0479746734 
Si 1.2221637082 4.4221719531 0.0004470478 
Si 6.7374053396 7.1054573054 7.9466543907 
Si 6.6403194834 4.8190270720 2.2707624109 
Si 9.8418409184 0.6171083438 5.3981375312 
Si 0.7320960795 4.1212572895 8.2328049426 
Si 10.3787606955 1.6410231331 2.1299096329 
Si 8.2573942816 3.7148816829 3.2489662494 
Si 6.1975327402 4.8483556384 8.4102369895 
Si 10.2697374508 4.8009738735 5.8634014524 

