&CONTROL
   calculation      = 'scf'
   tstress          = .true.
   tprnfor          = .true.
   outdir           = './'
   disk_io          = 'none'
   pseudo_dir       = '/home/ppiaggi/pseudos'
/
&SYSTEM
   ecutwfc          = 30
   occupations      = 'smearing'
   degauss          = 0.01
   smearing         = 'fermi-dirac'
   input_dft        = 'PBE'
   ntyp             = 1
   nat              = 64
   ibrav            = 0
/
&ELECTRONS
   electron_maxstep = 100
   mixing_beta      = 0.5
/
&IONS
/
&CELL
/

ATOMIC_SPECIES
Si 28.085 Si_ONCV_PBE_sr.upf

K_POINTS gamma

CELL_PARAMETERS angstrom
10.53547522378143 0.00000000000000 0.00000000000000
0.00000000000000 10.53547522378143 0.00000000000000
0.00000000000000 0.00000000000000 10.53547522378143

ATOMIC_POSITIONS angstrom
Si 10.0708818374 3.2029214292 2.7739484845 
Si 3.6113501972 1.7807586997 6.9554786008 
Si 7.2899272618 2.0932935722 10.3750199361 
Si 5.9662501547 8.8009777958 0.6719146821 
Si 2.6156635048 1.8564139473 9.5675179021 
Si 4.4041341723 9.8667148630 1.8159787934 
Si 2.0930617918 3.2085157666 3.2509526608 
Si 6.2617491638 0.8060239068 1.5971359020 
Si 5.9731403555 10.4393074059 8.9448713164 
Si 1.3677470000 9.4785984912 5.5443886558 
Si 3.3586462885 5.5943478793 3.3704038788 
Si 9.0524701249 5.8033506368 0.7297628694 
Si 7.6617136470 6.8764625367 7.9210549051 
Si 8.5121793490 3.1469885912 4.3460837038 
Si 0.6779314920 6.3643541570 7.9618693361 
Si 4.6397390048 5.2219399011 5.2964151754 
Si 4.4727833289 7.5309683995 9.6750218913 
Si 10.5017195612 1.0469533684 10.2707924797 
Si 6.9941437949 4.0895764886 7.1481829782 
Si 2.4516050846 5.3733452155 1.1652867726 
Si 6.0206658842 0.5309605590 6.7606355221 
Si 9.2159174875 9.5512721993 7.1320110237 
Si 0.1903876263 4.4256054708 5.2414410657 
Si 6.4142817741 7.1736893637 2.4796399841 
Si 9.1775472867 10.1665334169 2.1818126350 
Si 8.5065323342 5.9361608375 3.8382948690 
Si 7.0142454816 1.2036148315 3.8934586173 
Si 0.9452649616 0.9481748598 3.1563967706 
Si 5.2771352558 7.9973633521 4.3314077869 
Si 9.7526051309 8.9850325479 5.1012033550 
Si 5.2112990711 4.7486547476 9.5178431364 
Si 0.2059105955 7.1658193637 1.9465660088 
Si 1.7368995163 6.9988952942 10.1355591198 
Si 9.9707210744 8.5924069928 9.4673149973 
Si 5.9447156433 6.9570694576 6.4306960445 
Si 2.4284586455 8.5389289205 3.6541769040 
Si 2.6454788996 9.2459435919 9.0225809816 
Si 2.3638129695 7.3298672484 6.3696113591 
Si 4.1994088178 8.3720259221 7.4126550127 
Si 1.3736152597 2.2589112427 5.5122975983 
Si 8.4130405271 10.5121602171 9.6646971256 
Si 7.7709559896 9.4808214765 3.8952496481 
Si 3.4484506793 2.8135934778 1.3635749518 
Si 9.7973492941 3.5360531558 0.5331508843 
Si 0.5410166701 9.3800391205 1.2808187939 
Si 9.5111425742 1.3710340682 6.0924967543 
Si 4.5988508254 1.5415612702 4.6551629405 
Si 4.3959902500 3.5949886042 3.5046995815 
Si 4.5834901025 4.2047397682 7.4669969939 
Si 1.0583727700 6.5331008636 4.0944754845 
Si 2.6684462356 5.1897961662 6.7380579986 
Si 8.0713856011 2.0012029833 7.7712720538 
Si 8.4501886127 8.1170358152 1.3039863039 
Si 5.0015588304 1.8210674279 9.5405576210 
Si 3.7562867299 7.3506748120 1.9006629432 
Si 1.1854832786 4.4501636636 9.8621530022 
Si 7.2287477572 8.1321331512 9.6472609141 
Si 5.6014487896 3.3488377611 0.8355032201 
Si 1.1937641621 0.3778822111 8.1964311565 
Si 0.2288684496 3.0220905325 7.5988484663 
Si 2.5524190470 0.1487946237 1.0461031556 
Si 6.4409259909 4.5227425524 2.9371956731 
Si 9.5385874872 5.5838545460 8.9025924543 
Si 8.5449130705 5.2269969292 6.0595523233 

