&CONTROL
   calculation      = 'scf'
   tstress          = .true.
   tprnfor          = .true.
   outdir           = './'
   disk_io          = 'none'
   pseudo_dir       = '/home/ppiaggi/pseudos'
/
&SYSTEM
   ecutwfc          = 30
   occupations      = 'smearing'
   degauss          = 0.01
   smearing         = 'fermi-dirac'
   input_dft        = 'PBE'
   ntyp             = 1
   nat              = 64
   ibrav            = 0
/
&ELECTRONS
   electron_maxstep = 100
   mixing_beta      = 0.5
/
&IONS
/
&CELL
/

ATOMIC_SPECIES
Si 28.085 Si_ONCV_PBE_sr.upf

K_POINTS gamma

CELL_PARAMETERS angstrom
10.55381796811334 0.00000000000000 0.00000000000000
0.00000000000000 10.55381796811334 0.00000000000000
0.00000000000000 0.00000000000000 10.55381796811334

ATOMIC_POSITIONS angstrom
Si 0.3514305291 2.5723559301 4.4598218431 
Si 4.2078705468 2.3529420545 5.3332136029 
Si 7.9826124042 1.7253803767 1.2987739468 
Si 4.4302817067 8.4679613849 2.4910915317 
Si 1.2964837683 1.7073861171 8.7178441329 
Si 1.3294011265 0.0616825279 1.0490315645 
Si 1.6733606079 5.2170899438 2.4152517958 
Si 5.2262189964 0.6077964875 1.5865343475 
Si 8.9893411002 7.7527291412 9.4756082630 
Si 1.7691892751 2.1254122930 6.3605539054 
Si 4.1524735563 6.0183041425 1.7351426583 
Si 1.8584323598 6.8719919241 0.7219307520 
Si 6.8358978667 4.4169944498 6.0249108325 
Si 6.6106477298 1.9280136817 5.7820358196 
Si 2.1275758256 8.8641517114 5.8275227751 
Si 4.7277199584 7.1492512760 4.4905017920 
Si 4.7136833806 4.8369308668 9.7794843438 
Si 8.8549276745 2.3633797805 8.2675549355 
Si 5.7098899200 3.0580004177 0.2592545384 
Si 2.4825218315 5.9524272107 8.8667268430 
Si 3.2601271394 10.5424409523 9.6752548375 
Si 0.2640533594 8.8638984198 7.3925801030 
Si 2.3102201994 4.6599116780 5.2710199536 
Si 7.1293256676 8.4439831105 1.3715847370 
Si 7.0919968135 0.1167167837 2.9667309999 
Si 9.9190163711 6.9860998040 3.9858393244 
Si 7.2133446125 10.2175416662 5.7246019423 
Si 0.0998877711 9.9148370592 3.8345081285 
Si 6.7076795322 8.4781247116 3.8889025063 
Si 7.9023506185 6.9295630011 5.7850436578 
Si 7.3362332689 6.3155524256 0.1314087537 
Si 9.7883495509 6.1355359525 1.6475881845 
Si 1.8487017397 8.5400967307 10.0539047186 
Si 1.4747377538 6.2903076930 6.8090911690 
Si 4.4170683266 8.0050076059 6.7894610676 
Si 4.5637347349 0.7619371097 3.6621537273 
Si 10.0704108899 0.2281682676 8.6225537105 
Si 3.3347215248 0.1517575701 5.4951724935 
Si 4.4003616327 7.6872638083 9.2310235316 
Si 2.3012705618 2.7509898530 2.3342723506 
Si 9.8971383065 9.5473531176 0.1777041316 
Si 7.2070017679 9.4157786690 8.9858477864 
Si 3.1930787339 2.5692847691 10.2917877756 
Si 9.7955683624 2.7275498233 0.2245029266 
Si 9.2836765295 8.5414476194 2.1707514950 
Si 8.7001242726 1.4321319906 4.4412893388 
Si 6.3202277669 0.5749361199 7.6462411179 
Si 4.5539830071 3.7159887528 3.2824379106 
Si 4.7047231891 3.1847834330 7.7991976017 
Si 2.0913129071 7.0193759920 3.9770057787 
Si 4.8233375492 5.0894942846 4.9672599649 
Si 7.1339376861 1.7119031512 9.6424746789 
Si 9.7889089032 6.9257847343 7.4014980792 
Si 5.0136228872 9.2885523934 0.3030708244 
Si 2.1459183613 8.4990423788 2.2749071245 
Si 1.6153040553 4.1125168015 0.1495138284 
Si 6.7007773352 7.1104132258 7.8407163216 
Si 6.4351271831 4.6805971612 1.7592792400 
Si 9.9745822228 0.3737940694 6.1685060798 
Si 0.6161033977 4.1195667519 7.5607024233 
Si 10.3250323022 1.4807534300 2.5285892470 
Si 8.2675971508 4.1804200663 3.7860027812 
Si 7.3090255262 4.3580513765 8.2838605843 
Si 9.6241638048 4.7284481719 5.5247865067 

