&CONTROL
   calculation      = 'scf'
   tstress          = .true.
   tprnfor          = .true.
   outdir           = './'
   disk_io          = 'none'
   pseudo_dir       = '/home/ppiaggi/pseudos'
/
&SYSTEM
   ecutwfc          = 30
   occupations      = 'smearing'
   degauss          = 0.01
   smearing         = 'fermi-dirac'
   input_dft        = 'PBE'
   ntyp             = 1
   nat              = 64
   ibrav            = 0
/
&ELECTRONS
   electron_maxstep = 100
   mixing_beta      = 0.5
/
&IONS
/
&CELL
/

ATOMIC_SPECIES
Si 28.085 Si_ONCV_PBE_sr.upf

K_POINTS gamma

CELL_PARAMETERS angstrom
10.50519917824115 0.00000000000000 0.00000000000000
0.00000000000000 10.50519917824115 0.00000000000000
0.00000000000000 0.00000000000000 10.50519917824115

ATOMIC_POSITIONS angstrom
Si 0.3332175643 3.0147715550 4.4876004798 
Si 4.5215427783 2.8285248787 4.6721663241 
Si 7.9499040249 1.9693466587 1.7323493653 
Si 4.1822248448 8.6830198548 2.4209231506 
Si 0.9172719714 1.7537589612 8.6897852031 
Si 1.6094070193 0.2560715836 1.2921920249 
Si 1.8963250193 4.6812113006 3.0804500602 
Si 4.6927460093 0.7638761036 0.4366664627 
Si 9.1615001618 7.0336090370 9.3673915604 
Si 2.1180687635 2.2676207790 6.7430457329 
Si 3.7739717944 6.3458126364 1.6820399664 
Si 1.6922825356 6.7811060696 0.7516701126 
Si 7.0012320131 4.3787140903 5.6168568654 
Si 6.4069003696 1.4433513359 5.7981135720 
Si 2.5761374685 8.9682360125 6.3432388626 
Si 5.2394050590 7.5416719849 4.6663884646 
Si 4.1113147504 5.0560473125 10.3969956267 
Si 9.0653250633 2.7871028784 7.9379175927 
Si 5.8270133750 3.3241601760 0.6614661694 
Si 1.7219597233 6.0588211001 8.9698748235 
Si 2.7018952078 0.8330181730 9.9065078771 
Si 0.0830256356 9.2560679648 7.0030599178 
Si 2.3368920624 4.2646696480 5.4447817029 
Si 6.8719025061 7.9206785608 1.4738794447 
Si 6.8547475158 0.1145014184 2.6085355027 
Si 9.9130000902 7.2282493674 4.0125238573 
Si 7.4002825091 8.9228850676 6.2115036649 
Si 10.4605100609 9.8159110394 3.7975874821 
Si 7.6365234282 8.2438815187 3.6681003971 
Si 8.0258671202 6.6384454647 5.8345140872 
Si 7.5760029758 5.8088078648 0.2119760101 
Si 10.2177874339 5.8745494013 1.6829539188 
Si 1.8488100034 8.3300871832 9.2125659350 
Si 1.7329901824 6.7626379294 6.5697099465 
Si 4.8243656498 8.1436934342 6.9728154494 
Si 4.4176463584 0.3870472554 3.2584291447 
Si 8.9089551735 10.3804814536 8.7882924557 
Si 3.2293402482 0.4591181744 5.1959870707 
Si 3.9585061231 6.9865352395 8.9339365372 
Si 2.0837587830 2.6353237607 1.6612711876 
Si 10.4872457928 9.2042668276 10.4989695951 
Si 7.3832956020 8.9397669227 9.8461029818 
Si 3.4490249734 3.0513926793 9.8184112768 
Si 9.7511674968 2.5725026696 10.4674960184 
Si 9.2937185986 8.6539939894 1.8768378748 
Si 8.0059912833 1.6822080496 4.3419458932 
Si 6.5918444012 0.2031894615 7.7639304839 
Si 4.2386692800 3.9907780950 2.1105575461 
Si 5.3933167321 2.3016996452 7.7223298951 
Si 1.7135345536 7.1273679397 4.1946524955 
Si 4.7346512488 5.4056498359 5.5399483022 
Si 7.1160748506 1.0191387868 10.2656911422 
Si 9.9363846635 6.8803381810 7.1812175907 
Si 4.7972412255 8.8479829975 0.0319223588 
Si 2.0581576126 9.0551560305 3.0605216974 
Si 1.2556444370 4.4236868480 10.4762258389 
Si 6.7756748816 7.1043615535 7.8920518931 
Si 6.5357151220 4.9159499763 2.2064805198 
Si 9.8334547220 0.7274451233 5.4617686100 
Si 0.7049808054 4.0399424272 8.2785066552 
Si 10.4760682609 1.7151733646 2.1106625981 
Si 8.3049482416 3.6524371451 3.2698798118 
Si 6.1283024874 4.7955393833 8.3366739431 
Si 10.3665620647 4.7236312949 5.9107398124 

