&CONTROL
   calculation      = 'scf'
   tstress          = .true.
   tprnfor          = .true.
   outdir           = './'
   disk_io          = 'none'
   pseudo_dir       = '/home/ppiaggi/pseudos'
/
&SYSTEM
   ecutwfc          = 30
   occupations      = 'smearing'
   degauss          = 0.01
   smearing         = 'fermi-dirac'
   input_dft        = 'PBE'
   ntyp             = 1
   nat              = 64
   ibrav            = 0
/
&ELECTRONS
   electron_maxstep = 100
   mixing_beta      = 0.5
/
&IONS
/
&CELL
/

ATOMIC_SPECIES
Si 28.085 Si_ONCV_PBE_sr.upf

K_POINTS gamma

CELL_PARAMETERS angstrom
10.79538785058940 0.00000000000000 0.00000000000000
0.00000000000000 10.79538785058940 0.00000000000000
0.00000000000000 0.00000000000000 10.79538785058940

ATOMIC_POSITIONS angstrom
Si 1.0094216614 3.1232136591 5.6789353696 
Si 3.0748395261 8.9977398657 5.5575952101 
Si 6.7297692183 2.9742265113 9.3981300057 
Si 6.1087537368 1.2017317801 0.3817065622 
Si 3.7412280227 2.2153971085 10.3713558112 
Si 2.8659271804 10.6377212110 2.9705344887 
Si 2.8958519955 1.6099053948 6.1998020380 
Si 7.3375279636 2.9001701507 1.9026871087 
Si 5.6206510706 10.1992989196 7.8941921381 
Si 10.2522610924 0.7222481515 3.7601631330 
Si 2.1061369881 5.4018069681 4.4901796456 
Si 8.9282283633 7.1076725654 0.2849172738 
Si 8.5776589383 7.2717732562 8.6975956973 
Si 9.4770119047 3.9586795202 4.2909075813 
Si 4.2391760827 6.9322043313 8.9263499659 
Si 3.9718067118 5.8460695643 5.4436390960 
Si 6.1616403419 6.6694014095 10.0410493291 
Si 10.3758358972 0.3988474791 0.5761930311 
Si 6.1296967893 4.0263989882 5.3279881059 
Si 10.4679529417 4.0433045656 2.2305106515 
Si 6.6087097390 10.1126983183 5.8735222356 
Si 9.7854577264 9.1132721065 7.7509373413 
Si 10.2950863960 2.6850612524 7.4349023620 
Si 5.9244332847 8.7270347200 2.2125903077 
Si 9.2294412751 9.9143006804 2.2623570457 
Si 9.0348975907 6.3982968344 2.3749745317 
Si 6.7444293550 0.2811054224 2.5493956132 
Si 1.2635029894 1.9092830906 2.0369601428 
Si 5.1132678416 9.9504652297 3.9223314493 
Si 10.2527792711 8.6282461257 5.4242289886 
Si 5.0673442617 4.4591213148 10.0974876168 
Si 1.3845408780 7.1912072766 1.3583836532 
Si 2.7136258486 7.9071358081 10.5746761460 
Si 0.5205287728 7.3851572148 8.0465258560 
Si 7.8723206823 8.0879261684 6.2788242770 
Si 1.4033248529 7.8030250877 4.6082703933 
Si 3.7794868773 8.9951273818 7.7345283518 
Si 1.1610007818 9.7140786219 8.0492354984 
Si 6.0115304739 6.3250177417 6.5874968019 
Si 0.8067080274 0.2436713355 6.0081083359 
Si 9.7730970073 1.3684449547 9.4685483206 
Si 7.1164384204 7.3831384772 3.9938185077 
Si 2.4917374467 3.5728955400 2.9629021495 
Si 8.8622793390 3.3444759284 0.0695032979 
Si 0.6191241295 9.2669012710 2.7798015761 
Si 8.7796514404 1.1247714602 5.5577247548 
Si 4.9261405886 2.4273321628 4.1510425363 
Si 4.8757801043 4.6308759355 3.1428072880 
Si 5.1660788790 3.3509531612 7.4430204936 
Si 9.3710011960 6.0506313687 5.6808893348 
Si 3.5055215244 5.1822395746 7.6378232674 
Si 7.6728974825 2.6273275181 7.1207241894 
Si 7.4019656336 9.2097828739 0.4888162414 
Si 4.3396703482 1.4021049740 8.2150310650 
Si 4.4767825693 7.0183731171 0.9868139602 
Si 2.2169948259 4.3015410383 9.6219939636 
Si 7.9265243247 10.7357217419 9.4167736405 
Si 3.4937005747 4.2709469092 0.9198480103 
Si 1.9239648181 9.8345767411 0.6461892464 
Si 0.9767893630 5.3210034900 6.7097113877 
Si 3.9388699835 0.1631053560 0.8275463646 
Si 7.2201928930 5.0957253363 3.4651467738 
Si 10.7820879328 5.3969598389 10.4716017828 
Si 8.0128010644 5.2577209264 7.4619232178 

