&CONTROL
   calculation      = 'scf'
   tstress          = .true.
   tprnfor          = .true.
   outdir           = './'
   disk_io          = 'none'
   pseudo_dir       = '/home/ppiaggi/pseudos'
/
&SYSTEM
   ecutwfc          = 30
   occupations      = 'smearing'
   degauss          = 0.01
   smearing         = 'fermi-dirac'
   input_dft        = 'PBE'
   ntyp             = 1
   nat              = 64
   ibrav            = 0
/
&ELECTRONS
   electron_maxstep = 100
   mixing_beta      = 0.5
/
&IONS
/
&CELL
/

ATOMIC_SPECIES
Si 28.085 Si_ONCV_PBE_sr.upf

K_POINTS gamma

CELL_PARAMETERS angstrom
10.71462037205833 0.00000000000000 0.00000000000000
0.00000000000000 10.71462037205833 0.00000000000000
0.00000000000000 0.00000000000000 10.71462037205833

ATOMIC_POSITIONS angstrom
Si 5.4755031634 6.0737647064 8.3959872382 
Si 4.1350184378 4.1943238616 4.3714579656 
Si 7.8571275504 9.4923179093 10.3597735746 
Si 1.5886567626 2.2855785300 3.1528413322 
Si 6.9704177123 3.9079220591 8.1378613188 
Si 4.2541435871 1.7374614103 9.7455258179 
Si 4.8768666085 8.4202879972 9.0620294697 
Si 8.5251948452 5.2000302736 6.5789054839 
Si 9.1218170514 9.6931420389 8.0133038570 
Si 3.7003262894 4.5610960316 8.6840390922 
Si 6.4239720733 4.2974949412 1.4856035438 
Si 6.0904795142 10.2001471603 8.2391144813 
Si 1.4593205801 9.3000547613 3.8437521977 
Si 6.3030040093 0.6220287140 0.1484328504 
Si 7.1165544195 1.7138035285 4.9328076415 
Si 9.0647402687 7.5773045248 5.5231189363 
Si 8.9120247845 3.1155223094 1.8285678273 
Si 7.7962792213 2.7892085460 10.1716676993 
Si 2.8565070766 8.1936844909 7.7233019420 
Si 1.5736455794 4.3632398518 0.7561661179 
Si 0.5106277345 8.4415136601 5.7522510929 
Si 4.6846784629 6.3359836108 0.8390962081 
Si 6.6714262308 10.2366947304 3.1249190315 
Si 9.5050575929 2.3017576068 5.8571043679 
Si 7.1717775729 6.9997650575 0.2330097778 
Si 2.2357448307 5.7205893897 4.0950636185 
Si 3.7828074370 10.6617544351 1.2753184044 
Si 3.3187572287 8.7166008236 0.2465530579 
Si 0.2616606726 1.8162888724 0.9645536981 
Si 1.9584933139 0.9282643503 9.7868842525 
Si 7.6488139011 9.7038245154 5.6665234153 
Si 0.4440020821 4.1584834565 3.7602638757 
Si 3.9139651049 3.9103542779 0.3700679872 
Si 0.0522008804 4.5117552047 6.5841020748 
Si 4.0623733117 7.1461267718 3.0977467542 
Si 10.3729739869 2.7407570327 9.3851824202 
Si 10.0480959826 5.3126623629 1.9661756968 
Si 4.8052715152 6.4713521246 6.1657282931 
Si 0.5630833015 10.1407988780 7.7350344513 
Si 2.9440883835 1.2244989600 5.5644452271 
Si 4.0109109901 9.7505724041 3.7107944735 
Si 6.2906714813 2.0080484332 2.6399967427 
Si 0.4154154750 0.5830724973 4.7686382282 
Si 1.0551447418 4.7877102524 9.1355317655 
Si 8.0254542365 4.3523216536 4.4099555966 
Si 5.4721280579 8.7952032786 5.5979284157 
Si 1.0926769855 2.0195880793 7.2592624483 
Si 8.8277435807 6.8144235543 3.4494648826 
Si 3.8692958526 10.1978970900 6.7119810689 
Si 7.3521582069 8.1372077269 2.3705883281 
Si 4.0045893641 2.3765885155 2.5149571230 
Si 10.5728873738 8.5074728631 2.2786247414 
Si 1.6328760008 6.8375671343 1.6628447940 
Si 8.7734311700 5.4346268866 10.4793701672 
Si 0.2624428399 6.9337951399 8.8052214487 
Si 1.8215390364 6.3117364249 6.5205858052 
Si 9.2489781660 0.5306522885 2.8021196636 
Si 8.4131413454 1.3549066045 7.7926041065 
Si 6.1553886844 5.7197750786 3.4957949011 
Si 10.3074112248 10.0297632671 0.5247271035 
Si 8.7518947831 7.2584267079 8.1638121293 
Si 5.6529158475 1.9915372032 6.9397631834 
Si 3.6302741014 3.4605223708 6.7222992483 
Si 1.3728964521 9.0879481364 9.9638362080 

