&CONTROL
   calculation      = 'scf'
   tstress          = .true.
   tprnfor          = .true.
   outdir           = './'
   disk_io          = 'none'
   pseudo_dir       = '/home/ppiaggi/pseudos'
/
&SYSTEM
   ecutwfc          = 30
   occupations      = 'smearing'
   degauss          = 0.01
   smearing         = 'fermi-dirac'
   input_dft        = 'PBE'
   ntyp             = 1
   nat              = 64
   ibrav            = 0
/
&ELECTRONS
   electron_maxstep = 100
   mixing_beta      = 0.5
/
&IONS
/
&CELL
/

ATOMIC_SPECIES
Si 28.085 Si_ONCV_PBE_sr.upf

K_POINTS gamma

CELL_PARAMETERS angstrom
10.77941844638874 0.00000000000000 0.00000000000000
0.00000000000000 10.77941844638874 0.00000000000000
0.00000000000000 0.00000000000000 10.77941844638874

ATOMIC_POSITIONS angstrom
Si 4.0731972895 7.9925507189 10.1332569870 
Si 3.5562056014 8.5912827371 3.4399711323 
Si 8.7221017594 6.5635878920 7.7655361665 
Si 2.7887864639 7.5194743816 7.8683933773 
Si 8.5105125547 0.5125009824 1.1119724687 
Si 0.1348710057 5.2551066251 0.9959363409 
Si 5.5369237409 2.0079469505 7.8320128400 
Si 1.8770632517 4.9315731598 10.0367596331 
Si 7.7529565851 1.6998603919 9.5385025743 
Si 8.0164918073 3.9430358118 6.3442375060 
Si 3.1464799062 8.8102450640 5.9901443895 
Si 9.3089871967 5.4885025933 5.3744455667 
Si 5.1744765751 4.3798933031 7.8325733698 
Si 9.7699474677 9.4200152067 6.5375232582 
Si 5.3928244751 3.4181535893 1.2775012183 
Si 0.6655989067 8.6872087819 4.4058178045 
Si 3.0610530151 3.0851665741 10.1808373401 
Si 2.7002658797 0.5294774885 2.1517875103 
Si 9.3840874050 3.2203512609 1.0399864343 
Si 1.4177306729 4.9744321275 3.4470639896 
Si 2.8080708435 1.2338553530 8.7097808841 
Si 5.9763036162 9.6112959870 8.6309941147 
Si 4.8737954769 0.2084071204 3.4047655516 
Si 5.2070411982 7.1764948454 5.8160998993 
Si 8.0402604250 10.7405478635 3.6340330026 
Si 3.7503860453 10.5668590940 10.5471219789 
Si 5.9095682366 9.4058618303 1.4832910959 
Si 4.0897544762 0.0655994445 6.8392930776 
Si 0.8176436818 5.9222987298 5.9795697800 
Si 1.4871716865 2.8519215178 7.2389831342 
Si 3.3246960314 5.9088783538 0.9162085282 
Si 7.4278601042 3.9359860721 2.8033925759 
Si 9.2840759607 8.3489398516 3.3040965628 
Si 0.3677624971 0.9040374868 9.7177750824 
Si 7.0772810781 6.9187697298 0.6330310497 
Si 5.4441560658 4.1091466500 5.4324711762 
Si 7.8221712310 6.3658286812 3.4132489540 
Si 10.7021407955 0.3358511067 4.3431786039 
Si 2.2879100064 8.2962069366 1.3916768185 
Si 2.7457981432 4.9942878163 7.6813704672 
Si 8.2709507591 1.6921207695 5.4337862652 
Si 10.6751060141 8.6528116576 1.4868914217 
Si 6.1303738441 7.0235241183 8.2020487164 
Si 0.2669598434 0.4001169215 1.3165873896 
Si 7.5233549722 0.1721376111 7.1082826855 
Si 3.1811680748 3.8528983147 5.0549220451 
Si 8.4529935779 3.8705226639 8.5961442548 
Si 0.3265829627 7.9383410236 7.7038994518 
Si 10.6779733394 3.2217957029 9.5391170011 
Si 4.5545091025 5.2072675660 2.9704520030 
Si 5.5913274658 5.0192637289 10.5077986604 
Si 10.0268856858 8.0026833723 10.1088739425 
Si 7.7845402812 9.5022406106 10.2168082594 
Si 9.4329828471 10.2345296233 8.8424863046 
Si 7.8060344416 7.9971966483 5.6532228865 
Si 0.1858210049 2.6649093872 2.8131263908 
Si 2.9258252106 2.8074348579 2.0152985139 
Si 5.6623207157 7.4258335735 3.3426761014 
Si 10.5315349398 2.9817272747 5.4991634381 
Si 5.4068700574 1.5050116241 10.3164100859 
Si 6.1696432655 9.9421378980 5.2233504583 
Si 8.8411927744 5.7766903454 10.4558742017 
Si 5.9499263793 2.3030011922 3.9920929451 
Si 2.7912549508 1.2037699962 5.0691724363 

