&CONTROL
   calculation      = 'scf'
   tstress          = .true.
   tprnfor          = .true.
   outdir           = './'
   disk_io          = 'none'
   pseudo_dir       = '/home/ppiaggi/pseudos'
/
&SYSTEM
   ecutwfc          = 30
   occupations      = 'smearing'
   degauss          = 0.01
   smearing         = 'fermi-dirac'
   input_dft        = 'PBE'
   ntyp             = 1
   nat              = 64
   ibrav            = 0
/
&ELECTRONS
   electron_maxstep = 100
   mixing_beta      = 0.5
/
&IONS
/
&CELL
/

ATOMIC_SPECIES
Si 28.085 Si_ONCV_PBE_sr.upf

K_POINTS gamma

CELL_PARAMETERS angstrom
10.66199708362364 0.00000000000000 0.00000000000000
0.00000000000000 10.66199708362364 0.00000000000000
0.00000000000000 0.00000000000000 10.66199708362364

ATOMIC_POSITIONS angstrom
Si 4.8989424340 5.8800807296 6.8545339531 
Si 5.7235199644 6.0742570205 9.5363993895 
Si 10.5603669274 9.1298574407 10.6601418961 
Si 4.3104854910 3.4516403019 7.3517561871 
Si 6.0181535919 10.1132134317 5.4039692499 
Si 1.9315700397 3.1532962995 9.0884462440 
Si 2.2667085940 5.9683407415 6.6044354875 
Si 10.1460737067 4.6229459775 7.4487696985 
Si 9.3474688012 6.2999075268 10.1080743491 
Si 3.6294504272 8.1243991297 0.0233488140 
Si 1.5003455676 8.5932071415 9.0776882890 
Si 6.9947285527 2.1134103999 7.0135363156 
Si 10.6116831194 7.7631493445 4.6428092781 
Si 8.7959663400 3.2102207019 2.0311850784 
Si 2.7579387856 1.4514176630 0.0792667239 
Si 5.8970546290 2.7776421562 1.7596559987 
Si 9.0225337781 5.8944531017 5.8288604956 
Si 10.0787218712 1.4389324644 9.4390660181 
Si 0.7736153168 8.6393522649 6.7159173290 
Si 9.8610038907 5.8154583653 2.0587570029 
Si 7.0523033370 6.2301034319 1.6724941725 
Si 0.3547683572 3.5996927934 4.1403306795 
Si 0.3871072605 0.0162130592 3.1645020584 
Si 9.6170573974 1.7903412263 6.6492371992 
Si 8.4001930083 3.7361876800 8.7197863709 
Si 7.4513712258 10.5215785820 1.9051709349 
Si 3.1659414280 8.5325403781 5.9429118784 
Si 9.0176932314 8.6545349487 7.7506214980 
Si 1.6805333183 3.3592221112 6.3646791591 
Si 8.2792966234 9.5064818257 9.9277799785 
Si 3.0932799179 5.6061953485 10.1474917524 
Si 1.2860500882 5.6718945746 3.8179545357 
Si 6.7602925609 4.4767166875 5.4619385280 
Si 6.8856456606 1.2038460907 4.0357578121 
Si 5.4491974415 4.6163675253 3.2931283912 
Si 7.8442871424 6.6280518110 7.9253289822 
Si 7.8712619950 7.1247302832 3.8827261680 
Si 3.8907439898 1.1757410664 2.1115125644 
Si 0.9291727880 6.2749797776 8.8221522049 
Si 5.2691482967 9.5358662897 1.6796057246 
Si 0.6245979146 8.2574715153 2.2486898189 
Si 6.8291477380 4.0276546943 10.5158211036 
Si 2.7371692153 9.7642142812 3.9089013708 
Si 4.0384233114 6.6126132393 4.2883618470 
Si 6.2505531423 1.0260508921 8.8466747982 
Si 8.4522875260 10.2589309459 6.1576978097 
Si 2.9357382490 7.8027480017 2.3237076304 
Si 3.0476465704 0.4815235095 6.8242325574 
Si 4.7123148370 2.4570892139 9.9040570349 
Si 2.9234236424 4.9934717001 1.9421360788 
Si 8.1673456540 1.4536886684 0.0378275928 
Si 4.6799236899 1.7235331526 5.7349496253 
Si 5.5612443688 8.2632823037 7.1043018968 
Si 0.8844361145 0.3905169672 5.5885817294 
Si 6.7655809114 7.9977879144 0.1559359721 
Si 3.4050153886 3.1683190534 3.9211520054 
Si 3.1074497120 10.5056708824 8.8784049015 
Si 8.7769133513 3.1799299682 4.5757773024 
Si 1.1141680332 2.7751579109 1.9892727679 
Si 5.7698996518 8.4842095453 3.7528950295 
Si 10.6222704825 3.8969705961 10.5802408900 
Si 8.8154991187 9.6046894808 3.9996562900 
Si 5.2602348672 9.5161842430 8.9929680602 
Si 0.4993620968 0.6587312320 0.6227331313 

