&CONTROL
   calculation      = 'scf'
   tstress          = .true.
   tprnfor          = .true.
   outdir           = './'
   disk_io          = 'none'
   pseudo_dir       = '/home/ppiaggi/pseudos'
/
&SYSTEM
   ecutwfc          = 30
   occupations      = 'smearing'
   degauss          = 0.01
   smearing         = 'fermi-dirac'
   input_dft        = 'PBE'
   ntyp             = 1
   nat              = 64
   ibrav            = 0
/
&ELECTRONS
   electron_maxstep = 100
   mixing_beta      = 0.5
/
&IONS
/
&CELL
/

ATOMIC_SPECIES
Si 28.085 Si_ONCV_PBE_sr.upf

K_POINTS gamma

CELL_PARAMETERS angstrom
10.74630615622910 0.00000000000000 0.00000000000000
0.00000000000000 10.74630615622910 0.00000000000000
0.00000000000000 0.00000000000000 10.74630615622910

ATOMIC_POSITIONS angstrom
Si 10.2290327094 7.1353216153 8.8299173794 
Si 8.8937611843 2.3160331565 6.4799903733 
Si 5.1897351246 6.7728379624 7.6236552597 
Si 10.4987864865 7.1780059434 2.5776412336 
Si 9.9455988845 8.8178922628 5.9704650132 
Si 7.8726364270 5.5028072619 6.3303050748 
Si 3.7065084563 8.8055662496 6.4208856894 
Si 6.9613819039 0.7587751851 1.7658545202 
Si 8.1847091578 1.3423211020 9.0841642367 
Si 7.7738241419 8.0861225451 6.1401384411 
Si 1.8755635598 8.5259151245 4.3733274996 
Si 3.0094815464 5.5293613844 3.3137309663 
Si 4.1995059976 10.3627597432 3.9417021129 
Si 9.2087354177 3.3316450587 9.1573788206 
Si 10.1127576768 6.1519163926 0.4454816739 
Si 8.3107525827 6.1003448694 3.6051170578 
Si 2.6352951661 10.3851442989 7.5800682419 
Si 2.1743860950 6.3164638325 0.5633847719 
Si 5.3812235540 4.3928212990 2.6395507033 
Si 5.1811810649 9.9480812813 1.8604542533 
Si 8.9360049138 9.5098469162 1.2516437706 
Si 1.2293451854 1.4354915763 9.9157886313 
Si 4.5239907120 3.3831091189 4.9379814103 
Si 2.8334248127 0.5324106937 1.2104209402 
Si 7.8777839076 7.3692687003 9.1382181567 
Si 10.0922214857 10.6704587274 10.1254168254 
Si 5.9750966711 6.8668036634 3.0642554689 
Si 1.0281861550 3.4690365829 8.0087813797 
Si 0.7417809765 5.6062082197 3.9311384939 
Si 7.4935067458 5.1102339517 8.7769703290 
Si 2.2423779741 8.4067170967 9.8348152144 
Si 6.7889681679 1.7712706585 5.7057727463 
Si 1.1597843456 9.3359824289 1.2867841918 
Si 0.0011563455 0.7777112512 5.7743664185 
Si 2.2194775957 1.9440390226 6.3874539310 
Si 0.0815850966 2.9204269073 2.4727250465 
Si 0.7207912913 0.5432010597 3.2422142989 
Si 2.6619460053 1.7513362606 4.0990925128 
Si 3.9488806454 2.6115350832 8.3108278068 
Si 3.1892565021 5.0354718998 9.1393465189 
Si 10.2961433913 5.1305982019 7.1469168796 
Si 7.6781175393 7.3786502256 0.5561632542 
Si 2.3098862694 7.1827235718 7.9009744363 
Si 9.5721002678 9.4432520569 3.5856017658 
Si 5.0610588547 8.1485048523 0.2855508472 
Si 5.1547344055 9.2595869384 8.9155976784 
Si 5.4241765397 5.8389732111 5.2240050950 
Si 6.3309713458 1.8251741302 10.6831608613 
Si 0.5753077986 3.8670045388 0.1188971313 
Si 5.4031782575 5.6396399782 10.0157292785 
Si 3.2159288340 7.8028391685 2.5929869587 
Si 3.9145032120 0.7076689769 9.6545566749 
Si 6.0542324697 3.3695042953 7.7349977377 
Si 0.8393778544 7.0252364550 5.8645709123 
Si 7.0467827989 2.6081177578 3.5584673427 
Si 2.8026366455 3.2975577756 1.6837742338 
Si 7.2673292401 9.6934690495 8.0745702660 
Si 9.3395287099 3.9158894855 4.4166243671 
Si 7.4781072891 4.9887039754 1.1907874389 
Si 6.1094254981 10.2030803800 5.7319722407 
Si 4.7283317235 3.5664088630 0.4898370526 
Si 8.6856697119 3.1414891713 0.7899072340 
Si 7.1728584627 9.1614624169 3.7027902344 
Si 0.2295604428 9.5535199044 8.0921297302 

