&CONTROL
   calculation      = 'scf'
   tstress          = .true.
   tprnfor          = .true.
   outdir           = './'
   disk_io          = 'none'
   pseudo_dir       = '/home/ppiaggi/pseudos'
/
&SYSTEM
   ecutwfc          = 30
   occupations      = 'smearing'
   degauss          = 0.01
   smearing         = 'fermi-dirac'
   input_dft        = 'PBE'
   ntyp             = 1
   nat              = 64
   ibrav            = 0
/
&ELECTRONS
   electron_maxstep = 100
   mixing_beta      = 0.5
/
&IONS
/
&CELL
/

ATOMIC_SPECIES
Si 28.085 Si_ONCV_PBE_sr.upf

K_POINTS gamma

CELL_PARAMETERS angstrom
10.73575625959633 0.00000000000000 0.00000000000000
0.00000000000000 10.73575625959633 0.00000000000000
0.00000000000000 0.00000000000000 10.73575625959633

ATOMIC_POSITIONS angstrom
Si 8.5738755501 2.3676851570 8.7013626557 
Si 1.0191925791 3.8189232167 7.2342464125 
Si 1.4998495640 2.6141137062 9.3605488258 
Si 3.3969650526 4.3023543210 9.8674697648 
Si 1.2258086497 0.2015606030 4.5003753452 
Si 8.3157879696 3.8663967308 0.6129859166 
Si 9.9311864782 6.3527764091 10.3802846341 
Si 2.8314698274 2.6150906600 4.4211347283 
Si 6.6081156359 6.3076862328 0.6678939420 
Si 5.1804855043 8.4278477934 10.6219679790 
Si 4.9542187054 6.3542579434 2.3742554398 
Si 7.9551739168 6.7363757160 8.5408630996 
Si 9.3031232655 8.9820275316 9.4682821398 
Si 2.8328010612 10.4460089339 10.3958836879 
Si 9.6819558967 4.4416937015 8.2037388815 
Si 4.9362255779 6.3060114548 8.9765737674 
Si 6.2031307026 4.2616980121 6.4045442257 
Si 0.0315547495 5.9836918446 4.2241980155 
Si 6.1806822362 3.2005865991 4.3265634514 
Si 6.2617908748 10.0657162399 3.6281273564 
Si 9.0137302198 10.5911993016 0.5221485357 
Si 6.5066842108 1.1259446450 6.9394210741 
Si 6.7223548183 10.3461019862 9.7081296704 
Si 8.1175414945 2.5572786125 2.6808793744 
Si 0.1064527531 4.0580299801 1.8450363350 
Si 9.8608672747 3.6509945173 4.2231995901 
Si 4.3042760214 8.8060899580 2.3938696665 
Si 4.2166185715 4.0391135775 2.7934008357 
Si 2.0123208891 0.5059729718 8.3215852780 
Si 3.2628325139 2.7290507127 1.0010792111 
Si 3.0128504294 8.2056498461 10.5627173402 
Si 4.9598764489 1.0991052543 10.6800054773 
Si 0.4223092233 6.4912676648 6.6461309488 
Si 7.7483281010 7.0045763788 4.9176741911 
Si 3.2766279607 3.2608249275 6.8635729561 
Si 1.4936120896 5.7577256469 9.0998095135 
Si 1.1778305550 8.6862467109 2.3695531786 
Si 4.2746560699 5.8579976103 6.3214387365 
Si 6.9369411144 0.7895171775 1.7628004421 
Si 8.3736000171 10.0349797698 4.7777014009 
Si 3.3620845805 0.6581415810 6.3900187475 
Si 2.4564913328 5.3233140056 4.6965605551 
Si 8.0281233806 8.9850120718 7.0171908924 
Si 6.6460235913 4.3449215946 9.1599941631 
Si 5.3211131755 1.0939950344 4.8803781738 
Si 0.4858112215 6.4441054876 1.6560977606 
Si 5.1680642343 2.1850699430 8.5865866855 
Si 2.7491265769 6.2149507702 1.1524190199 
Si 0.6394377465 9.6614935452 7.7001138196 
Si 5.3273613857 7.3921371798 4.7402765546 
Si 8.4081476807 7.7570884781 1.3060584278 
Si 0.3434121505 8.9331476333 5.4271502401 
Si 1.6440629778 2.0171627151 2.2922772050 
Si 9.8179027782 0.9194005039 2.9665793199 
Si 8.2909454296 5.2036425305 6.2667293226 
Si 0.4000743985 2.2661678458 5.5557646001 
Si 9.9455938631 2.1614620150 10.5660668962 
Si 3.4816272265 8.8697744641 6.3184756678 
Si 9.6219966980 0.6401634836 6.8530841223 
Si 2.5333486118 7.9269066706 4.2016958703 
Si 9.5166896648 8.1093286410 3.4050383413 
Si 1.0165601716 10.5852731641 1.0934797181 
Si 2.4629005793 7.8553850624 8.1772430351 
Si 5.5865976921 9.6728090323 7.4571099767 

