&CONTROL
   calculation      = 'scf'
   tstress          = .true.
   tprnfor          = .true.
   outdir           = './'
   disk_io          = 'none'
   pseudo_dir       = '/home/ppiaggi/pseudos'
/
&SYSTEM
   ecutwfc          = 30
   occupations      = 'smearing'
   degauss          = 0.01
   smearing         = 'fermi-dirac'
   input_dft        = 'PBE'
   ntyp             = 1
   nat              = 64
   ibrav            = 0
/
&ELECTRONS
   electron_maxstep = 100
   mixing_beta      = 0.5
/
&IONS
/
&CELL
/

ATOMIC_SPECIES
Si 28.085 Si_ONCV_PBE_sr.upf

K_POINTS gamma

CELL_PARAMETERS angstrom
10.49694920667526 0.00000000000000 0.00000000000000
0.00000000000000 10.49694920667526 0.00000000000000
0.00000000000000 0.00000000000000 10.49694920667526

ATOMIC_POSITIONS angstrom
Si 9.3036560209 6.0684542876 10.4260843026 
Si 9.6138618638 4.1377504200 2.8775286860 
Si 2.2363225437 3.5675456421 9.0013018959 
Si 7.4266755393 6.0965966084 4.7989007658 
Si 1.5585870182 5.6836361296 5.5555628524 
Si 4.9574361896 10.3386237218 4.1887026114 
Si 6.5179336526 9.7555076964 1.3778505468 
Si 3.0403678591 3.7203917195 2.7310227659 
Si 1.4569870468 9.7698045412 7.7903213507 
Si 1.6732346974 6.5861953133 3.0049511524 
Si 3.2698521626 1.0331391324 1.7228957641 
Si 8.5540268902 9.0852564957 5.7620063524 
Si 2.6740663196 9.8570551830 3.5592635492 
Si 7.7896810368 3.2077522111 8.4560063785 
Si 5.9103807295 3.6178575197 3.2216186810 
Si 3.6046943454 9.2806047204 7.6985885116 
Si 4.0074937773 2.3454593246 7.2556487459 
Si 6.0138596547 4.6228774245 9.0300530398 
Si 6.6548348641 8.2554201761 6.8140525897 
Si 8.5535335336 1.5299723347 1.4891077114 
Si 10.4747376622 3.9660833127 6.3416793785 
Si 4.8414763917 6.4247627314 6.8397281275 
Si 7.5354134361 6.6781800792 8.7437067624 
Si 8.5935688979 5.6049824892 6.9662058685 
Si 3.7272672213 7.3272274425 9.0965932008 
Si 7.5563128620 4.1388211088 1.4123540188 
Si 7.0938487708 8.6104899800 3.5915836558 
Si 6.8868069447 3.7171691561 5.2686497397 
Si 9.4836367120 0.4018893464 4.0972216991 
Si 2.7747950441 8.1874629270 5.6023687489 
Si 5.3947810814 10.4791778717 6.5310338452 
Si 1.4903358545 8.3575135041 1.4441597749 
Si 5.5103000074 6.9051871027 0.0278507156 
Si 0.8557375417 1.8175152643 3.1556663492 
Si 5.2716623641 4.2214740869 6.9445821531 
Si 9.7759137657 6.4479609892 3.6090505793 
Si 4.2956350330 0.7235652058 9.2812030465 
Si 9.1159285812 2.6803120043 4.6994841598 
Si 6.6313321949 9.5800406935 9.1732734148 
Si 1.0034674061 10.3032909908 5.3568031192 
Si 7.2885566817 1.6747357612 10.1019700019 
Si 2.1881940316 2.4392180750 5.5463675249 
Si 6.6996253464 6.1587175538 1.9764705661 
Si 3.8838082248 8.9929148335 0.8113050054 
Si 1.1455845517 4.5556234710 1.4431835586 
Si 0.1896368347 2.2350314190 0.4239927724 
Si 5.0948412547 2.5398838178 0.4958013522 
Si 8.8308104469 0.4372231271 7.0812314379 
Si 0.5454519219 1.7119474461 7.5340803236 
Si 8.8963114099 9.7275543207 9.2369689026 
Si 1.5351158398 0.2702124665 0.0413321574 
Si 9.5069924239 9.7645770605 1.1252519611 
Si 10.0333724389 3.8795044756 9.1132833500 
Si 10.4087328455 8.0837635658 8.3475728932 
Si 10.2897604232 7.3959929568 6.1401694445 
Si 1.2085452530 6.5372165483 10.0744365042 
Si 4.9098745128 7.4873688996 4.4880441120 
Si 2.2638350476 5.6885277080 7.9213127798 
Si 5.9937265062 1.2742771489 2.6137823403 
Si 6.9481931036 1.4941252531 6.8885914260 
Si 3.9105439544 6.7955569652 2.4019014205 
Si 3.7754797090 4.8221515083 0.0755892660 
Si 3.6927217614 4.5719042392 4.7577737188 
Si 8.5662138482 7.5455115013 2.0082133405 

