&CONTROL
   calculation      = 'scf'
   tstress          = .true.
   tprnfor          = .true.
   outdir           = './'
   disk_io          = 'none'
   pseudo_dir       = '/home/ppiaggi/pseudos'
/
&SYSTEM
   ecutwfc          = 30
   occupations      = 'smearing'
   degauss          = 0.01
   smearing         = 'fermi-dirac'
   input_dft        = 'PBE'
   ntyp             = 1
   nat              = 64
   ibrav            = 0
/
&ELECTRONS
   electron_maxstep = 100
   mixing_beta      = 0.5
/
&IONS
/
&CELL
/

ATOMIC_SPECIES
Si 28.085 Si_ONCV_PBE_sr.upf

K_POINTS gamma

CELL_PARAMETERS angstrom
10.71562580248194 0.00000000000000 0.00000000000000
0.00000000000000 10.71562580248194 0.00000000000000
0.00000000000000 0.00000000000000 10.71562580248194

ATOMIC_POSITIONS angstrom
Si 0.3648081226 2.7244692915 0.4120822490 
Si 2.5045417876 3.1745148596 1.9543479807 
Si 2.7935100686 7.4711164751 1.8627508114 
Si 9.8349620959 9.0176706003 2.2266856105 
Si 1.3234012179 7.5709646764 10.2267789534 
Si 8.6444775005 6.8048724409 1.5099495475 
Si 8.3791800369 0.4009722882 5.8981269011 
Si 4.0678765828 6.3994360230 4.0453416217 
Si 0.6358459470 4.7236085881 2.5358957087 
Si 4.8389408686 5.4922940051 10.0909262494 
Si 0.9980180257 5.6295075935 7.6800818939 
Si 5.7908849180 0.5442069867 4.9279448565 
Si 9.1333243496 1.8045006695 1.8935153731 
Si 6.1122358202 7.3659104610 0.5406858321 
Si 4.8424984564 1.1281946626 1.2124944908 
Si 4.8046615817 9.4498103577 1.4008751924 
Si 6.0921440219 6.9559520490 2.9519941742 
Si 2.5844374935 9.6657730801 0.3078224246 
Si 4.4511530865 8.0859790837 7.6786781469 
Si 7.8661587360 1.5847767624 9.8964269255 
Si 2.2663548572 4.2492171182 6.0855003339 
Si 8.6517748417 7.0769100331 4.1876022699 
Si 8.5656319258 6.8380158715 7.6047831914 
Si 6.6664051242 1.8316219184 2.9790511293 
Si 1.3067705666 8.7547198588 3.0836570684 
Si 0.2597306960 7.6424486161 4.9163612651 
Si 9.2359264667 4.8485313537 9.6282148117 
Si 4.6315935094 4.4343724165 5.2361155390 
Si 3.1448218605 10.0438739366 8.7590275403 
Si 5.3111463509 2.9474186020 10.2222998218 
Si 10.5895136024 5.8764063276 0.6285593214 
Si 4.2880719774 1.9731110415 6.0615937727 
Si 7.6495959385 4.7709287917 3.5873129124 
Si 10.2641121937 2.5849732748 8.7210192156 
Si 2.6677086217 1.6649296434 10.5087820776 
Si 7.8047582001 8.5160292940 10.1179724890 
Si 2.8953835231 6.6274538244 8.9836270571 
Si 2.6462023607 1.3582270017 3.7753828609 
Si 6.7263590506 0.5191120626 7.9713326032 
Si 0.6406122573 10.6572470731 4.5726468518 
Si 7.5428575899 3.7837410490 0.7072634498 
Si 8.9384821256 0.0368282129 3.6208206743 
Si 3.5311951801 8.4992593396 5.3135252198 
Si 4.2276251322 1.3630811802 8.3532053599 
Si 0.3822724496 10.6594437764 0.5670955634 
Si 1.6071617047 1.8950477075 7.4355620287 
Si 1.4496955836 8.4953909987 6.8602079325 
Si 9.5711219574 3.5435931591 3.2866324524 
Si 3.5803799025 5.2846358926 1.4480453772 
Si 9.0763922297 2.5013485311 6.5865415651 
Si 0.5355669776 2.6309647408 5.0649548481 
Si 10.1991969326 8.1157149453 8.8940980036 
Si 7.0081049998 4.2381157299 6.3100784194 
Si 0.5513296632 10.4180957365 7.0038080339 
Si 5.2811747455 3.8137555169 2.9620025687 
Si 9.7425505390 10.4009721664 9.4595508615 
Si 7.0735131797 9.3501443221 3.5604488385 
Si 8.0112697406 8.6723809901 6.0006540088 
Si 7.3989895979 10.4601759990 0.9138800034 
Si 6.3943461007 8.8520391723 8.1788514125 
Si 4.2274001041 10.1129039980 3.6458845230 
Si 6.9301059596 5.0732701737 8.7371890949 
Si 9.5770584141 5.3555411886 6.0615830571 
Si 1.7026593619 5.7666997506 4.5200331291 

