&CONTROL
   calculation      = 'scf'
   tstress          = .true.
   tprnfor          = .true.
   outdir           = './'
   disk_io          = 'none'
   pseudo_dir       = '/home/ppiaggi/pseudos'
/
&SYSTEM
   ecutwfc          = 30
   occupations      = 'smearing'
   degauss          = 0.01
   smearing         = 'fermi-dirac'
   input_dft        = 'PBE'
   ntyp             = 1
   nat              = 64
   ibrav            = 0
/
&ELECTRONS
   electron_maxstep = 100
   mixing_beta      = 0.5
/
&IONS
/
&CELL
/

ATOMIC_SPECIES
Si 28.085 Si_ONCV_PBE_sr.upf

K_POINTS gamma

CELL_PARAMETERS angstrom
10.62670179246085 0.00000000000000 0.00000000000000
0.00000000000000 10.62670179246085 0.00000000000000
0.00000000000000 0.00000000000000 10.62670179246085

ATOMIC_POSITIONS angstrom
Si 8.6609213614 1.5838886488 6.3706970979 
Si 4.1304183328 6.7302834331 2.2597575095 
Si 7.9911947343 4.7396577733 2.1697599720 
Si 9.8648204075 6.9113836851 9.5108024639 
Si 1.2480529920 10.1221672448 5.2959231053 
Si 6.4569859164 3.1034538716 1.6018265214 
Si 5.5348326150 3.3554661046 9.9415451944 
Si 0.3442721953 3.8737303510 6.1361551626 
Si 5.7193971717 0.7479040841 6.2965864796 
Si 6.4780374127 2.9823519779 4.8524070793 
Si 2.1305793225 5.0141773607 3.3410244168 
Si 9.7395847268 8.0076980022 2.4501029920 
Si 2.7426773457 4.4315153014 6.9760152854 
Si 2.7626767985 1.3654355400 6.3030581410 
Si 3.4392045147 6.3143862051 5.3428187403 
Si 8.2142810850 9.2337112147 6.6546425698 
Si 2.1934681437 2.1972512495 1.7256382240 
Si 4.0098584010 3.9176611362 2.0108589001 
Si 7.4936525564 8.4429252008 4.1542540249 
Si 8.8372289708 8.9716142417 0.3447302061 
Si 10.3845405120 10.0627852351 3.2099334235 
Si 9.9543928769 1.1336034137 8.4852832342 
Si 9.7271727391 2.1285602491 2.9870383534 
Si 3.4688636394 2.4744487658 10.0479928662 
Si 6.7574134028 0.3189477023 8.4106944143 
Si 1.1656322929 7.3153790071 5.9922164868 
Si 10.2652770378 2.2366975666 0.5334891221 
Si 3.7144998513 0.6010218120 3.8601919329 
Si 7.1038226278 3.3377726461 7.8746304424 
Si 6.1945063822 7.9949565868 0.3160721168 
Si 8.2133353086 0.2605454745 4.1887482989 
Si 9.7199572086 3.7341592497 8.3298889738 
Si 5.5803361521 5.3410547078 3.6124835141 
Si 6.8142024972 5.7955162367 9.2998624334 
Si 7.9424181731 1.4451464302 10.3944658515 
Si 10.5039421334 6.1954734120 4.0475513122 
Si 4.6647076455 5.6210257932 10.4761851883 
Si 5.9322181285 1.3575824074 3.1635903770 
Si 5.4234010200 9.3289477162 5.2224713425 
Si 8.9663327709 4.1167417676 4.5233618850 
Si 3.5391911519 6.6376611003 8.6253750439 
Si 3.1926862865 8.4823502645 4.1756455756 
Si 4.1732864478 0.1060023068 9.6337108969 
Si 1.3294216476 2.5321942633 4.1496420363 
Si 6.8361466364 6.9306073886 2.1516839522 
Si 1.7835750021 10.5234952647 1.3864020227 
Si 1.6976474915 2.1402708745 8.2973393863 
Si 9.8729923411 6.2171306303 7.2988438591 
Si 7.2311730221 8.2070761812 8.5713701454 
Si 8.0388554919 6.4367633029 5.8245590127 
Si 5.1737266614 7.8156522474 7.3398629281 
Si 1.6979025323 7.8998688591 1.8257842617 
Si 8.9112864556 5.0972250352 10.5894552027 
Si 1.4675050107 6.9211921308 10.2466803097 
Si 0.2392633789 4.3889766141 1.6060453220 
Si 5.9875513648 5.4280342620 6.5797880823 
Si 10.5946729133 10.3356258037 10.4636881870 
Si 6.9680877658 10.4506279705 1.4284306282 
Si 3.4342524717 9.9954863327 7.4480108722 
Si 0.0807408301 9.1642657185 7.5355323882 
Si 4.3988488201 9.5972719364 1.4749118219 
Si 1.4860486054 4.5835302705 9.8187217751 
Si 2.0136537227 9.1575283895 9.3362057535 
Si 4.6366637795 3.0353898466 6.9756008440 

