&CONTROL
   calculation      = 'scf'
   tstress          = .true.
   tprnfor          = .true.
   outdir           = './'
   disk_io          = 'none'
   pseudo_dir       = '/home/ppiaggi/pseudos'
/
&SYSTEM
   ecutwfc          = 30
   occupations      = 'smearing'
   degauss          = 0.01
   smearing         = 'fermi-dirac'
   input_dft        = 'PBE'
   ntyp             = 1
   nat              = 64
   ibrav            = 0
/
&ELECTRONS
   electron_maxstep = 100
   mixing_beta      = 0.5
/
&IONS
/
&CELL
/

ATOMIC_SPECIES
Si 28.085 Si_ONCV_PBE_sr.upf

K_POINTS gamma

CELL_PARAMETERS angstrom
10.52339550713686 0.00000000000000 0.00000000000000
0.00000000000000 10.52339550713686 0.00000000000000
0.00000000000000 0.00000000000000 10.52339550713686

ATOMIC_POSITIONS angstrom
Si 1.2442547146 6.7380354327 10.1412910163 
Si 5.6947354787 10.3910953788 9.2754260339 
Si 6.5389538365 8.1152322027 2.2451348613 
Si 3.8100163901 2.8631528326 6.1247214191 
Si 3.1993227021 9.1665825542 2.5366223934 
Si 9.9540798102 0.6033178402 9.1460303628 
Si 7.8193669380 0.0732208388 0.0617394986 
Si 5.4357441919 2.3217346572 9.2791513160 
Si 3.8007663255 7.1265486714 0.8021363515 
Si 6.6215203976 0.3054615490 6.1941968762 
Si 10.1925925694 8.8283711460 1.8689760889 
Si 8.5108066398 5.8201322596 8.3555655093 
Si 0.0056749410 7.6466148774 8.1911479779 
Si 4.5736255383 1.7282361973 1.0430558112 
Si 7.8973768689 8.0671929022 8.5952253186 
Si 2.6066345437 1.6944455744 8.8916167530 
Si 6.0618967479 5.4478566201 7.7592046859 
Si 8.0748434107 8.3213960441 5.6393087546 
Si 1.5653445583 7.2972697167 6.2246936764 
Si 9.8870668276 1.2645753913 1.4881975458 
Si 2.3973242071 4.2648480674 0.8882987569 
Si 1.7522400625 9.3572664808 9.0714826290 
Si 0.7436052257 10.0072966213 4.3990634537 
Si 4.8685436974 6.4045911226 3.0321059475 
Si 8.0720547109 5.8961848389 2.7052387596 
Si 8.2049862430 8.3796746084 0.4450407100 
Si 10.1505621277 7.3187374435 4.7017794488 
Si 10.4192033682 6.3424715189 2.0408757545 
Si 0.0595340054 4.4624563882 4.8072764888 
Si 3.8407867986 7.7174268057 8.8422620281 
Si 2.1235791198 6.9242048226 3.1668685503 
Si 1.7774541181 10.1459318337 6.4324149803 
Si 8.1168001886 2.2770628432 7.3206842717 
Si 2.1365544664 1.0976532918 3.3673813283 
Si 1.1590993981 2.4038066187 5.9036564497 
Si 2.6374365224 5.2194252738 7.0387414593 
Si 8.5850281483 4.5274383555 6.0454697275 
Si 6.9981421994 6.2320390065 4.9676846065 
Si 6.8815429772 0.8564454910 2.2406939884 
Si 1.3249902049 9.9776837863 0.9282024203 
Si 8.4055516379 2.6246926904 3.5461527712 
Si 2.2532589226 1.6851218460 0.6641051820 
Si 0.8873221858 3.2596533285 2.7932248695 
Si 5.6867587449 8.6005922503 7.2971013424 
Si 0.5195021520 2.7180352086 8.3588172385 
Si 4.3735126494 1.8639248590 3.9273101565 
Si 8.1484966559 2.7639487832 9.8174019494 
Si 4.4544691310 3.7297123590 2.2911852400 
Si 5.4629155991 10.1733663258 3.9133877042 
Si 4.9996757288 9.3489214282 0.8000064162 
Si 6.5977375238 4.2460532830 1.1977413064 
Si 3.4769614457 3.9512929748 9.1875135879 
Si 0.2116602109 4.6274106128 9.6679171162 
Si 4.4012944135 6.8493308635 5.7536138765 
Si 4.0154856874 0.4689519693 7.1423969050 
Si 5.5148906495 5.5902276379 10.0490008377 
Si 3.6638148564 8.9983766004 4.9949086307 
Si 8.4839930280 9.8457940704 3.8422705974 
Si 5.8602263964 3.2847726736 6.9741278109 
Si 9.3895417348 3.8494791233 1.0419887389 
Si 2.7326732517 4.6666628780 4.1697586656 
Si 6.2746587583 3.6696448175 4.3577696497 
Si 9.4809163780 1.3000918511 5.3572501848 
Si 9.7343513120 9.8288198335 7.0599671480 

