&CONTROL
   calculation      = 'scf'
   tstress          = .true.
   tprnfor          = .true.
   outdir           = './'
   disk_io          = 'none'
   pseudo_dir       = '/home/ppiaggi/pseudos'
/
&SYSTEM
   ecutwfc          = 30
   occupations      = 'smearing'
   degauss          = 0.01
   smearing         = 'fermi-dirac'
   input_dft        = 'PBE'
   ntyp             = 1
   nat              = 64
   ibrav            = 0
/
&ELECTRONS
   electron_maxstep = 100
   mixing_beta      = 0.5
/
&IONS
/
&CELL
/

ATOMIC_SPECIES
Si 28.085 Si_ONCV_PBE_sr.upf

K_POINTS gamma

CELL_PARAMETERS angstrom
10.64757419230164 0.00000000000000 0.00000000000000
0.00000000000000 10.64757419230164 0.00000000000000
0.00000000000000 0.00000000000000 10.64757419230164

ATOMIC_POSITIONS angstrom
Si 1.5981582960 8.3288839032 9.0417070526 
Si 9.8001124672 4.4532627253 6.2482414302 
Si 3.6379247316 0.8626558135 8.9832305752 
Si 8.6245989812 7.0458086227 4.8795596533 
Si 3.5699399703 2.2042288666 6.8234553308 
Si 6.0179982859 5.7094848237 10.4978586516 
Si 10.3865276158 9.7554565410 8.2152955817 
Si 3.2300906973 9.5870438600 7.6642303794 
Si 0.8181670542 2.0785768435 3.8815092864 
Si 6.8361898296 7.9805272183 8.7716100381 
Si 8.8333446732 10.6075819036 6.4058468234 
Si 2.5398936430 8.0258539417 0.8953225711 
Si 6.9876196297 6.9797297773 3.1635965964 
Si 3.4022726195 1.3641352628 2.1363505811 
Si 8.3111556921 1.2599593969 10.3624428030 
Si 3.3988547482 8.5560498986 3.1819849571 
Si 2.5075463126 10.5931224979 0.2189343558 
Si 8.5104889286 2.3767302161 5.9754505794 
Si 1.3235999478 10.3223759813 6.2739233792 
Si 4.6725814585 8.1865684265 9.5339444075 
Si 6.1807677526 2.6375744886 5.3493093315 
Si 4.7999477410 7.8366252531 6.3992453274 
Si 3.5926086558 5.7359121028 10.3828648503 
Si 7.5445409979 3.0072156743 8.3998499852 
Si 7.0863758804 8.3950585768 1.0913550596 
Si 5.4970444234 8.7464604678 4.2809104419 
Si 3.8606080982 4.4306046875 1.8961519549 
Si 0.8637897801 5.6799058626 3.0655856760 
Si 0.2588883132 4.2589870866 8.7204910344 
Si 9.4891607105 9.7408161265 0.7145427327 
Si 6.7651279194 10.3200335150 7.9041734638 
Si 2.7030570699 6.8459855978 4.4874520861 
Si 5.2424928672 0.3976560181 6.0432010940 
Si 10.3779243759 7.0394839636 7.4132031702 
Si 0.4477038759 7.3151709546 1.5097195447 
Si 0.0354771848 9.0975429317 3.3525910384 
Si 0.0928594111 0.8777178719 9.6974698520 
Si 7.6394428266 5.3463280107 1.6359571844 
Si 9.1540070176 8.0208282866 9.7861641450 
Si 9.2932240502 4.9119282788 3.6343790894 
Si 8.3664804876 2.8282299521 1.4944828661 
Si 9.7246744040 5.9320510670 0.2564244645 
Si 2.1123722440 5.7903850924 8.2766256090 
Si 7.7236012531 0.0805559262 2.5310135661 
Si 5.0347054568 5.7988073236 3.7034179604 
Si 8.2002505593 5.3529082116 8.7544674436 
Si 1.9264336559 10.5770446609 3.7586895181 
Si 1.1637798592 2.0249876026 7.9082727798 
Si 0.0392335425 3.4041891829 0.3093056417 
Si 5.3157268825 3.4395710719 8.0751096199 
Si 6.0009941099 0.9112236584 9.6596390209 
Si 2.9365690195 3.1845829652 10.0738296569 
Si 1.5311531116 3.3553807028 2.0400965104 
Si 3.2781219045 5.2035759835 6.4153976975 
Si 5.4076899808 0.4496427991 3.3144301325 
Si 9.0895998413 2.0754358091 3.7021828418 
Si 5.4812753660 4.9916786095 5.9000870493 
Si 5.3295580814 10.0419401722 0.5828098800 
Si 5.4341917930 3.0297565888 0.1628993671 
Si 0.6855110569 8.0862256873 5.3846273351 
Si 8.5587330873 9.5858193890 4.3145035385 
Si 7.2000706776 6.6683627652 6.7823556945 
Si 6.1178192940 3.0711543573 2.8130571589 
Si 1.4387108724 3.4529231300 5.7800888882 

