&CONTROL
   calculation      = 'scf'
   tstress          = .true.
   tprnfor          = .true.
   outdir           = './'
   disk_io          = 'none'
   pseudo_dir       = '/home/ppiaggi/pseudos'
/
&SYSTEM
   ecutwfc          = 30
   occupations      = 'smearing'
   degauss          = 0.01
   smearing         = 'fermi-dirac'
   input_dft        = 'PBE'
   ntyp             = 1
   nat              = 64
   ibrav            = 0
/
&ELECTRONS
   electron_maxstep = 100
   mixing_beta      = 0.5
/
&IONS
/
&CELL
/

ATOMIC_SPECIES
Si 28.085 Si_ONCV_PBE_sr.upf

K_POINTS gamma

CELL_PARAMETERS angstrom
10.67064463214417 0.00000000000000 0.00000000000000
0.00000000000000 10.67064463214417 0.00000000000000
0.00000000000000 0.00000000000000 10.67064463214417

ATOMIC_POSITIONS angstrom
Si 10.6696202503 7.8431052056 4.7200956292 
Si 4.8948807882 10.6390488534 5.8864290994 
Si 5.7955792310 5.7323770028 0.3854236841 
Si 2.7925077002 1.1406385580 7.0187552252 
Si 3.0252237890 9.4086701741 4.7026704665 
Si 4.6416237085 3.9009956059 10.0252306916 
Si 6.4748191150 5.2879659952 8.1153453621 
Si 8.2117973189 10.5051002513 7.4936842765 
Si 7.3516153138 4.4856402253 6.0829823735 
Si 10.2963824423 9.6273116826 0.3357016813 
Si 2.8546962171 7.2505963211 5.7613371324 
Si 0.9392984326 1.9102801433 3.6967808089 
Si 2.8207635672 10.1171689657 2.2176587326 
Si 8.0852968268 8.3223345267 10.3690388616 
Si 10.1434614341 5.2058767260 3.7629174644 
Si 5.5655734859 2.4593381629 8.5213207078 
Si 2.9712196565 7.1476672830 9.1329193755 
Si 2.7611573463 7.4227458309 2.5809621704 
Si 8.5249593976 1.4831342387 0.6684668012 
Si 5.6308991724 7.8321357829 9.7704583803 
Si 2.9122643449 0.1925603189 9.7436430504 
Si 10.1219814264 2.7991555118 10.3612279497 
Si 9.8342688352 9.8999573236 5.4380272707 
Si 9.0401381204 5.0860987400 9.1400580368 
Si 5.4410577337 7.6666447553 4.5137146913 
Si 10.2148587173 5.3422155525 1.3854871697 
Si 2.8202513763 2.9931798432 3.2493179969 
Si 8.5384684337 6.7382986723 5.6365546140 
Si 4.2151927371 5.6339082942 7.0803141741 
Si 8.9822605439 7.6455275496 8.1617733369 
Si 8.0509586924 3.4183623492 2.4603305328 
Si 2.1342569742 5.4228002608 4.5417464748 
Si 9.3964309447 0.2659231349 2.7708142797 
Si 0.3686195529 5.5615719942 6.8126517241 
Si 7.7860385981 6.1286634032 3.2616105796 
Si 3.9824659777 5.1869256612 2.3467308501 
Si 3.3895302674 2.1962427488 0.5203870645 
Si 8.1228361546 6.1155171690 0.5240076142 
Si 5.7100753556 5.3367415118 4.5072589513 
Si 7.6831842545 1.2986067811 5.1026168979 
Si 10.4719785704 10.3433226081 8.6097483398 
Si 6.2986147602 7.5816850827 6.9085061248 
Si 5.3392384427 0.3512103962 9.2485998340 
Si 1.3635696656 0.4592186612 5.4256599935 
Si 2.2745652804 8.5955670531 0.1685769780 
Si 5.5289091510 2.6044802712 6.0679581059 
Si 6.5268705196 10.0787759863 3.6107434013 
Si 2.5000573428 4.7982794424 9.4077418280 
Si 9.3058265011 3.2504597559 6.8854361911 
Si 6.1934982400 9.6082859232 7.3656258702 
Si 1.7293593636 4.3787843900 0.8918460760 
Si 6.5805865446 10.4806324632 0.5570183204 
Si 1.0987776191 7.9727855498 7.4981125940 
Si 0.1638168035 7.7327173869 2.0186618809 
Si 8.0253598159 8.7632882454 2.4975177294 
Si 4.9151016598 0.9279566045 2.2162181956 
Si 1.1013812564 1.0958858744 1.4660078541 
Si 1.4117262848 3.3824769713 7.6584283589 
Si 8.1315967539 2.1460266952 8.7589666344 
Si 5.6837615459 2.9251651543 3.2236444259 
Si 0.8922483593 1.7139509527 9.2870888491 
Si 5.0954355541 8.2220518084 1.9189660481 
Si 9.6446728214 2.8705741364 4.4051622235 
Si 3.2699336824 3.4229400557 6.0782552779 

