&CONTROL
   calculation      = 'scf'
   tstress          = .true.
   tprnfor          = .true.
   outdir           = './'
   disk_io          = 'none'
   pseudo_dir       = '/home/ppiaggi/pseudos'
/
&SYSTEM
   ecutwfc          = 30
   occupations      = 'smearing'
   degauss          = 0.01
   smearing         = 'fermi-dirac'
   input_dft        = 'PBE'
   ntyp             = 1
   nat              = 64
   ibrav            = 0
/
&ELECTRONS
   electron_maxstep = 100
   mixing_beta      = 0.5
/
&IONS
/
&CELL
/

ATOMIC_SPECIES
Si 28.085 Si_ONCV_PBE_sr.upf

K_POINTS gamma

CELL_PARAMETERS angstrom
10.65123788389262 0.00000000000000 0.00000000000000
0.00000000000000 10.65123788389262 0.00000000000000
0.00000000000000 0.00000000000000 10.65123788389262

ATOMIC_POSITIONS angstrom
Si 2.2925298372 1.6025000421 1.8294459677 
Si 6.9525955287 9.8159252041 10.3782253545 
Si 4.2516226724 9.1065527610 9.1991546232 
Si 9.9663632880 5.0436913264 7.4693509859 
Si 4.3633115529 6.1291802816 1.7181724855 
Si 5.8959820794 0.9301449112 1.3868976849 
Si 2.2795779319 10.1242146334 7.9210486821 
Si 5.8474230859 10.4229499023 6.7527357011 
Si 0.1613630586 0.7916085205 6.1816482794 
Si 3.5190944382 7.7806227618 6.6976368475 
Si 1.1086553976 3.0967409024 0.3755988620 
Si 8.3468212652 8.6760190745 5.5774461592 
Si 1.4332731746 4.2992550082 6.3193048778 
Si 9.0479709527 6.3810927088 4.1389006219 
Si 4.7881148734 1.2072006505 9.5600292139 
Si 9.3990357533 3.1963938840 1.1418340036 
Si 1.9035359784 6.9348505664 2.9295484213 
Si 8.2880051296 2.1349767264 8.1930493439 
Si 8.0045437358 1.2172447678 2.7088441211 
Si 2.3761633570 6.3405327950 5.3913264285 
Si 9.5533295853 0.1520837001 0.7253290625 
Si 3.2349300627 4.2528795185 8.2666387464 
Si 7.4271614326 7.6767518900 1.0064301420 
Si 3.6558243789 8.9153417385 3.1302390455 
Si 7.0876851788 3.3867421562 3.3754944490 
Si 7.0948428107 0.2126306619 4.9825532209 
Si 1.7327753327 5.5282480914 0.5533286127 
Si 4.1154252936 5.1496817946 4.3434043892 
Si 1.0326854434 7.7672448070 9.6450047898 
Si 3.6408913434 3.3928027106 10.5442888043 
Si 8.8208333048 1.9028329967 5.9020426337 
Si 10.3023672382 5.0382272414 2.4530759458 
Si 5.8969406908 1.8902006286 7.8302255766 
Si 5.6006445553 2.7485199822 5.4238020528 
Si 6.9912914759 4.9167818270 0.6039454254 
Si 6.0622905077 5.1426519776 6.1067594259 
Si 4.9866432963 0.4447573496 3.5537003101 
Si 10.5017584114 3.2753834642 4.2079952020 
Si 5.2744610464 3.2985712090 1.6379899667 
Si 9.7028729652 6.9171588603 0.6399838887 
Si 3.3157090508 10.2797014040 1.0224357572 
Si 5.7376940332 6.6662689519 9.6792485196 
Si 9.1841789827 7.0652323693 8.6270553340 
Si 3.6036120108 2.7224244494 3.6317738837 
Si 9.0695823143 10.5308575933 8.8333165556 
Si 1.1920652415 9.8091829705 0.3830153189 
Si 0.2340439105 2.6058359995 8.6290045105 
Si 2.6155073235 1.8610481905 8.1203333429 
Si 6.6518258733 6.1095393990 2.9880237173 
Si 3.5728938407 10.2357437453 5.7311435219 
Si 5.8223181182 8.0466161255 3.9288262571 
Si 7.1823853348 8.4428954309 8.2289653181 
Si 8.2934479122 4.1419149222 9.2968690795 
Si 0.2033246753 7.5988380848 5.5650587696 
Si 8.3489089079 4.5473542922 5.5437136889 
Si 5.6912226823 4.2450082537 8.2272291663 
Si 5.7912165036 7.5534318577 6.1383722999 
Si 2.3656931902 1.9614787125 5.6989235273 
Si 10.6067583145 8.3781465559 2.2317645250 
Si 8.1938801405 9.0167308719 2.8506440511 
Si 0.1138180629 1.2357779218 3.0722430552 
Si 10.5118877387 9.2018600376 7.6814277834 
Si 1.1130011027 9.6863741977 4.2714552773 
Si 3.0867606925 6.5442483707 9.1957036221 

