&CONTROL
   calculation      = 'scf'
   tstress          = .true.
   tprnfor          = .true.
   outdir           = './'
   disk_io          = 'none'
   pseudo_dir       = '/home/ppiaggi/pseudos'
/
&SYSTEM
   ecutwfc          = 30
   occupations      = 'smearing'
   degauss          = 0.01
   smearing         = 'fermi-dirac'
   input_dft        = 'PBE'
   ntyp             = 1
   nat              = 64
   ibrav            = 0
/
&ELECTRONS
   electron_maxstep = 100
   mixing_beta      = 0.5
/
&IONS
/
&CELL
/

ATOMIC_SPECIES
Si 28.085 Si_ONCV_PBE_sr.upf

K_POINTS gamma

CELL_PARAMETERS angstrom
10.61245253087821 0.00000000000000 0.00000000000000
0.00000000000000 10.61245253087821 0.00000000000000
0.00000000000000 0.00000000000000 10.61245253087821

ATOMIC_POSITIONS angstrom
Si 8.0459263984 6.0244133780 2.5930678763 
Si 3.8105814929 1.7156621384 1.5161161935 
Si 2.8092859842 3.8185832821 1.0619350625 
Si 4.7948864651 3.9978806676 5.2114146145 
Si 5.3591293413 2.0055412793 3.2742705918 
Si 8.2283862947 5.3126255743 10.1434458037 
Si 1.5246592178 3.4367578525 10.0625683030 
Si 5.2291267978 7.1346987742 6.4026093489 
Si 7.8650902072 4.9602072507 7.0786438000 
Si 1.8255328595 4.3054826042 3.1471440229 
Si 10.1130092899 9.4976462299 3.9048943585 
Si 9.3863216028 7.2933973894 9.2593542207 
Si 6.7609175837 5.3763427393 5.2050577555 
Si 7.2813310309 0.1706280730 9.5239332748 
Si 1.9001171758 3.3256348621 4.9260669909 
Si 7.4536241977 7.4661893415 7.7855817129 
Si 9.8692412552 8.0995723459 1.9562145999 
Si 5.6295027944 5.8803174975 10.0105672856 
Si 1.8849732061 6.8382929751 8.1131138353 
Si 2.2163576488 8.5337383914 6.2551811583 
Si 9.3679938973 1.1456036383 0.9013591045 
Si 2.6199067688 1.0951520389 4.9400542033 
Si 1.4278948756 6.5171601615 2.8795934822 
Si 7.6909398612 3.6591948576 3.7714852178 
Si 9.9837390056 0.2711248148 8.2255315450 
Si 6.3153431517 4.6931873325 1.7982588565 
Si 10.5671479710 1.1706065764 3.0739181005 
Si 4.4576227237 7.5164074669 4.1447463982 
Si 7.7795538398 0.5976858978 2.6526886346 
Si 10.0153428892 5.8180966884 4.5311351824 
Si 7.8996655776 7.7568219665 4.6371005209 
Si 2.0048408574 9.7866445372 0.2137708763 
Si 9.5102219861 9.3088931492 6.1747706055 
Si 9.6588493838 3.2874937077 0.0351017480 
Si 1.6107474327 0.9362082761 9.4219369935 
Si 10.0032553058 3.8917773672 2.9026755664 
Si 10.4180854628 7.3607864630 6.8773361879 
Si 6.0602091804 3.5615921316 8.7495001638 
Si 1.3637850498 10.5516113405 6.6170127273 
Si 6.9697600370 2.6503751200 0.8393600956 
Si 4.5843247945 5.5025778622 2.9976145668 
Si 6.3386905473 2.0269572085 6.4617631593 
Si 8.1217417592 1.7287260675 5.1935114071 
Si 0.1237475640 5.9947727981 0.7369159688 
Si 3.6521375766 6.0890750513 0.4637737268 
Si 1.7669945713 7.5161633805 10.2919670769 
Si 2.2457647548 0.0791627407 2.4958896485 
Si 3.5051975589 3.3369265115 7.1728823785 
Si 4.6520004043 9.3527119657 7.1862859060 
Si 5.2043042713 0.2327087979 5.2324060456 
Si 7.5193789536 8.8133765156 1.7525297985 
Si 6.4041799918 8.1422980798 10.1702846962 
Si 6.1815201253 9.0963363374 3.8853143836 
Si 10.2481482604 4.5306894594 6.3830293739 
Si 1.6108217199 4.4834109834 8.1134852712 
Si 2.2011606168 8.5037157632 3.7542293700 
Si 10.3112605156 2.0709033744 5.7448707659 
Si 8.8115193364 2.3230340217 8.2873596934 
Si 9.9475505425 9.4542625239 10.4190618084 
Si 7.2378093630 9.8008758360 7.1826352223 
Si 4.5401345421 9.2425653208 9.6557823850 
Si 4.2663120419 5.5326217153 7.9412663915 
Si 5.2458414105 1.3511562313 9.8954009507 
Si 3.5893967573 1.2687399250 8.1640960573 

