&CONTROL
   calculation      = 'scf'
   tstress          = .true.
   tprnfor          = .true.
   outdir           = './'
   disk_io          = 'none'
   pseudo_dir       = '/home/ppiaggi/pseudos'
/
&SYSTEM
   ecutwfc          = 30
   occupations      = 'smearing'
   degauss          = 0.01
   smearing         = 'fermi-dirac'
   input_dft        = 'PBE'
   ntyp             = 1
   nat              = 64
   ibrav            = 0
/
&ELECTRONS
   electron_maxstep = 100
   mixing_beta      = 0.5
/
&IONS
/
&CELL
/

ATOMIC_SPECIES
Si 28.085 Si_ONCV_PBE_sr.upf

K_POINTS gamma

CELL_PARAMETERS angstrom
10.64724706566061 0.00000000000000 0.00000000000000
0.00000000000000 10.64724706566061 0.00000000000000
0.00000000000000 0.00000000000000 10.64724706566061

ATOMIC_POSITIONS angstrom
Si 1.3551603120 1.4323954422 4.7100439789 
Si 7.3197587655 0.4279873903 8.0863179652 
Si 4.7788358422 8.3500076860 1.4077257708 
Si 7.1066541154 1.2558960276 0.5571651153 
Si 10.6256225069 7.9150250544 4.0916625166 
Si 8.1827181401 7.6713308636 3.6344484331 
Si 1.5093856858 7.5013688587 8.1243073427 
Si 2.6992900761 0.3776727596 9.5942023891 
Si 3.2904784694 9.8774404556 7.2246362602 
Si 9.7107684500 4.0895011254 0.9737226859 
Si 1.3467702813 3.1622643202 2.8866283882 
Si 7.2361778760 2.5974491579 6.7138558767 
Si 8.6846826030 10.3658083840 3.8530683571 
Si 4.1812803952 6.1938443300 0.2129651711 
Si 7.5953201668 6.0874889791 1.0083773456 
Si 5.0605832941 1.0519895344 6.8838817651 
Si 1.2408088785 6.2622528924 5.2718992066 
Si 0.0083263176 8.6541569457 0.1322462616 
Si 4.3332166108 2.1652880468 8.8866076436 
Si 10.1830164464 5.8802722567 2.6199680854 
Si 4.2809812167 1.7472558325 1.8295696995 
Si 7.2482518542 8.9821453916 1.8365010574 
Si 3.3543938935 6.9241922425 6.7329889797 
Si 0.6978961681 10.3699288686 6.9518963793 
Si 4.1809077415 4.5806905743 7.9413344019 
Si 6.5286257195 7.0476151305 5.0989985615 
Si 2.5406141531 8.5404230525 10.2581966579 
Si 10.6380478442 5.5432975343 8.3084088917 
Si 8.8138443572 7.2145426700 7.7118223442 
Si 5.9227760670 9.8323387170 9.8320831831 
Si 2.7161766099 5.7533144827 3.1086341368 
Si 9.3340369071 9.0816226209 6.1215175807 
Si 9.6755473567 1.5820531470 5.3991763980 
Si 3.2635622288 2.2135626650 5.8513117447 
Si 9.8096707280 9.9613407624 8.8128009270 
Si 9.6070642636 3.8269187183 4.1264896618 
Si 6.0770333824 4.7084362446 2.3197157182 
Si 1.5007614156 9.8025796614 3.7525689921 
Si 5.9331464856 3.2973459438 0.1195973321 
Si 3.8453384557 8.6020173768 4.6500148000 
Si 0.7723630141 1.8374167206 8.8964882889 
Si 4.9547922472 4.8242037620 5.5895598228 
Si 7.9433041426 8.0107544528 9.9446778208 
Si 7.1378399021 3.2860598619 3.8674740824 
Si 6.6812646534 4.4493248400 8.1436001544 
Si 5.7823495254 10.1141713468 4.6960002601 
Si 6.0186545268 6.5939252857 9.1982099763 
Si 4.9773963527 8.3382424780 8.0760114300 
Si 1.0260208988 1.4159986818 1.2107410528 
Si 3.0062289145 10.2932793370 1.7821575083 
Si 9.1010857885 1.9515339147 1.8954548644 
Si 1.1207398734 6.4041168123 1.2198550963 
Si 6.4561286142 0.9905464010 3.0008627020 
Si 6.7710315934 8.8818483242 6.5627501463 
Si 8.8939968331 1.9289617509 9.4513695697 
Si 10.3585363142 10.0637459847 1.9259592272 
Si 4.6415502386 6.9071779417 3.3216536088 
Si 3.8593608801 3.4390820967 3.6381536751 
Si 0.1976554945 4.2536603807 6.3626883740 
Si 2.1313020341 3.3393706279 7.4510925580 
Si 8.1767450345 5.3791276318 6.1204315615 
Si 8.6049347225 4.3872726841 9.4827683013 
Si 1.0350018517 4.0678020359 10.0496064406 
Si 3.2481237206 4.1566533127 0.7302701876 

