&CONTROL
   calculation      = 'scf'
   tstress          = .true.
   tprnfor          = .true.
   outdir           = './'
   disk_io          = 'none'
   pseudo_dir       = '/home/ppiaggi/pseudos'
/
&SYSTEM
   ecutwfc          = 30
   occupations      = 'smearing'
   degauss          = 0.01
   smearing         = 'fermi-dirac'
   input_dft        = 'PBE'
   ntyp             = 1
   nat              = 64
   ibrav            = 0
/
&ELECTRONS
   electron_maxstep = 100
   mixing_beta      = 0.5
/
&IONS
/
&CELL
/

ATOMIC_SPECIES
Si 28.085 Si_ONCV_PBE_sr.upf

K_POINTS gamma

CELL_PARAMETERS angstrom
10.61021754304803 0.00000000000000 0.00000000000000
0.00000000000000 10.61021754304803 0.00000000000000
0.00000000000000 0.00000000000000 10.61021754304803

ATOMIC_POSITIONS angstrom
Si 5.6938459219 6.4487947307 8.9636497132 
Si 7.2594153510 2.8080895647 9.0891579765 
Si 9.9305057868 1.1546144833 7.6639192846 
Si 0.1920608529 9.8537726935 2.4717881095 
Si 10.1636971480 0.7832823338 0.2413654728 
Si 4.1264833660 10.5164126097 6.5939743373 
Si 6.1710298456 7.0585214920 3.6931726917 
Si 3.6790929331 8.6289928417 0.4378189557 
Si 6.0319935550 10.4780460631 9.4835609830 
Si 3.7596138740 4.9627382718 7.7777456984 
Si 1.4184799833 0.4312077291 9.1083412498 
Si 3.4180815815 1.9388793232 7.3865045367 
Si 5.1424329162 3.5157804646 6.2026589041 
Si 2.7470595934 3.4881408479 1.0956641146 
Si 0.9430923694 7.9621194487 10.5030331254 
Si 4.0428960722 2.3881902055 3.0591273118 
Si 3.9183851693 7.8697150641 6.6659010021 
Si 9.3359304161 8.1568275508 9.1867507575 
Si 0.6894625462 2.4229917190 2.2367930113 
Si 6.0561424101 7.8293962374 1.3738003573 
Si 8.9769124851 3.1826408542 0.9926208649 
Si 2.0792631115 1.0926932537 3.8274980458 
Si 8.7499811523 0.7031083469 2.6014449679 
Si 1.0006018705 7.9734193303 4.2105056787 
Si 8.5594640861 5.3011617706 1.8854568778 
Si 1.6145037524 6.2194442683 6.2194654887 
Si 0.8992074486 9.1251478344 6.1984678682 
Si 8.4345393848 5.5544276634 5.2424766574 
Si 6.4253779806 2.4262914967 4.2329675092 
Si 9.8592581760 3.4709841262 4.1957893070 
Si 8.5673050369 10.4673615740 9.0533272719 
Si 7.6330541618 9.0189501670 6.6150462294 
Si 6.2619594100 7.3413792815 5.9542631012 
Si 3.6227632881 4.2351744345 4.6235720579 
Si 3.0674987734 9.7152881342 4.3091700916 
Si 9.5464371322 7.3570717933 6.9012568476 
Si 3.6016171246 6.7276312477 3.9019817730 
Si 4.9305362616 8.6067644359 8.8410804801 
Si 1.1220305052 5.9146127183 0.8428587053 
Si 1.4399126228 1.2212360392 6.0392721642 
Si 0.0267009308 5.5910435241 3.1971344114 
Si 2.1030193886 3.0909049133 9.3005028998 
Si 6.8699567059 5.0908778691 6.9451937585 
Si 5.9444804807 0.1893478202 4.9074484282 
Si 7.4028442717 10.2749983300 1.0461037884 
Si 4.8607846915 3.3302077598 9.6274249227 
Si 8.0367411086 6.0644396002 10.3007705484 
Si 4.3527144244 1.2114428084 0.4234028531 
Si 4.9628125434 5.1674836398 0.7954331549 
Si 2.2406869612 0.0666695141 1.0224355762 
Si 9.3215641816 5.2026565109 8.2966277771 
Si 6.5956719722 2.2619392269 1.2772261572 
Si 3.2117977320 6.4795325309 1.2966110246 
Si 8.5592094409 1.9942328281 5.8625165501 
Si 6.6610309122 1.2505626805 7.4125738412 
Si 6.3630960036 4.6585221145 2.7050961830 
Si 8.9851247935 7.8364626423 3.8487503116 
Si 1.2784675526 3.9802427376 5.6715538548 
Si 1.8565440350 8.7800717293 8.4428365749 
Si 9.8741230908 3.1522107503 9.3156012393 
Si 4.9688179265 10.2093847447 2.6442465854 
Si 8.7325697853 8.0895481613 1.3125369612 
Si 8.1646685016 10.3598800703 4.7843805149 
Si 1.0174413468 5.7122122084 8.7469466301 

