&CONTROL
   calculation      = 'scf'
   tstress          = .true.
   tprnfor          = .true.
   outdir           = './'
   disk_io          = 'none'
   pseudo_dir       = '/home/ppiaggi/pseudos'
/
&SYSTEM
   ecutwfc          = 30
   occupations      = 'smearing'
   degauss          = 0.01
   smearing         = 'fermi-dirac'
   input_dft        = 'PBE'
   ntyp             = 1
   nat              = 64
   ibrav            = 0
/
&ELECTRONS
   electron_maxstep = 100
   mixing_beta      = 0.5
/
&IONS
/
&CELL
/

ATOMIC_SPECIES
Si 28.085 Si_ONCV_PBE_sr.upf

K_POINTS gamma

CELL_PARAMETERS angstrom
10.59396050160849 0.00000000000000 0.00000000000000
0.00000000000000 10.59396050160849 0.00000000000000
0.00000000000000 0.00000000000000 10.59396050160849

ATOMIC_POSITIONS angstrom
Si 5.6876961081 5.2602827716 10.4470752393 
Si 4.4435413868 2.5313103283 9.3006921794 
Si 5.5723172842 9.1955577154 3.3312285039 
Si 4.2607002225 7.2390121202 0.1654045647 
Si 4.0271987390 9.7052225612 10.4058859208 
Si 0.0301988260 9.7124582362 7.8814616669 
Si 8.8522710193 1.3686655391 0.6961090160 
Si 2.9660229035 9.1490396348 2.8082894256 
Si 7.9660650354 4.5100078949 8.0985425115 
Si 0.8944883422 0.9940800461 9.6607067391 
Si 3.3536453243 6.1969266015 4.9765447275 
Si 5.4531458226 1.0054293560 1.8719951965 
Si 7.8498810706 3.5171419167 10.2991835507 
Si 6.8897186485 1.7748697666 8.9470763718 
Si 10.3202655320 3.0449373153 9.4765307358 
Si 6.2793688021 7.4479885850 1.9214478041 
Si 2.1334541417 9.1226182973 5.2973086636 
Si 6.2308060871 5.8728043799 3.8713297982 
Si 3.7842156610 0.1538783357 8.3169370072 
Si 8.3367159315 9.6031285638 3.1051533868 
Si 0.3354122053 9.3681121440 2.6292408992 
Si 1.6763353400 3.5267294510 5.7750750943 
Si 8.4644790951 7.4204019119 3.7450497890 
Si 1.5061433645 4.0610888187 0.0325907304 
Si 2.9714787932 6.5441542509 2.1143108550 
Si 7.3949870006 7.1380834585 9.7172573003 
Si 5.1777134435 4.8400733283 7.9683533309 
Si 1.7108398693 6.5093213087 6.4793298065 
Si 4.1472283115 0.7298391269 4.5310157186 
Si 2.2429639114 0.6730385483 0.9483098991 
Si 9.4330637159 4.3811747413 3.0375427309 
Si 8.1397636118 10.4263746404 8.1182896539 
Si 9.3575711533 6.2714127377 8.4561416482 
Si 10.3829923722 1.0037163126 3.7544572259 
Si 2.4415794828 3.7551352394 8.0721529559 
Si 6.5206250646 6.6807633715 6.7160412600 
Si 8.7595950528 6.9389381889 6.1586082463 
Si 7.8702002868 8.9681159774 0.7947737484 
Si 6.2667196132 8.4816942810 8.4892795567 
Si 10.2935793455 8.9723111857 5.8410436863 
Si 6.4979010193 0.0478722006 10.5883774844 
Si 5.1710498423 0.9029031250 6.5147771984 
Si 5.0147783310 7.9348340399 5.3872831701 
Si 1.3744498415 1.1076727282 5.2941834452 
Si 3.4029496165 2.5962301182 0.8641493581 
Si 3.8815847519 3.7532707024 4.6244650442 
Si 5.5988975311 3.4279195814 6.1259682540 
Si 3.6200410551 8.6490152931 7.4002098231 
Si 6.8908522022 9.9195383821 5.7140644758 
Si 10.0373750048 9.6140933129 0.2027726416 
Si 1.9138837163 0.9899399263 7.5998000390 
Si 8.9576067686 6.3273700371 1.3937626315 
Si 7.2506654767 4.1193450075 1.7778254816 
Si 10.4129732804 5.1555508781 5.2754851049 
Si 0.7432468433 7.6311687560 9.0822976837 
Si 7.4381891715 2.0079686795 2.7425433067 
Si 7.7762636391 4.1016107176 5.4846098852 
Si 2.8820763605 6.4835779847 8.7573703211 
Si 0.0377052826 2.4713908877 1.9963153230 
Si 8.4229613639 1.3939003530 5.0829504668 
Si 1.0918983210 6.3188736808 0.6429591162 
Si 0.5792163153 7.1295553203 3.3259315236 
Si 4.4159864955 4.5058868443 2.1736370338 
Si 9.7482022589 2.5891957285 6.8868159033 

