&CONTROL
   calculation      = 'scf'
   tstress          = .true.
   tprnfor          = .true.
   outdir           = './'
   disk_io          = 'none'
   pseudo_dir       = '/home/ppiaggi/pseudos'
/
&SYSTEM
   ecutwfc          = 30
   occupations      = 'smearing'
   degauss          = 0.01
   smearing         = 'fermi-dirac'
   input_dft        = 'PBE'
   ntyp             = 1
   nat              = 64
   ibrav            = 0
/
&ELECTRONS
   electron_maxstep = 100
   mixing_beta      = 0.5
/
&IONS
/
&CELL
/

ATOMIC_SPECIES
Si 28.085 Si_ONCV_PBE_sr.upf

K_POINTS gamma

CELL_PARAMETERS angstrom
10.63910124480272 0.00000000000000 0.00000000000000
0.00000000000000 10.63910124480272 0.00000000000000
0.00000000000000 0.00000000000000 10.63910124480272

ATOMIC_POSITIONS angstrom
Si 3.9483087803 7.8946280486 8.2910303219 
Si 7.7987697464 4.1350143680 4.8622926900 
Si 1.7328861717 6.8047478780 1.8266911273 
Si 10.0144370543 0.7733073296 5.9746107251 
Si 7.5869558797 10.0237994634 8.3213943168 
Si 2.9006232852 10.5145918429 8.5004291126 
Si 3.0136318186 2.0319619467 2.9064854300 
Si 8.9415049720 8.0976540176 4.8788896879 
Si 4.6197956553 9.3322153261 5.9813452762 
Si 1.4227563704 7.5440271062 4.2162864624 
Si 9.0398528239 10.0108729554 3.1658028837 
Si 1.6558803568 5.5852940933 7.0998020728 
Si 4.5520139413 0.1781198330 1.3091839646 
Si 6.8507194345 5.1478993629 9.0569817769 
Si 1.8675239979 0.1709341841 3.6199010030 
Si 1.6605509223 0.1602323121 10.4397138484 
Si 5.1819125696 2.6677865544 4.2419160573 
Si 6.7985665602 6.2372582176 4.2649603506 
Si 9.4555544268 5.1224719109 7.2928379258 
Si 7.8156114436 0.3301057778 0.4977269457 
Si 1.5796618355 7.7445954428 8.2975520909 
Si 7.8771905617 1.2937891851 6.3652998011 
Si 4.8092674094 4.2930688561 6.1293990092 
Si 2.3874568757 4.2884195689 9.3808041015 
Si 10.2555510058 3.8652067604 3.9627885971 
Si 4.3891612185 2.5522139976 0.6263696384 
Si 7.4807457320 3.4651659145 7.0905779720 
Si 5.5770168725 2.8578221809 9.3494187528 
Si 5.3121351688 1.0744109174 6.3005076745 
Si 3.7125888531 5.1149607055 0.7687761364 
Si 4.4960203514 7.6468327415 1.9567435009 
Si 7.0818219917 8.4800552337 2.4993589426 
Si 9.9145146154 5.9757065526 2.3460707719 
Si 8.8382737726 7.2505155810 8.2844659964 
Si 9.8942684058 10.3089699332 8.7539163388 
Si 7.9198852749 2.0380900691 9.3206612621 
Si 3.8519398012 3.1852298826 7.8655513849 
Si 9.6518777621 4.5862505691 9.9244728142 
Si 4.6833749244 6.9921130900 4.4261320954 
Si 7.2381742236 8.2743482111 6.5380575271 
Si 5.5430887787 4.5260864516 2.2759484556 
Si 9.1519995901 7.6779946690 0.0242061895 
Si 1.8499482026 4.3803626818 3.3905751757 
Si 10.3815924383 6.1310374307 5.0537752342 
Si 2.4122991771 9.5630731840 5.5055008340 
Si 2.3693597645 1.1815253887 6.6274046993 
Si 5.2940061403 0.3754421799 8.7287016689 
Si 0.0658055010 9.0192236066 6.7479776337 
Si 5.7498490722 6.5210243260 7.0132423451 
Si 10.6242171422 1.1441821434 3.3865429563 
Si 9.9671568884 9.8730327597 0.6216980091 
Si 7.8923725591 3.3277406438 1.0100528662 
Si 7.6627488370 5.8709752399 1.1833659533 
Si 2.5402450087 9.3564618378 1.6070362430 
Si 7.4262628945 1.2812244065 3.5887603537 
Si 6.2736652220 9.2128339710 0.0039093590 
Si 5.4524117187 7.1231868173 10.0517164651 
Si 0.7379504045 6.5489945231 10.3229709904 
Si 5.4774561631 10.2275488914 3.5969524617 
Si 1.5148697089 2.7572933132 0.5747412718 
Si 2.9366153647 5.6678109625 4.8651120518 
Si 0.5053200723 2.7418666164 6.5601549404 
Si 10.3139064762 2.5339253826 8.8073565444 
Si 10.3760494665 3.6010910720 1.5196147481 

