&CONTROL
   calculation      = 'scf'
   tstress          = .true.
   tprnfor          = .true.
   outdir           = './'
   disk_io          = 'none'
   pseudo_dir       = '/home/ppiaggi/pseudos'
/
&SYSTEM
   ecutwfc          = 30
   occupations      = 'smearing'
   degauss          = 0.01
   smearing         = 'fermi-dirac'
   input_dft        = 'PBE'
   ntyp             = 1
   nat              = 64
   ibrav            = 0
/
&ELECTRONS
   electron_maxstep = 100
   mixing_beta      = 0.5
/
&IONS
/
&CELL
/

ATOMIC_SPECIES
Si 28.085 Si_ONCV_PBE_sr.upf

K_POINTS gamma

CELL_PARAMETERS angstrom
10.59956286681602 0.00000000000000 0.00000000000000
0.00000000000000 10.59956286681602 0.00000000000000
0.00000000000000 0.00000000000000 10.59956286681602

ATOMIC_POSITIONS angstrom
Si 8.0982250237 0.4895779095 4.6458414023 
Si 6.2269145978 0.5268862509 0.3336986180 
Si 8.0370125481 7.4923646098 4.1703874104 
Si 3.5296438351 0.6822461637 6.2830180841 
Si 5.2207828914 9.4236897606 9.5573608479 
Si 9.2890223144 9.8236324667 7.2629900693 
Si 9.2481821987 5.2390247391 3.9389353556 
Si 8.2536782127 2.7206745975 4.2288651987 
Si 1.5690850899 8.5870768631 0.3950255689 
Si 0.8145138689 7.3061302902 2.1389705874 
Si 1.2709935834 7.4758822895 5.1584786608 
Si 4.8130813053 4.3568867190 1.4791160002 
Si 0.5298551884 2.7572960872 7.0643436617 
Si 6.2998077916 3.1789254989 7.7036350968 
Si 8.4043086006 10.4582494947 1.6557683150 
Si 8.7429540346 3.4991806914 6.4730576467 
Si 0.8604301153 0.6042132418 7.1081940532 
Si 6.7463673752 7.5063666323 8.8754061722 
Si 4.2088532240 2.0575023472 0.2876615366 
Si 1.9829132233 5.6381830775 3.6479455562 
Si 3.2697319540 9.7374156224 2.2086733128 
Si 2.8903629995 9.5848667136 4.6938892208 
Si 8.7540729761 8.0418141501 10.4711703618 
Si 3.7237324307 2.5332743260 3.8321129611 
Si 8.9431797772 4.8249846144 8.4736085426 
Si 4.5581830174 5.9119697863 9.5190010299 
Si 8.9942060728 3.3863907429 0.6957468269 
Si 8.0370973446 7.8590882859 6.5844060546 
Si 1.7245064802 4.7305425092 6.8458760714 
Si 6.8194831599 2.8722483465 1.9169415440 
Si 7.6442033479 0.7892805495 6.9715338892 
Si 6.6694463475 5.7012928748 6.7864337229 
Si 10.1706091572 6.1568302881 6.2481031240 
Si 2.8403436623 9.7843822854 8.4856814447 
Si 1.4046222724 1.5237719586 4.4697508644 
Si 9.9875123082 7.2858003286 8.5680188491 
Si 6.3211765104 8.4197945619 1.7527967135 
Si 10.5446571312 2.8474983672 9.2825671806 
Si 5.0861366443 8.3265608070 5.5047663797 
Si 10.1050402613 2.0132915705 2.4577312415 
Si 9.8425314873 8.6336831410 2.8308252548 
Si 4.9885464689 0.8191734367 2.8199925016 
Si 7.9604519055 1.8736953275 9.4105145040 
Si 10.3797915303 9.7622079999 4.9301428776 
Si 6.4627866703 4.5836749661 10.0340973870 
Si 6.3540457548 9.7926075462 3.9269896483 
Si 4.0625686569 7.5280215393 0.8140888264 
Si 9.5753271070 10.2532433493 9.6822872959 
Si 5.7460124305 10.0759762599 7.2238246846 
Si 4.1349636713 3.2123565202 6.5002031272 
Si 3.9409704717 6.4924972450 2.7260273768 
Si 1.2317540016 0.5522096665 9.9235863445 
Si 2.5912221362 7.7918128603 6.9866806645 
Si 0.7957070645 4.0110335822 4.3920242699 
Si 7.2715227175 6.1268971226 1.6160729521 
Si 1.7112358275 0.9832302909 1.5517124063 
Si 3.0245322662 2.4803507086 8.5217517572 
Si 4.2345995622 5.9800613782 7.1303259405 
Si 9.3743275964 5.8220218959 0.8764131961 
Si 5.7789134737 6.1974584126 4.2903744620 
Si 2.1575940194 4.6433187064 9.7964021897 
Si 2.4629780251 3.5817830848 1.7584992783 
Si 5.9722706995 3.7254283608 4.2741995291 
Si 1.6774338215 6.9724984494 9.1811187644 

