&CONTROL
   calculation      = 'scf'
   tstress          = .true.
   tprnfor          = .true.
   outdir           = './'
   disk_io          = 'none'
   pseudo_dir       = '/home/ppiaggi/pseudos'
/
&SYSTEM
   ecutwfc          = 30
   occupations      = 'smearing'
   degauss          = 0.01
   smearing         = 'fermi-dirac'
   input_dft        = 'PBE'
   ntyp             = 1
   nat              = 64
   ibrav            = 0
/
&ELECTRONS
   electron_maxstep = 100
   mixing_beta      = 0.5
/
&IONS
/
&CELL
/

ATOMIC_SPECIES
Si 28.085 Si_ONCV_PBE_sr.upf

K_POINTS gamma

CELL_PARAMETERS angstrom
10.58013007446527 0.00000000000000 0.00000000000000
0.00000000000000 10.58013007446527 0.00000000000000
0.00000000000000 0.00000000000000 10.58013007446527

ATOMIC_POSITIONS angstrom
Si 9.3357163354 7.6498995696 7.5002013091 
Si 5.8323178638 9.7419933302 9.5999339237 
Si 1.4807844251 2.5073638661 4.7428078091 
Si 6.7970881849 1.8271673036 5.8732947076 
Si 2.3134618222 10.5775802631 8.6782353121 
Si 3.6667450998 0.5348964621 3.0275888618 
Si 4.1646354410 2.8194353828 2.2046557645 
Si 3.8045301337 7.1420427459 2.8234875726 
Si 1.4566934689 7.5467009808 3.1857829667 
Si 10.1479846616 0.4918416808 9.4695232404 
Si 2.4546219177 3.4372091778 0.1592785682 
Si 4.4607732817 0.9279345402 10.5409730131 
Si 0.4349904099 6.1624179221 9.1861132961 
Si 8.7605064036 2.1510991461 4.6937794864 
Si 10.0997392684 8.6729664074 9.9272831482 
Si 2.5159337714 4.7653858067 3.0292076218 
Si 6.3021073795 4.3030341225 5.3181447025 
Si 6.4229747855 2.1719102619 0.7312054856 
Si 6.1383481262 5.9303533491 3.6684908212 
Si 8.5526385880 4.7589848280 3.3115489729 
Si 9.8159484394 6.3347682410 1.3285046129 
Si 7.7531193186 0.5907532009 8.9354382743 
Si 9.4712372215 1.8042401617 2.2709402794 
Si 0.9137740941 8.8600760077 7.4957999750 
Si 8.5993921828 8.3517113378 1.5464552925 
Si 1.0896475964 6.4344965471 5.3507420832 
Si 6.9695654654 6.8959700806 10.1300619212 
Si 8.0455329536 3.8438882176 1.2030136901 
Si 1.8515545034 5.8365710761 0.8506181237 
Si 2.4958844250 4.7629629569 6.1536364142 
Si 9.7131836360 0.0259857517 5.4334046395 
Si 3.3033916926 2.1080803372 8.2640867005 
Si 4.2299360038 8.9280745037 7.8651628961 
Si 5.2419571858 3.5264208346 9.2798320883 
Si 2.8082098648 6.7939670465 8.5048587206 
Si 9.3854535268 3.1157319255 9.0674677175 
Si 8.0472257744 0.3118249996 1.1500495590 
Si 4.5714837628 5.1207088951 7.0364742080 
Si 8.0538171954 9.7413585224 7.1272094035 
Si 4.6907218288 7.2756063079 5.5150409231 
Si 1.3614511380 4.0416943295 8.2088584215 
Si 2.5255405296 8.4741975037 5.6801861735 
Si 5.6357813675 10.1777148271 2.3795135743 
Si 0.0537384909 9.6607061909 2.2533137827 
Si 8.8310970315 8.5161900399 4.2384424284 
Si 5.8626193563 9.8128907819 6.0349379349 
Si 3.7348282368 0.7439492523 6.0974770837 
Si 6.4435213981 8.5764333006 3.9988871232 
Si 8.8381222378 5.2961697723 9.7106444048 
Si 0.6930598846 1.5799414041 0.5581865025 
Si 6.6662754567 7.2803462062 7.9307068019 
Si 7.8497688068 5.2439885708 7.0805827703 
Si 9.2055595752 6.2693301365 5.1352777342 
Si 0.5175841953 3.6487165581 2.5710033485 
Si 9.9118573186 3.6949728868 6.3881978979 
Si 1.4786049183 10.3656602577 4.5187523945 
Si 3.9549584231 2.9547023458 4.8676004434 
Si 0.5712603692 1.4165841958 7.0675268897 
Si 2.0200430749 8.4328926759 0.1852432654 
Si 4.6358215338 8.2202638017 1.0165854501 
Si 7.2123053897 2.5422465549 8.0043445072 
Si 2.2133208911 0.2433313536 1.0955724692 
Si 4.4294560967 5.9417481492 10.0731619817 
Si 5.7168145838 4.9213898247 1.4781499727 

