&CONTROL
   calculation      = 'scf'
   tstress          = .true.
   tprnfor          = .true.
   outdir           = './'
   disk_io          = 'none'
   pseudo_dir       = '/home/ppiaggi/pseudos'
/
&SYSTEM
   ecutwfc          = 30
   occupations      = 'smearing'
   degauss          = 0.01
   smearing         = 'fermi-dirac'
   input_dft        = 'PBE'
   ntyp             = 1
   nat              = 64
   ibrav            = 0
/
&ELECTRONS
   electron_maxstep = 100
   mixing_beta      = 0.5
/
&IONS
/
&CELL
/

ATOMIC_SPECIES
Si 28.085 Si_ONCV_PBE_sr.upf

K_POINTS gamma

CELL_PARAMETERS angstrom
10.65219440216136 0.00000000000000 0.00000000000000
0.00000000000000 10.65219440216136 0.00000000000000
0.00000000000000 0.00000000000000 10.65219440216136

ATOMIC_POSITIONS angstrom
Si 9.9099175396 7.4929559342 2.1787146255 
Si 9.2464349591 9.1624743628 3.6828151272 
Si 0.0573164755 1.6847830232 8.1718202834 
Si 0.3714356275 4.8740606794 4.4633120633 
Si 6.5824596176 4.0204044722 3.6024443205 
Si 4.1667443189 9.7867036070 3.5263024349 
Si 7.4592310867 1.8844584073 7.5917230807 
Si 5.6022446888 0.7134381766 8.5878736924 
Si 10.0770930786 8.9051493027 6.0157415711 
Si 10.3647449362 4.2148496289 7.5293544824 
Si 8.7965395285 10.5680633708 7.6524192844 
Si 1.0736133694 2.0015366760 5.9152061603 
Si 4.3858066968 8.3214410060 6.3734316069 
Si 2.3639988949 2.4331848975 2.9481439315 
Si 8.8356863430 5.4203691215 2.6249030924 
Si 5.3785273019 6.9609959979 1.6995895734 
Si 0.0824682238 0.4648063723 0.6221105227 
Si 8.4293477353 1.9723603155 1.0437755077 
Si 3.4281531157 7.2610789664 3.8899470474 
Si 4.1256907617 8.9430604625 1.0001569020 
Si 5.0839089092 2.9560265554 5.9122661546 
Si 1.9461985261 8.6075909042 8.1358904317 
Si 1.8759366518 9.5743201550 10.2381329536 
Si 8.6860336638 4.8107440359 5.4349413235 
Si 8.9605620179 9.9634980775 10.1128205386 
Si 6.7327301241 9.3864367501 3.1915252692 
Si 1.5748204204 8.2682226428 2.0581424370 
Si 10.4539144556 3.4655529702 1.9747357549 
Si 5.4449117774 6.0762247309 5.5639713543 
Si 7.3370504169 7.4136716512 0.2666638390 
Si 4.5744464075 1.6803730147 3.7014671196 
Si 4.1956650267 7.3810120232 8.9389806721 
Si 6.7091994266 8.9626605002 6.9186748296 
Si 7.5827113242 2.4482897092 5.2195219961 
Si 9.9970524898 2.2874841825 4.5252119650 
Si 10.4820362488 7.2372393554 7.8742831894 
Si 5.8813321821 2.7988214704 1.5055492002 
Si 4.3654183967 5.5326965115 0.0283745698 
Si 8.4470729868 3.1291140622 9.3726634628 
Si 10.1684569500 0.3538435284 2.8102938838 
Si 5.8449975470 3.9810978749 9.4806341052 
Si 1.8400068001 4.6820868319 8.5305542343 
Si 3.2174314060 5.6961757390 6.7328899070 
Si 7.0466396409 10.3335659632 0.9776488153 
Si 6.2873405717 6.1191424221 8.1175260486 
Si 0.8722240473 2.4713197535 10.5447244128 
Si 1.8753507811 0.0137544330 3.3354577200 
Si 10.2019581014 8.0309343603 10.3240002926 
Si 3.6890573132 3.2088989983 8.4608356219 
Si 2.3799239255 0.8785823421 8.6863319252 
Si 6.5968613845 0.1786841698 5.0756641107 
Si 8.0171078119 6.9515048927 6.2168976102 
Si 1.3142464409 5.4308189242 1.9079997569 
Si 1.6277724788 6.0055793776 10.2201627016 
Si 4.8559626011 0.8058693979 0.2955078510 
Si 2.7246289364 3.6905486204 5.2649642574 
Si 3.9340577844 4.9038868238 3.2761676059 
Si 1.8128117477 10.2515973273 5.9393333806 
Si 6.0332963874 8.9483546031 9.3101670382 
Si 4.1567206040 0.2859688109 6.2626487851 
Si 6.7446605818 6.7950774179 3.5797018854 
Si 8.4491501647 5.7662032650 9.4116504943 
Si 1.4809426311 6.9278676733 5.4955097009 
Si 3.2343364385 3.3290131424 0.7099485177 

