&CONTROL
   calculation      = 'scf'
   tstress          = .true.
   tprnfor          = .true.
   outdir           = './'
   disk_io          = 'none'
   pseudo_dir       = '/home/ppiaggi/pseudos'
/
&SYSTEM
   ecutwfc          = 30
   occupations      = 'smearing'
   degauss          = 0.01
   smearing         = 'fermi-dirac'
   input_dft        = 'PBE'
   ntyp             = 1
   nat              = 64
   ibrav            = 0
/
&ELECTRONS
   electron_maxstep = 100
   mixing_beta      = 0.5
/
&IONS
/
&CELL
/

ATOMIC_SPECIES
Si 28.085 Si_ONCV_PBE_sr.upf

K_POINTS gamma

CELL_PARAMETERS angstrom
10.62802363640881 0.00000000000000 0.00000000000000
0.00000000000000 10.62802363640881 0.00000000000000
0.00000000000000 0.00000000000000 10.62802363640881

ATOMIC_POSITIONS angstrom
Si 10.0572881391 1.7321340362 2.1539177822 
Si 8.2274506816 3.1620389643 2.5751594991 
Si 3.5362729326 0.2021067487 4.0068605631 
Si 2.7742542659 9.7488841492 6.0958198649 
Si 0.1584935909 6.5878229631 7.3414242351 
Si 2.1531100525 6.5150741413 1.2359009846 
Si 5.2201876255 8.8843156825 0.9216271373 
Si 10.0498910347 6.6630481144 1.9019804819 
Si 3.8142595188 7.3206464489 3.3256148761 
Si 0.3227752034 3.1241181759 5.6040293272 
Si 8.0817511056 8.0308322443 2.2926878869 
Si 1.8205910769 6.1574836581 9.0419611571 
Si 5.7485385646 8.2850545697 4.6679874015 
Si 10.3242853489 0.3658505832 9.4369622835 
Si 2.5485575559 3.7519899283 8.2874565031 
Si 0.9610836750 8.1386429161 5.7489955696 
Si 5.8434361876 10.2609954681 3.1761529797 
Si 9.1483264176 7.3885382639 9.2465824961 
Si 7.6643779893 8.3900594432 0.0469766084 
Si 9.1840046930 10.3427355979 3.1576921026 
Si 4.3307814675 0.1203326092 9.9445141803 
Si 7.3501710986 3.0961452177 5.0037691802 
Si 2.7676117511 2.8976243642 6.0320836072 
Si 6.9452859101 10.3145288232 6.8357853826 
Si 4.9185643147 8.6377349061 6.7575950127 
Si 1.7504567490 1.8711167013 3.3242013489 
Si 4.6316927007 2.7617025699 0.9079945714 
Si 10.4015085686 0.7007502360 6.0927589941 
Si 0.4790581654 8.8618799246 9.7601923664 
Si 4.8735333786 2.1021593071 4.5281332384 
Si 0.7662061080 8.7819784429 1.7111649456 
Si 5.7910931712 3.4791898176 7.1672309277 
Si 2.5124116475 9.3443178015 8.7812451092 
Si 2.9464176207 9.4999014395 1.9987273811 
Si 2.1574781702 6.3751349541 4.5065902345 
Si 8.9054335654 0.9065725418 7.7309519294 
Si 0.2174929385 3.7645947643 9.2226375589 
Si 6.6666935265 6.2700238003 9.4398105939 
Si 8.5204865493 0.0455577673 0.3338559809 
Si 3.5598884011 5.4022775545 6.1561020150 
Si 9.0050181469 3.3007027887 7.5040117407 
Si 6.8343293433 1.2774778131 1.6064364007 
Si 6.5251176237 6.1653483956 2.1965786691 
Si 7.5603083819 4.5349458016 0.5050883209 
Si 6.5983447065 0.8501143546 9.4425738800 
Si 9.6374386934 9.1058780912 5.2084861715 
Si 3.9783030636 3.7113696220 2.8922147002 
Si 4.7772753685 6.5599562851 0.5118073574 
Si 8.0184080847 7.1161739022 4.5829632124 
Si 3.8735638907 6.9768511403 8.2693144667 
Si 9.8999083651 4.7052173683 3.5871386537 
Si 6.5048499826 6.1529242359 7.0499613149 
Si 5.5201742207 5.0781334616 4.2669389295 
Si 4.7283439477 1.1973637709 7.1314251161 
Si 7.5351305939 0.8295395637 4.6888183278 
Si 7.1888802119 3.1213336338 9.1137853408 
Si 2.7082648671 1.3773918633 0.9212243352 
Si 8.1097028077 8.3534140177 6.9585177995 
Si 9.2742684977 5.4619751633 5.9644149807 
Si 1.6783243525 0.8351288413 7.6432813624 
Si 0.6505817133 2.1125747703 0.0673640273 
Si 9.6143546260 5.5705085406 10.4219675141 
Si 4.6255178190 4.4009370516 9.6400744432 
Si 1.7129079415 4.6369535724 2.9833818870 

