&CONTROL
   calculation      = 'scf'
   tstress          = .true.
   tprnfor          = .true.
   outdir           = './'
   disk_io          = 'none'
   pseudo_dir       = '/home/ppiaggi/pseudos'
/
&SYSTEM
   ecutwfc          = 30
   occupations      = 'smearing'
   degauss          = 0.01
   smearing         = 'fermi-dirac'
   input_dft        = 'PBE'
   ntyp             = 1
   nat              = 64
   ibrav            = 0
/
&ELECTRONS
   electron_maxstep = 100
   mixing_beta      = 0.5
/
&IONS
/
&CELL
/

ATOMIC_SPECIES
Si 28.085 Si_ONCV_PBE_sr.upf

K_POINTS gamma

CELL_PARAMETERS angstrom
10.56661102648529 0.00000000000000 0.00000000000000
0.00000000000000 10.56661102648529 0.00000000000000
0.00000000000000 0.00000000000000 10.56661102648529

ATOMIC_POSITIONS angstrom
Si 9.1788134675 1.1589881638 8.0595240613 
Si 5.4574749628 8.3361579380 9.1286431983 
Si 2.8566093247 8.4163796489 7.3544986404 
Si 0.1872709906 5.6072355409 4.9501614008 
Si 10.0378366775 7.7510107191 4.6459803692 
Si 8.8293862075 8.0226148890 2.7233960595 
Si 0.0499148742 7.7168594323 9.5082275662 
Si 3.0666207189 10.4829657336 6.0448306033 
Si 8.5684437482 1.3188292888 2.7696566826 
Si 7.5204155667 3.7171224269 2.7405879357 
Si 3.3204835488 2.6897414034 1.2768164434 
Si 0.2526529529 3.4472511813 8.0557200813 
Si 9.5854483596 0.1581050308 5.6449372090 
Si 6.6586873043 8.2010638160 0.7109067966 
Si 3.8555344647 2.7028545677 9.1484872938 
Si 7.4238684418 2.3258801527 5.2618024598 
Si 0.1908646950 2.7708824095 2.6750538141 
Si 2.4213283501 1.6081430987 7.6728072309 
Si 0.0226056793 2.9092521809 10.3722910497 
Si 7.1330753063 5.2090011045 5.0152094583 
Si 0.5278920370 8.4988626145 6.9401923886 
Si 8.2226619689 1.3978147062 0.0786216090 
Si 8.7523239132 8.4765353654 7.9694859687 
Si 9.9890612010 6.5043936501 1.4222130111 
Si 5.2841825420 1.7775681399 4.3721255112 
Si 1.9936130690 7.0410401243 0.9103484097 
Si 7.9685561070 3.9929426745 8.6821193496 
Si 10.0777890338 2.4271928192 5.0458948967 
Si 5.5234740153 10.1450983460 5.7649316438 
Si 3.5510787012 5.1426322206 8.5560279802 
Si 3.2620818897 5.0273716276 2.7350087650 
Si 9.0935514831 4.4757099991 6.3432633985 
Si 10.2393736496 10.0848580966 2.5360500460 
Si 6.1904068034 6.0599197239 8.1043793251 
Si 6.6251594475 6.7100410339 2.8653584787 
Si 5.4826129304 4.4294071096 6.3631603271 
Si 4.2499332213 6.5924980528 10.5242706161 
Si 4.7054492560 8.0668995558 3.9611266087 
Si 6.2707447471 2.3276130769 7.5521682328 
Si 8.2822787883 6.3550980029 9.9899170965 
Si 0.6886841570 10.4798274501 8.7170208658 
Si 3.8835148507 10.0247023800 3.0295107810 
Si 2.6294271877 5.9261569949 5.9243606710 
Si 5.6030722961 1.9088477153 1.8437151250 
Si 5.2087686391 7.7273520771 6.4838415916 
Si 1.1992258186 5.6054814834 7.8129099265 
Si 6.8693326951 9.9419235492 7.9674571794 
Si 7.5627559771 9.9731584514 4.5489366135 
Si 5.4254158649 4.9763771628 1.7676883586 
Si 1.2483922597 0.3501669228 0.6456833334 
Si 3.7154951688 9.9645360968 9.4008073985 
Si 6.3837652186 10.0181088147 2.3254680549 
Si 7.7915970721 7.6264726416 5.8817243955 
Si 2.7485868602 9.2497048609 0.9383900821 
Si 5.8237982339 1.1610486530 10.0593185977 
Si 3.5317735029 4.0801172155 4.8563510281 
Si 2.3729966713 7.3902349189 3.8215945101 
Si 1.6197241044 4.6789376290 0.0196245213 
Si 8.7093389396 4.2183601875 0.7327839081 
Si 1.3229502671 9.7595755427 4.5816614079 
Si 2.3392997487 1.5734846146 3.3538951729 
Si 0.9340197318 4.8851978762 2.8950612223 
Si 9.2157860395 9.8292200760 0.1302218576 
Si 1.8282139066 2.6811613152 5.5398099959 

