&CONTROL
   calculation      = 'scf'
   tstress          = .true.
   tprnfor          = .true.
   outdir           = './'
   disk_io          = 'none'
   pseudo_dir       = '/home/ppiaggi/pseudos'
/
&SYSTEM
   ecutwfc          = 30
   occupations      = 'smearing'
   degauss          = 0.01
   smearing         = 'fermi-dirac'
   input_dft        = 'PBE'
   ntyp             = 1
   nat              = 64
   ibrav            = 0
/
&ELECTRONS
   electron_maxstep = 100
   mixing_beta      = 0.5
/
&IONS
/
&CELL
/

ATOMIC_SPECIES
Si 28.085 Si_ONCV_PBE_sr.upf

K_POINTS gamma

CELL_PARAMETERS angstrom
10.66591764116126 0.00000000000000 0.00000000000000
0.00000000000000 10.66591764116126 0.00000000000000
0.00000000000000 0.00000000000000 10.66591764116126

ATOMIC_POSITIONS angstrom
Si 9.7258983217 4.3214671870 6.9971192865 
Si 2.0029206761 4.9372639420 9.6075066359 
Si 5.2928016407 8.0212180347 1.1489753120 
Si 3.0548254716 0.8482454977 6.4637167452 
Si 5.8927595080 0.2406348345 4.2781635614 
Si 2.4320638724 7.2539865810 7.2650364717 
Si 7.0006923689 4.4011415918 0.9439337112 
Si 0.3889465525 7.5945919950 8.3827393131 
Si 8.3846591783 9.5231818910 10.5345455336 
Si 9.8931399103 9.3586601114 7.1019759228 
Si 4.0052013971 9.4856698587 2.9284983431 
Si 8.6991970896 2.1981389667 8.3079818964 
Si 9.5380395143 6.5833563434 6.1300761755 
Si 1.5349855373 3.4550320333 3.4482698416 
Si 6.5907264925 7.2565677331 5.1801055549 
Si 8.2615104932 0.9872373369 2.5185218008 
Si 0.6898992844 7.2078671531 2.1011751094 
Si 6.1973674499 10.3813296267 1.0058621623 
Si 10.3964325660 5.5012243373 9.1115734633 
Si 3.1603860585 6.2969551229 0.3368094139 
Si 8.1512355707 8.2714937921 8.5035521623 
Si 5.5862636986 1.3115345627 9.6093305078 
Si 0.0521576172 1.3380073703 1.9492817763 
Si 7.9597503513 9.3161350978 5.2937722392 
Si 4.4320727529 7.4243106198 8.8579806055 
Si 5.2666701424 2.6107499906 2.7661204129 
Si 8.0213353598 1.9428395620 10.5903816124 
Si 3.7987732271 7.9600063334 4.5979491041 
Si 8.5333634021 1.0340671149 5.3787689368 
Si 6.0786664525 4.7824588134 7.0633546350 
Si 10.4270650815 5.0845389328 2.5775789868 
Si 1.7834267569 0.1596175907 4.6674268916 
Si 2.0741263423 2.6167549022 10.2773689274 
Si 3.8592809779 4.1575213669 3.9592739557 
Si 1.2592715663 6.3287182256 5.0921543980 
Si 4.0631173299 9.9853361024 9.4668551799 
Si 10.2312388336 3.5315386606 0.5098223305 
Si 7.5112271827 3.2859665728 3.1785607822 
Si 7.7296225123 3.4657086169 5.8462561071 
Si 0.2188336988 1.4464904187 6.0447595003 
Si 6.4157201158 6.1819018693 8.9137206911 
Si 1.4495728689 8.0273829351 10.4831784742 
Si 2.4017513344 1.0954964009 2.4269335660 
Si 8.5972415828 5.9319674212 10.6191262605 
Si 10.5522082932 0.6074837388 8.2770080716 
Si 8.6031078375 5.5852184387 3.9516371587 
Si 4.1930282068 2.5885435501 0.3566394879 
Si 9.0289765971 7.8298288085 1.5157228901 
Si 0.4304220398 8.5269531856 4.7482532155 
Si 6.6873917041 6.4878430509 2.5066079708 
Si 1.1986251586 3.6979696394 5.7477563576 
Si 2.6125418648 9.8750931777 0.4478810804 
Si 10.5110271852 10.4024268118 10.3753887105 
Si 2.1306450398 0.9619719112 8.6195866803 
Si 3.9025739376 9.1822458336 6.6334114949 
Si 5.0235725476 2.0520478927 5.8519730389 
Si 2.7873882527 4.9022797321 7.1894257815 
Si 6.6540713774 0.9026139463 7.4114368572 
Si 4.4380030031 5.6930615320 5.4521077866 
Si 4.9085939554 4.6577955680 10.3593685022 
Si 4.5205145420 3.3041839601 7.9957691552 
Si 9.4724121230 9.4556559664 3.1425206465 
Si 2.8651641241 6.3038453057 2.6631516440 
Si 6.3549777149 9.3768135032 7.1203532989 

