&CONTROL
   calculation      = 'scf'
   tstress          = .true.
   tprnfor          = .true.
   outdir           = './'
   disk_io          = 'none'
   pseudo_dir       = '/home/ppiaggi/pseudos'
/
&SYSTEM
   ecutwfc          = 30
   occupations      = 'smearing'
   degauss          = 0.01
   smearing         = 'fermi-dirac'
   input_dft        = 'PBE'
   ntyp             = 1
   nat              = 64
   ibrav            = 0
/
&ELECTRONS
   electron_maxstep = 100
   mixing_beta      = 0.5
/
&IONS
/
&CELL
/

ATOMIC_SPECIES
Si 28.085 Si_ONCV_PBE_sr.upf

K_POINTS gamma

CELL_PARAMETERS angstrom
10.58287721710138 0.00000000000000 0.00000000000000
0.00000000000000 10.58287721710138 0.00000000000000
0.00000000000000 0.00000000000000 10.58287721710138

ATOMIC_POSITIONS angstrom
Si 5.4402232793 6.9672266330 1.2802529885 
Si 4.7719886632 9.7198118314 7.3712597194 
Si 3.6294824046 3.5510527016 2.3164013310 
Si 3.0215066914 7.2322430443 8.6039320919 
Si 1.1693656010 4.1671137330 3.3855788334 
Si 3.1131332423 9.7475918841 1.6436054948 
Si 9.6780200493 9.4005793402 4.2454481902 
Si 9.3251022598 8.3478370461 9.4217450946 
Si 5.4372177422 9.4657275323 2.3312702735 
Si 5.3355586237 7.6009293208 9.5664871063 
Si 9.3782812179 4.5969161254 7.9107007198 
Si 2.3707973199 1.5501163575 1.6437324894 
Si 7.8237518006 3.0216654345 10.4556604501 
Si 10.1733622003 9.0552706394 6.9407165256 
Si 0.9114026774 4.6682447179 9.6547588852 
Si 6.8826906098 1.6845823954 8.3966452758 
Si 3.6285934429 0.9917309486 4.2956216111 
Si 8.5623308015 6.0279962800 9.8243283268 
Si 7.3179431840 2.1114639137 4.6513756116 
Si 9.5014024114 0.4490177226 0.0127090831 
Si 1.7987822235 7.9500901888 6.3580444718 
Si 10.0357318821 6.2173239534 6.3003360423 
Si 6.4124192949 0.8537884355 0.6680525906 
Si 2.0897161010 2.1654789190 7.6056916155 
Si 7.0075368123 4.2767205923 7.4465039764 
Si 5.4237245738 1.6249796309 3.0239195874 
Si 10.3587530434 1.0740667916 2.9946367661 
Si 5.8929376009 3.4943178968 5.7726526185 
Si 1.9040712689 7.8256990500 1.7390947960 
Si 0.9633900034 7.5926005964 10.0577231010 
Si 5.1301767255 7.4419215906 6.8350888281 
Si 4.5840685125 1.3989082078 9.2662297139 
Si 6.9092853802 9.4116066982 9.2745796040 
Si 4.1208771424 7.2787971212 3.7141560052 
Si 2.5535847752 5.8969167628 4.6529524603 
Si 9.9982049995 3.0264912265 1.0156334351 
Si 7.7522750478 7.2005049955 7.1221282068 
Si 6.5661779180 4.5820895144 2.1076752437 
Si 3.1962088285 5.0051506141 9.7331145081 
Si 7.7423483090 8.6105146415 3.7645410837 
Si 3.3840654820 9.8872012004 9.9959931781 
Si 3.7060601042 5.0345392641 7.1495907732 
Si 5.0090768615 4.5969796227 4.0025499923 
Si 10.5022039441 5.4818880669 1.2454670710 
Si 6.1577211889 5.2591819988 9.2276762922 
Si 9.1887418869 5.2865281535 4.0920176363 
Si 1.1634497726 3.9604936382 6.4146946135 
Si 0.3649801529 7.2032247949 3.5834045572 
Si 7.1047828711 6.3999949970 4.8181617565 
Si 4.3064796431 1.9726694790 6.5379322187 
Si 4.9418967569 3.5248389147 0.0608871025 
Si 8.0986420363 9.4538747098 1.0756753890 
Si 1.3188275759 1.9700237597 4.5045276073 
Si 6.2320659014 10.0482302601 4.9027612770 
Si 1.1582959114 10.1094204562 9.5075828117 
Si 8.3450220008 3.3566240813 3.0255705162 
Si 3.2592510281 5.8228366223 1.4025593005 
Si 7.8391287212 6.8159232374 1.8068040444 
Si 7.8253180664 9.8899421656 6.9662000939 
Si 1.7346499875 10.4052753716 6.7731895792 
Si 3.5890875623 9.4630183157 5.0072777724 
Si 9.5536500762 1.8035656840 8.1251309780 
Si 9.3983569359 1.1522848372 5.8670942148 
Si 1.7149975845 1.9079446020 9.9265906694 

