&CONTROL
   calculation      = 'scf'
   tstress          = .true.
   tprnfor          = .true.
   outdir           = './'
   disk_io          = 'none'
   pseudo_dir       = '/home/ppiaggi/pseudos'
/
&SYSTEM
   ecutwfc          = 30
   occupations      = 'smearing'
   degauss          = 0.01
   smearing         = 'fermi-dirac'
   input_dft        = 'PBE'
   ntyp             = 1
   nat              = 64
   ibrav            = 0
/
&ELECTRONS
   electron_maxstep = 100
   mixing_beta      = 0.5
/
&IONS
/
&CELL
/

ATOMIC_SPECIES
Si 28.085 Si_ONCV_PBE_sr.upf

K_POINTS gamma

CELL_PARAMETERS angstrom
10.56574981750845 0.00000000000000 0.00000000000000
0.00000000000000 10.56574981750845 0.00000000000000
0.00000000000000 0.00000000000000 10.56574981750845

ATOMIC_POSITIONS angstrom
Si 3.7487491668 3.4517459394 4.8227365042 
Si 9.7108644340 9.1732579518 9.2547410144 
Si 8.3185733176 8.5040867529 5.8976113646 
Si 5.7965710991 9.0134404201 8.7112705410 
Si 6.0637894778 8.0912512102 3.2920974596 
Si 0.1772658110 7.8050144819 6.3008320749 
Si 1.3169784518 6.3144301949 7.5723144080 
Si 8.8664602744 6.5197227139 8.2351672885 
Si 4.8986514166 1.0252591559 2.3500129429 
Si 0.9294256919 8.2741549053 1.0574413732 
Si 0.8648309238 0.2198003500 0.1526972729 
Si 1.0916955341 4.3509018146 6.0524207310 
Si 2.0790754203 5.1535184337 3.8270096756 
Si 9.1446670328 1.5914026718 10.1331774542 
Si 4.9276649656 0.6330680318 8.8635863904 
Si 6.1955760752 1.7008955371 5.8562570199 
Si 2.5406824641 8.2740915108 9.7353981051 
Si 3.1803012608 0.9264387544 10.4990059759 
Si 3.9744335829 6.0508041712 7.8984051446 
Si 8.5375273510 5.9782174700 3.5569068473 
Si 4.0054440586 0.2433757076 5.9737587236 
Si 7.6778979459 4.5658197316 5.1509086935 
Si 1.0696342485 9.4757342376 7.7674743728 
Si 9.6909902586 1.4948105869 6.6709608568 
Si 6.4095325090 3.3580383042 3.3142538370 
Si 6.4056760104 6.5404844123 8.2727496606 
Si 6.8545724571 3.8456687898 8.3499852918 
Si 6.7837185388 0.2043394883 3.8110236962 
Si 0.6787849747 5.3591596224 9.5925491676 
Si 8.1770662303 10.4081088302 0.5924015173 
Si 3.9113983194 3.5771825212 2.1011895347 
Si 3.6444546503 8.7146727125 7.1956771242 
Si 2.6610686175 1.1250304748 3.7641751615 
Si 1.9522124623 3.0426929352 0.1076058224 
Si 6.1183087468 1.5864579008 0.4849996139 
Si 0.2385281416 2.9457099176 8.9202293752 
Si 8.1135977711 3.1056331069 1.3700924761 
Si 9.5431542872 9.9969743733 4.4037939582 
Si 5.2931448176 4.3429775022 6.5895094914 
Si 0.3986795510 6.9076336527 4.0645911260 
Si 0.9689003898 0.1504214104 5.7911403037 
Si 2.2013951060 2.2532835033 6.6099859146 
Si 4.0825951637 9.2225577405 1.3400646151 
Si 8.9916961069 1.2733524708 2.9254870725 
Si 9.9352386971 3.0909995434 4.5982143206 
Si 6.2182501743 8.6198345421 0.1876889232 
Si 6.7540710448 6.1954175890 0.4731205414 
Si 3.9048369888 7.0705786464 5.1274949919 
Si 3.2928581936 6.6679813153 1.9987545902 
Si 3.5505357002 9.1202812822 3.5818948456 
Si 3.9327833971 3.0094530863 8.4128198059 
Si 0.7413807029 0.9529947100 2.3143429715 
Si 1.1190079974 9.1389509622 3.3510860409 
Si 7.6724037560 1.3074270139 8.0289027206 
Si 3.2938302426 5.5483182414 10.2818481199 
Si 5.6298646985 4.0393812470 10.2315868480 
Si 8.4159367021 8.2348080530 2.3089544391 
Si 9.4557015759 7.0540643794 0.2560482679 
Si 6.5714631907 6.8423478846 5.5996783513 
Si 7.8119139166 9.5993429447 7.7693656421 
Si 9.5811804208 4.9460388046 1.6196343553 
Si 9.1675313154 4.3380115998 7.4335544156 
Si 5.3806080946 5.7821277191 2.4066136647 
Si 0.8736850221 3.4713137080 2.5120281506 

