&CONTROL
   calculation      = 'scf'
   tstress          = .true.
   tprnfor          = .true.
   outdir           = './'
   disk_io          = 'none'
   pseudo_dir       = '/home/ppiaggi/pseudos'
/
&SYSTEM
   ecutwfc          = 30
   occupations      = 'smearing'
   degauss          = 0.01
   smearing         = 'fermi-dirac'
   input_dft        = 'PBE'
   ntyp             = 1
   nat              = 64
   ibrav            = 0
/
&ELECTRONS
   electron_maxstep = 100
   mixing_beta      = 0.5
/
&IONS
/
&CELL
/

ATOMIC_SPECIES
Si 28.085 Si_ONCV_PBE_sr.upf

K_POINTS gamma

CELL_PARAMETERS angstrom
10.57382281334108 0.00000000000000 0.00000000000000
0.00000000000000 10.57382281334108 0.00000000000000
0.00000000000000 0.00000000000000 10.57382281334108

ATOMIC_POSITIONS angstrom
Si 3.4618695891 3.3912153050 0.9388444407 
Si 1.1743922046 9.8204062164 10.5148631773 
Si 9.9729970534 7.2019470302 9.3430192640 
Si 0.4023582778 3.9880441599 2.2682330270 
Si 10.1913570684 9.3110123024 8.2033409198 
Si 7.5111573307 9.0656255964 3.9092691800 
Si 4.9444147119 5.1861428753 9.0125767273 
Si 7.8210126345 10.1024312185 0.2235697374 
Si 9.0757870401 8.6868183941 5.9586875176 
Si 7.1150090590 6.2258245772 8.7107363813 
Si 10.3596606061 2.1069293600 7.3602688792 
Si 4.2078633624 9.8014579259 8.1963516229 
Si 1.0151303428 3.1666801776 4.4102569049 
Si 9.8693947375 1.4004922578 3.1934953923 
Si 4.1576377040 7.0270242794 0.1919000807 
Si 6.8261322198 8.3263250529 7.1887297517 
Si 1.8116024888 1.5923331251 10.2297188975 
Si 10.5706929618 3.0477352448 10.5142287480 
Si 9.5634411744 4.6840660466 8.5578283296 
Si 2.4049737036 1.1941441056 2.3750815065 
Si 8.8397687411 8.7028800309 1.8787674113 
Si 1.8082928822 10.4991927719 4.8738767399 
Si 1.6510812847 7.0915140248 7.8877123088 
Si 10.4342377784 6.7870302230 4.6513929341 
Si 5.3215935455 3.4217419315 5.4471999867 
Si 6.0715102071 0.1438748349 3.3625602452 
Si 8.5626288451 4.6375623739 5.0069905953 
Si 2.7434523457 5.4399886395 3.3681326498 
Si 1.9833530927 9.6675933291 7.2446229791 
Si 6.2213729978 7.2369992528 4.8726924718 
Si 3.3624862285 4.5608704370 6.9042199013 
Si 6.5046034157 0.0442922634 8.0214394459 
Si 3.4033223322 9.4248077835 10.4099602812 
Si 1.3599204997 8.5443572793 3.3349942892 
Si 8.7096684252 0.9001368475 9.0418979380 
Si 2.2269845442 5.3672301648 0.3862649195 
Si 2.9692351842 1.8989951343 5.0499837589 
Si 4.9566169035 2.8352754230 9.9856962146 
Si 6.5016321715 7.6824638341 0.2151984419 
Si 1.9165159587 5.9656239454 5.4571393801 
Si 9.6055249892 6.1783375389 2.3106763518 
Si 7.6793762779 5.7513771476 0.9857647220 
Si 7.4349306421 3.1971116397 8.0180981179 
Si 0.1789577216 9.9537949912 2.2496442465 
Si 0.7395278807 7.2459658546 0.6589162277 
Si 3.4036818421 7.6988532595 2.7991869657 
Si 2.3150962097 1.8197443324 7.6483738294 
Si 6.3699563560 2.3770270899 2.1629283256 
Si 5.5015600098 6.2585188373 2.6143142477 
Si 9.8811105332 0.3054248720 5.6571220910 
Si 5.5461075253 0.5412190059 0.0876546649 
Si 4.1165795500 10.0490757086 2.1991753902 
Si 6.6729069534 5.2007770460 6.4112894293 
Si 7.2594474787 3.6364645514 0.0689360378 
Si 8.0294649774 2.6383485469 4.0059667896 
Si 3.8154793716 8.2175627114 5.2310076055 
Si 4.7615933155 0.0810915988 5.4840391854 
Si 4.3013359561 7.3939993740 7.4185517905 
Si 4.8019324495 3.9558997386 3.1631696684 
Si 7.2898895146 1.0994132270 5.9457663062 
Si 8.9722270194 1.8578100945 1.1683756994 
Si 4.6371182733 2.0655751389 7.8060401014 
Si 1.6954067499 4.7074553427 8.7581388289 
Si 10.4920448677 4.2310940511 6.4228466177 

