&CONTROL
   calculation      = 'scf'
   tstress          = .true.
   tprnfor          = .true.
   outdir           = './'
   disk_io          = 'none'
   pseudo_dir       = '/home/ppiaggi/pseudos'
/
&SYSTEM
   ecutwfc          = 30
   occupations      = 'smearing'
   degauss          = 0.01
   smearing         = 'fermi-dirac'
   input_dft        = 'PBE'
   ntyp             = 1
   nat              = 64
   ibrav            = 0
/
&ELECTRONS
   electron_maxstep = 100
   mixing_beta      = 0.5
/
&IONS
/
&CELL
/

ATOMIC_SPECIES
Si 28.085 Si_ONCV_PBE_sr.upf

K_POINTS gamma

CELL_PARAMETERS angstrom
10.67450516519444 0.00000000000000 0.00000000000000
0.00000000000000 10.67450516519444 0.00000000000000
0.00000000000000 0.00000000000000 10.67450516519444

ATOMIC_POSITIONS angstrom
Si 0.9440329552 4.3448758609 9.5908614243 
Si 9.1129424791 7.1531780523 0.5927563393 
Si 3.8016182695 6.3320097189 2.5658628301 
Si 9.4472466318 9.4323236736 7.0389074745 
Si 2.3081589264 2.2545088634 9.0885085368 
Si 3.8887008827 3.3637607422 7.5039956645 
Si 6.2947663704 1.3694536167 0.5942561072 
Si 0.8464669106 9.5094896715 4.7928528192 
Si 8.8861092443 2.2816754791 1.5649038062 
Si 2.6739742184 6.2521217223 9.2402146042 
Si 7.6295171708 9.0685472121 5.5863208116 
Si 5.4852332477 8.3807034483 2.6199505477 
Si 0.7957566064 1.0786267234 7.2777068295 
Si 5.1034168724 6.0791947386 9.6147402924 
Si 2.5484100141 9.5383535334 8.3055335829 
Si 7.0729591460 1.3822203248 9.0781862903 
Si 2.8667451072 9.3683406897 10.5646218090 
Si 7.2695301586 1.1254984756 3.1602513012 
Si 6.7960624820 5.2729173400 6.7138154197 
Si 9.4652758711 0.4677642885 9.3948561605 
Si 2.5850555904 7.6086485132 7.0632560208 
Si 4.6864920497 4.8724953022 1.0346872578 
Si 10.4719671042 0.7243121433 1.2091118746 
Si 9.6580681089 2.6214556530 7.2554398118 
Si 9.3256960415 1.3526732945 4.6566034352 
Si 6.5556833002 3.0481903460 3.5930918111 
Si 8.5424542250 8.6856100138 9.3148720933 
Si 4.2293990640 2.5870303738 1.2120366890 
Si 6.0262278440 7.6546449559 6.8266876373 
Si 8.6253417576 6.2783169580 8.0658909419 
Si 10.6310919527 5.3077802738 7.6755990096 
Si 1.2477215597 1.1340380797 5.0594699347 
Si 4.0536540110 1.2130934650 4.6352757739 
Si 5.9702827624 4.0078924073 8.5879062680 
Si 0.1215142970 8.6615710282 1.5137195540 
Si 5.8322187126 10.1004516264 4.0999920379 
Si 1.2176941767 2.4993926864 2.8167137015 
Si 5.3859176516 0.0196800514 8.3014025494 
Si 6.8887278613 4.7028987641 1.9501253486 
Si 5.2889931447 9.6987379735 0.7305407170 
Si 9.9616830593 5.3532750149 4.8873115154 
Si 3.1908551075 10.6101058755 2.6801974549 
Si 8.8160204434 7.5922738223 3.9334697573 
Si 0.3366397345 5.5088772766 0.8617069016 
Si 9.7406567553 4.1713190814 2.6245512595 
Si 8.1258496374 3.7605534482 5.3712722306 
Si 2.2840985917 1.0833128312 0.5968137187 
Si 7.3827012624 6.9475016868 2.3296573798 
Si 3.1647879659 5.1708583961 6.4738738926 
Si 9.3665046748 3.1575293024 9.8862249823 
Si 1.8396015221 5.1376286615 3.3557228398 
Si 2.0797885629 7.3265533652 0.8602829226 
Si 9.5464554829 9.7996013728 3.4230042458 
Si 7.5532371569 0.8530167870 6.4703406314 
Si 3.8588442917 3.3289191573 3.4982488327 
Si 7.9192872880 10.0199445085 0.7174377620 
Si 4.8851445908 6.0365180670 4.9008681369 
Si 0.2778765836 7.5630256781 6.3556537479 
Si 4.1716606656 8.6501813312 5.6309188942 
Si 5.9728659927 8.4644662903 9.4445459820 
Si 3.5752760620 0.8579975111 6.8888559554 
Si 7.8062229293 5.0318976878 10.2847362836 
Si 2.5116576928 8.5946098573 3.6334200916 
Si 1.2491519434 3.9538794112 5.5000067629 

