&CONTROL
   calculation      = 'scf'
   tstress          = .true.
   tprnfor          = .true.
   outdir           = './'
   disk_io          = 'none'
   pseudo_dir       = '/home/ppiaggi/pseudos'
/
&SYSTEM
   ecutwfc          = 30
   occupations      = 'smearing'
   degauss          = 0.01
   smearing         = 'fermi-dirac'
   input_dft        = 'PBE'
   ntyp             = 1
   nat              = 64
   ibrav            = 0
/
&ELECTRONS
   electron_maxstep = 100
   mixing_beta      = 0.5
/
&IONS
/
&CELL
/

ATOMIC_SPECIES
Si 28.085 Si_ONCV_PBE_sr.upf

K_POINTS gamma

CELL_PARAMETERS angstrom
10.57778930958289 0.00000000000000 0.00000000000000
0.00000000000000 10.57778930958289 0.00000000000000
0.00000000000000 0.00000000000000 10.57778930958289

ATOMIC_POSITIONS angstrom
Si 1.3963633890 9.0792021647 10.4386808024 
Si 6.1819668284 8.7625348862 8.7198852397 
Si 5.2889475437 6.0143406012 7.5949585022 
Si 6.9353169830 5.2676861872 4.5359464562 
Si 5.5466436469 7.4476522082 5.6964568769 
Si 5.6559650994 5.9010101666 10.0574995868 
Si 10.3779854473 10.2846258789 5.2909044348 
Si 1.9537388411 6.8498696010 4.2807149779 
Si 6.9797648537 3.4909031835 1.8427884090 
Si 7.3136104621 8.3799362468 3.8298684420 
Si 2.9063428129 7.8434942398 6.4752677704 
Si 5.8110989574 2.1413465123 8.2456723671 
Si 1.6748448481 4.6365412325 4.9830167213 
Si 1.2375167269 1.9753915758 7.8120253166 
Si 9.1369463166 1.9193610258 8.7170186588 
Si 2.2956024138 2.1804737549 5.2893389219 
Si 1.3436965760 10.1028148362 6.9922043339 
Si 10.1376263408 9.9695029575 8.8891192908 
Si 3.2120303462 3.2002995778 8.7994196375 
Si 9.1256492376 9.9418314607 0.6335376507 
Si 0.0278351352 4.5852072210 8.0742592914 
Si 6.2195497138 9.1888409509 1.5213505475 
Si 9.8757837443 7.2750755757 9.5107125018 
Si 0.9771391542 3.5796719914 2.8047219910 
Si 0.0071332592 8.1199447634 4.4165972594 
Si 9.3653102100 4.5739947643 3.0571397773 
Si 6.3593457773 3.9379840265 6.7515490494 
Si 4.3988371511 4.5538334979 4.6271270000 
Si 8.7796497493 3.0993557344 0.3477458813 
Si 7.0674124159 0.3644058995 9.7080411614 
Si 5.5406354626 9.6235352026 6.2402398697 
Si 10.0963623847 5.4290609409 0.7910483379 
Si 7.7009691066 6.2968521981 2.1550976384 
Si 2.6963313840 10.0995886105 2.3887186930 
Si 8.1916621749 4.7090625560 9.0514037344 
Si 4.7352743179 9.9482098677 3.6127487386 
Si 3.0282729903 5.0806285611 7.1831228532 
Si 4.2929746357 7.3092524129 3.3838876891 
Si 8.6205386425 8.1306812195 7.4846850486 
Si 3.8001554318 8.2442337878 9.1211959883 
Si 4.1498888797 1.0044912018 6.8343202507 
Si 5.0152684009 5.1948052189 1.8831215196 
Si 1.1624884673 1.5143692065 10.4759357763 
Si 5.6393579702 1.1052414716 1.0690125432 
Si 2.8743238447 5.6238932422 10.4137277974 
Si 5.2589595110 3.3051783588 10.0914542905 
Si 1.6523035791 6.5889684277 8.6404248864 
Si 3.8579418948 8.0452021041 1.0855350501 
Si 7.6908144289 7.3929544597 0.0365415021 
Si 1.4937530951 6.9728046684 1.7993031171 
Si 9.6007189111 4.3819761550 5.6084708254 
Si 8.1096208410 0.3056177198 3.2460062054 
Si 1.3061348462 3.8401817865 10.4236814971 
Si 1.0580010645 0.8303204963 3.8095167753 
Si 10.2328581780 1.5665177078 1.9432350963 
Si 3.4782627253 3.2867624276 2.2818301321 
Si 8.6735122113 2.3548486117 6.3606362676 
Si 3.1972637523 1.0361187918 0.8830645272 
Si 4.8951470255 1.8827618748 4.1084874124 
Si 7.2975533779 2.3286368498 4.1548392851 
Si 9.6536924799 8.1984848490 2.2119426781 
Si 8.1487057725 10.2987895388 5.9206954325 
Si 8.9763225859 6.7763539653 5.5909011174 
Si 3.3455960918 10.5478012769 9.0279421977 

