&CONTROL
   calculation      = 'scf'
   tstress          = .true.
   tprnfor          = .true.
   outdir           = './'
   disk_io          = 'none'
   pseudo_dir       = '/home/ppiaggi/pseudos'
/
&SYSTEM
   ecutwfc          = 30
   occupations      = 'smearing'
   degauss          = 0.01
   smearing         = 'fermi-dirac'
   input_dft        = 'PBE'
   ntyp             = 1
   nat              = 64
   ibrav            = 0
/
&ELECTRONS
   electron_maxstep = 100
   mixing_beta      = 0.5
/
&IONS
/
&CELL
/

ATOMIC_SPECIES
Si 28.085 Si_ONCV_PBE_sr.upf

K_POINTS gamma

CELL_PARAMETERS angstrom
10.66481172657832 0.00000000000000 0.00000000000000
0.00000000000000 10.66481172657832 0.00000000000000
0.00000000000000 0.00000000000000 10.66481172657832

ATOMIC_POSITIONS angstrom
Si 2.5707422019 2.1022370227 8.6292084475 
Si 7.5040388159 1.1588384422 4.9052161648 
Si 4.1475452805 8.9265433985 8.9545705237 
Si 8.7255756863 9.9206638235 8.4234415701 
Si 8.8297389024 1.2270932373 2.7574510608 
Si 9.7482351475 6.6779105051 5.0094007105 
Si 0.1176286074 5.3811760473 6.9027247363 
Si 6.2293698536 6.3028610712 10.5908405924 
Si 1.8812834534 8.0733371307 4.0536949373 
Si 4.0974100005 6.8281883672 9.5972107487 
Si 7.3194949138 0.4181534035 1.1426172636 
Si 0.1603657075 1.6554773947 0.2699413155 
Si 9.4995424029 6.4191288486 8.7250637753 
Si 9.6942818650 7.6951415773 1.9256597350 
Si 7.4164273876 9.9265507996 6.2420396499 
Si 7.1921677266 7.6832716418 8.6228415549 
Si 3.9578396095 1.4710934648 6.2806995924 
Si 0.3351267778 0.0309009720 2.1676123186 
Si 4.5805473014 3.8439714147 9.6627140223 
Si 6.3660607455 7.1870379522 6.3693988315 
Si 3.2866816779 4.1434499928 6.9816336783 
Si 9.8344814800 8.7726395004 4.0883875698 
Si 6.0068698865 7.3244433864 2.3038126292 
Si 1.9906510976 0.0586603038 9.8489642943 
Si 5.0000476706 9.4514867613 6.6296309025 
Si 7.3232809220 6.5007146583 4.3951182199 
Si 5.2298423689 1.5425263737 8.3458443999 
Si 5.7937549538 5.1363013053 7.5750024732 
Si 2.2953127742 2.6445533638 4.1751671428 
Si 5.2698780721 1.2136342449 1.9963247775 
Si 10.4574877866 8.5404345547 9.4732856364 
Si 3.9475054069 10.4813876297 0.8276405811 
Si 0.3376735348 3.0661866954 2.5886804152 
Si 0.8585002803 8.5664566953 1.0996807316 
Si 7.0695223917 2.9280347243 8.0255054501 
Si 9.3094101394 4.9807656910 2.3787649260 
Si 1.0375710010 2.8907398777 6.3540948267 
Si 3.1689208268 5.3395619520 4.8205695541 
Si 10.3312910695 3.5512649920 8.6709185262 
Si 9.3994531448 3.9329159445 4.8584936246 
Si 3.6591608923 7.4188589647 5.9652451263 
Si 9.2681586477 1.8936759646 6.6667764417 
Si 4.0058845863 8.2632454331 2.0095491440 
Si 5.1056826308 2.6614997497 4.3537707448 
Si 7.3708993063 9.3376398961 3.6236044100 
Si 2.8693782598 4.2021597813 1.9362498930 
Si 4.9464783213 5.0075770277 3.2473071930 
Si 1.7413717883 8.9110154326 7.7167804802 
Si 7.9755514720 4.5995413311 9.6794257823 
Si 10.2110239876 10.3915152613 6.0548188800 
Si 0.0852384011 5.6646894023 0.2381431129 
Si 7.0608838943 4.0082841689 5.4513931677 
Si 2.0310494045 10.3412946629 5.5914967994 
Si 2.4478089171 0.5240443192 3.3316445241 
Si 1.1094816935 5.6803880051 3.3931271637 
Si 4.6159438115 9.8049292867 3.9338224535 
Si 5.3387834207 3.4259107950 1.3334320750 
Si 6.0589781566 10.0132877134 9.4174233526 
Si 7.7542672935 8.5326599070 0.8203255867 
Si 1.6274396047 3.6438995467 10.5232256861 
Si 8.7944490404 1.3587290084 9.5779607635 
Si 2.3493727049 6.3770028423 7.8164858051 
Si 7.8814131789 3.5123170996 1.2931510811 
Si 2.5885311078 6.5983190152 0.8197752824 

