&CONTROL
   calculation      = 'scf'
   tstress          = .true.
   tprnfor          = .true.
   outdir           = './'
   disk_io          = 'none'
   pseudo_dir       = '/home/ppiaggi/pseudos'
/
&SYSTEM
   ecutwfc          = 30
   occupations      = 'smearing'
   degauss          = 0.01
   smearing         = 'fermi-dirac'
   input_dft        = 'PBE'
   ntyp             = 1
   nat              = 64
   ibrav            = 0
/
&ELECTRONS
   electron_maxstep = 100
   mixing_beta      = 0.5
/
&IONS
/
&CELL
/

ATOMIC_SPECIES
Si 28.085 Si_ONCV_PBE_sr.upf

K_POINTS gamma

CELL_PARAMETERS angstrom
10.60140018704278 0.00000000000000 0.00000000000000
0.00000000000000 10.60140018704278 0.00000000000000
0.00000000000000 0.00000000000000 10.60140018704278

ATOMIC_POSITIONS angstrom
Si 10.1926313986 8.2770643988 2.4366364204 
Si 1.5790361523 6.8713717410 9.6996768913 
Si 6.3820747168 2.2794388584 3.5710710516 
Si 2.8083745179 7.5787925741 4.2122013293 
Si 1.3447346067 4.9909483829 3.6321987251 
Si 0.0389870732 0.4853755663 7.5468611568 
Si 7.3664465284 2.1695659469 6.6177862486 
Si 8.4253567847 0.4090020192 8.6958727132 
Si 6.5330810611 8.4398595001 0.3465322085 
Si 8.9779547694 7.6251418957 8.7048308964 
Si 4.0119090756 7.7840568845 7.0931742357 
Si 10.3060769820 8.7788180683 6.6949220363 
Si 4.0861294783 7.5796936931 1.3905962639 
Si 6.8420058625 4.3312868576 4.6848965609 
Si 3.6477297764 5.3197932153 0.0928307367 
Si 1.7327882592 3.5827855988 7.8689741000 
Si 5.9054463658 8.6373741870 5.5150710067 
Si 6.9947508364 9.7462064368 2.6334302121 
Si 7.3985157639 7.0378243254 3.5022785658 
Si 8.0087641629 6.8986067381 5.9761152994 
Si 3.8812786225 0.4662442795 5.9597785417 
Si 9.7979094655 3.0683314519 7.1908449357 
Si 6.4805829273 0.1508971498 6.9197565315 
Si 8.1890197703 2.8637774353 9.4888044402 
Si 3.2459367093 5.6597695179 7.6741415674 
Si 8.9023985903 9.2759601287 4.5885298332 
Si 10.0485371673 1.9249704418 0.4146578662 
Si 9.0381283169 4.2578509585 3.4692446028 
Si 2.2067768615 1.4657283871 9.2550859717 
Si 5.4631771528 3.6752404098 1.4899101809 
Si 9.7394321420 4.7878043525 5.7245970800 
Si 3.3954906617 3.8331588670 3.2293455180 
Si 1.8908657374 8.9266121883 8.8831676503 
Si 7.5887896945 1.1539518090 1.5332275021 
Si 8.9445709602 4.9259617997 10.3028859606 
Si 10.2078656107 2.3886756859 2.7161211335 
Si 5.5206685460 2.9437331955 9.6589145076 
Si 10.5352368485 5.5865668496 8.4968102219 
Si 5.2948905262 6.0030534573 2.9365454462 
Si 5.2228858161 3.4180080357 6.7269806705 
Si 2.4930358694 3.1255260059 0.3362477902 
Si 0.7283564782 1.2602096430 5.3339248817 
Si 6.4966546500 7.6992138788 8.3394536389 
Si 2.4190911031 9.1756920857 6.2691167978 
Si 4.3540268610 9.2151398958 9.2726312890 
Si 8.4156883077 1.0971707096 4.5080864085 
Si 9.4261925707 9.3829388579 0.1802015402 
Si 6.2626499437 0.3016236171 10.5004006475 
Si 3.7983756730 5.3225495793 5.3061916188 
Si 4.4219818362 0.8917728215 3.6346794527 
Si 3.8966930584 0.8805056534 1.0190224881 
Si 6.5191932268 5.9313985934 0.1845067689 
Si 1.2215039310 9.5822663843 3.8360530493 
Si 0.5182081027 4.3777527946 0.9534231440 
Si 2.1473878177 1.8359928900 3.0976337221 
Si 0.9883452164 6.3779931777 6.1392390441 
Si 9.0096423546 6.1878464640 1.8250416436 
Si 2.4804414060 9.7584934596 1.6741201105 
Si 4.6737968949 9.2036161738 3.5415779563 
Si 2.9338208864 2.7161423363 5.8872013561 
Si 5.3299599580 4.9334251854 8.7250265637 
Si 1.5465852663 6.7781642306 1.6248872081 
Si 4.5619521229 0.9366326464 8.3768341760 
Si 1.0062159967 10.3357927068 0.0909031901 

