&CONTROL
   calculation      = 'scf'
   tstress          = .true.
   tprnfor          = .true.
   outdir           = './'
   disk_io          = 'none'
   pseudo_dir       = '/home/ppiaggi/pseudos'
/
&SYSTEM
   ecutwfc          = 30
   occupations      = 'smearing'
   degauss          = 0.01
   smearing         = 'fermi-dirac'
   input_dft        = 'PBE'
   ntyp             = 1
   nat              = 64
   ibrav            = 0
/
&ELECTRONS
   electron_maxstep = 100
   mixing_beta      = 0.5
/
&IONS
/
&CELL
/

ATOMIC_SPECIES
Si 28.085 Si_ONCV_PBE_sr.upf

K_POINTS gamma

CELL_PARAMETERS angstrom
10.65766276557133 0.00000000000000 0.00000000000000
0.00000000000000 10.65766276557133 0.00000000000000
0.00000000000000 0.00000000000000 10.65766276557133

ATOMIC_POSITIONS angstrom
Si 4.2921924986 0.4079422919 7.2413596237 
Si 2.3168693086 8.9510405693 0.8006547837 
Si 0.9763250391 7.0907561912 9.5241244115 
Si 1.8107795345 9.8620788978 3.1224074334 
Si 3.2838710243 8.8531925674 7.0821234843 
Si 8.8432063374 6.2720345375 4.5163551195 
Si 7.1456324968 4.6569616644 7.0368817059 
Si 0.0008732292 0.9707318977 4.8340174159 
Si 3.8727708381 0.7466246966 4.2109811083 
Si 9.4826874187 8.5292848806 7.4666945876 
Si 5.3284583646 1.6540692612 2.5221891818 
Si 3.4853434812 6.0694856567 7.2163460892 
Si 2.9659209710 2.3200346344 7.9854350074 
Si 8.4879544644 8.3152363817 10.1042316535 
Si 10.5232696381 7.8667832478 5.1678793597 
Si 7.2030453261 2.5478634914 3.4200120085 
Si 10.1638399613 5.9111554186 8.2218645982 
Si 2.5110519242 8.3635688823 4.6918868253 
Si 5.3002368736 3.2960314175 10.3633620660 
Si 10.0961531451 9.6994429640 3.5237323825 
Si 6.2579877380 8.5715318558 0.5710727413 
Si 7.7098385059 3.9770773836 10.1672290981 
Si 8.3698036150 1.2857617514 6.0585935253 
Si 9.5734693901 2.2981118221 2.8470134276 
Si 1.4883319475 9.2964234465 8.6987736916 
Si 7.2328015205 7.5947144327 3.1860443378 
Si 2.5732393864 0.5760946320 10.2654181451 
Si 5.9594985769 6.8783169993 6.6669009430 
Si 5.9391530987 1.7412382850 5.7558412992 
Si 9.0350122942 6.9569492352 1.3760641280 
Si 2.2177637026 2.0775941219 5.0715660613 
Si 2.6004057688 6.7712927498 3.1110889956 
Si 1.4755001216 6.1535639582 6.0307343949 
Si 0.7091534201 6.4567531486 1.1149620479 
Si 0.2925656321 4.2181750307 3.2223230218 
Si 3.2927275421 3.9638085934 9.7619821291 
Si 5.0477355273 0.9449787214 10.3431977680 
Si 9.5603711226 2.5792929389 0.6812889608 
Si 5.0732179990 6.7071123046 4.4198180102 
Si 0.6199509142 1.9865243935 7.6319096758 
Si 5.5172055722 4.7615453091 1.7309429827 
Si 10.1413949235 0.0168733183 8.1669776349 
Si 3.1797776321 3.1058134525 2.1781278547 
Si 1.2249811006 4.0525336360 0.7043542745 
Si 7.5094851036 1.9972566599 8.4253087227 
Si 1.5966031436 1.2991797488 1.8796600090 
Si 4.6441511537 3.8260689599 6.7758968601 
Si 8.0304529749 4.7622806878 2.0585915091 
Si 6.7984058439 0.0846384683 1.3261436356 
Si 7.7992776118 6.2203875038 9.0576491699 
Si 5.3486652932 7.9389569401 8.9739012559 
Si 8.7438023168 0.6552096600 10.4982987342 
Si 3.3149807419 6.4507848574 9.4845205367 
Si 4.2456824583 7.0834663499 1.1221986009 
Si 0.0540541735 4.0651203357 5.8462502524 
Si 10.3918073679 9.5923654262 0.4144669131 
Si 5.3571274774 4.4046095254 4.3607639008 
Si 7.6166159297 10.2723882566 3.6402632672 
Si 5.2324434807 9.4223117591 5.1156035238 
Si 8.4030128922 3.8117557188 5.4425912751 
Si 0.2772335185 3.8850058349 9.1665385104 
Si 7.3766479949 9.0896221582 6.3780249937 
Si 6.3217418767 10.2235868188 8.5979735172 
Si 2.7495277862 4.1794663995 4.5142129293 

