&CONTROL
   calculation      = 'scf'
   tstress          = .true.
   tprnfor          = .true.
   outdir           = './'
   disk_io          = 'none'
   pseudo_dir       = '/home/ppiaggi/pseudos'
/
&SYSTEM
   ecutwfc          = 30
   occupations      = 'smearing'
   degauss          = 0.01
   smearing         = 'fermi-dirac'
   input_dft        = 'PBE'
   ntyp             = 1
   nat              = 64
   ibrav            = 0
/
&ELECTRONS
   electron_maxstep = 100
   mixing_beta      = 0.5
/
&IONS
/
&CELL
/

ATOMIC_SPECIES
Si 28.085 Si_ONCV_PBE_sr.upf

K_POINTS gamma

CELL_PARAMETERS angstrom
10.58730778030612 0.00000000000000 0.00000000000000
0.00000000000000 10.58730778030612 0.00000000000000
0.00000000000000 0.00000000000000 10.58730778030612

ATOMIC_POSITIONS angstrom
Si 5.8617794130 6.8995684962 0.9153796894 
Si 9.3630444451 7.0559642067 6.1826807118 
Si 6.9797461780 2.4356630914 0.3478650543 
Si 2.6009733151 2.9665001162 6.3933787239 
Si 3.6257400098 0.1735365618 8.3378542581 
Si 10.0296213430 3.2508857905 0.6190007129 
Si 2.1333636923 5.7566474467 6.9972469978 
Si 1.7493091026 2.9390895764 1.9917266889 
Si 5.9225399723 3.2762212180 3.6473804669 
Si 8.3042713179 7.6790696188 8.6523078865 
Si 0.4091941521 8.7743795452 8.5401035987 
Si 10.4587884512 4.6089938706 7.5011075623 
Si 8.0604985562 1.5611197068 8.3194746918 
Si 1.5372241532 1.2205577775 7.6403941835 
Si 6.2359772191 8.5485628576 8.0551413785 
Si 1.8712748882 5.5174166401 4.3016019765 
Si 5.7523913490 4.3890849007 1.3643016552 
Si 0.9719995527 6.6602000546 9.6178385942 
Si 3.5773136640 9.3997400539 6.2515723235 
Si 0.4236384161 8.4602117742 1.8974149512 
Si 5.9711145404 8.9259474434 5.4569842873 
Si 8.1015984850 5.6833938642 2.7819104050 
Si 2.9121342907 6.6079834526 2.4654981247 
Si 1.8579666424 10.1376012950 10.0523734674 
Si 6.2646582359 10.5344877018 9.4072358678 
Si 7.5974626505 9.0582040922 2.2146001049 
Si 10.2534687914 1.0351591960 9.6979951014 
Si 2.6825696961 8.0636429866 0.2442079000 
Si 5.5833543929 6.2456010819 3.8274176357 
Si 9.3677981463 4.1057367826 5.0973757912 
Si 6.1347943187 3.8285081284 8.2784171123 
Si 2.4168494455 0.1710146651 4.8753493598 
Si 6.3180182671 0.5275168451 4.5080333036 
Si 0.0541589495 0.5679476560 1.7794617552 
Si 4.4144309155 4.7696456789 5.4647553712 
Si 5.2572335514 9.1436330787 1.3823741896 
Si 7.0940679274 5.1884795747 5.8973315925 
Si 3.0184837974 3.9846920927 9.6815741870 
Si 4.6470975913 7.5394653784 9.6046044594 
Si 7.7091587475 7.9054580211 4.1322262267 
Si 8.2813709711 5.2272291211 8.2614033087 
Si 10.4541194484 6.3315700211 3.6048194896 
Si 7.5924230920 2.3995286099 5.9090093930 
Si 0.6488473922 5.5683627651 1.0649455277 
Si 2.3186839277 9.7566381992 2.7981725098 
Si 8.1877897577 5.0104328197 0.4146317933 
Si 4.0810260062 8.3164996584 3.5866410821 
Si 4.8277699986 2.1901328367 6.9411130919 
Si 8.6041250488 0.4107335466 3.8223780772 
Si 5.6883063750 0.9438235505 2.0634556991 
Si 0.8734063077 3.2329191292 4.5116435756 
Si 8.9255874750 2.7885062978 2.9013246495 
Si 9.0743179747 7.6667777545 0.4467399216 
Si 9.5701427726 10.2208598834 7.0638305764 
Si 10.3771073716 8.9740455827 4.3231153859 
Si 4.1169275669 5.4359578940 8.4965685891 
Si 3.4212567473 2.0204606422 3.7648678213 
Si 3.2404572923 0.8563607422 1.1697387001 
Si 4.8285428721 2.1391655370 9.6806425039 
Si 0.7304723590 3.3113499052 8.9338985116 
Si 1.5505323990 8.0739126752 5.9668266807 
Si 3.3730633223 4.7480793329 1.3653603860 
Si 0.2166787823 0.9328646282 5.3186928731 
Si 8.2746056815 0.3241484261 0.9753864325 

