&CONTROL
   calculation      = 'scf'
   tstress          = .true.
   tprnfor          = .true.
   outdir           = './'
   disk_io          = 'none'
   pseudo_dir       = '/home/ppiaggi/pseudos'
/
&SYSTEM
   ecutwfc          = 30
   occupations      = 'smearing'
   degauss          = 0.01
   smearing         = 'fermi-dirac'
   input_dft        = 'PBE'
   ntyp             = 1
   nat              = 64
   ibrav            = 0
/
&ELECTRONS
   electron_maxstep = 100
   mixing_beta      = 0.5
/
&IONS
/
&CELL
/

ATOMIC_SPECIES
Si 28.085 Si_ONCV_PBE_sr.upf

K_POINTS gamma

CELL_PARAMETERS angstrom
10.56455925196068 0.00000000000000 0.00000000000000
0.00000000000000 10.56455925196068 0.00000000000000
0.00000000000000 0.00000000000000 10.56455925196068

ATOMIC_POSITIONS angstrom
Si 0.4324517813 2.7286777510 2.1604946253 
Si 3.5560729024 5.4540910531 1.4740095651 
Si 2.3176847024 3.3110702088 0.5024884704 
Si 4.8448223565 5.1023440528 3.6988212271 
Si 8.5055477829 10.3085165939 4.0997462507 
Si 1.7516144885 5.9741948696 2.9884285693 
Si 4.9935607862 5.1926182116 7.9960507838 
Si 9.6433085561 4.5524059209 5.3550694392 
Si 10.1227388195 2.5986068974 6.6407763002 
Si 4.4985900561 1.9184288791 4.7296264024 
Si 4.1153817984 7.2996984253 8.4360541121 
Si 6.3130425431 7.7919118054 9.5058213820 
Si 1.0501636737 8.6045165739 0.3718957277 
Si 3.5959858073 1.6975133806 2.5221406176 
Si 9.2527368005 1.0427684822 0.9235601085 
Si 3.0124946353 10.5154657451 5.6705060494 
Si 9.0728223565 8.7384434916 9.8916602150 
Si 6.6177455610 0.1033156846 9.6639094466 
Si 9.1404038420 5.6628150502 0.1310596963 
Si 4.0414615773 10.0371447604 9.4327357611 
Si 9.0234753002 7.7550837518 2.8275831547 
Si 6.1461858943 3.9257902180 5.8434478843 
Si 4.3838378135 1.2912215609 7.9532960125 
Si 1.2673562215 1.0840082957 10.4250436825 
Si 6.2431157254 5.5270076411 0.3942566738 
Si 10.5240864255 6.6713712638 1.7134447360 
Si 9.5730436725 0.3045931465 9.1416715891 
Si 0.8071798674 7.4742988961 7.6321122822 
Si 7.5226528837 6.0641837853 6.1562961775 
Si 0.9251014777 4.8025641195 7.6814487739 
Si 7.9516901995 2.1621532611 4.7715571381 
Si 2.4013560116 6.8499862671 9.8590051623 
Si 7.2217319780 8.5743653218 1.4126928632 
Si 9.8006571016 7.0688944993 5.0235746990 
Si 9.3414685337 9.2785671479 6.1448230661 
Si 3.7465730349 8.5926737030 6.5278622909 
Si 8.5003817134 3.3979320150 0.2714711404 
Si 8.9463328885 7.1080044977 8.4254156009 
Si 1.0960096350 3.8523982249 4.0967353513 
Si 6.3883150277 2.3026618991 10.3828488328 
Si 2.3938657391 8.8699299960 3.5446209202 
Si 4.8796325792 7.9253421888 3.1071953444 
Si 7.1519847578 6.0114032473 3.0753643274 
Si 4.3596238437 3.3661221271 9.3773035187 
Si 2.7804440913 3.2967446665 6.0639513650 
Si 7.2390895489 8.9978034212 7.3094706426 
Si 6.0577922270 2.8203464316 2.2215789069 
Si 1.9688218268 7.2460198997 5.3747300840 
Si 1.0219193245 1.1015982869 3.7926662069 
Si 1.5949209457 9.6940606987 8.1563996642 
Si 0.0386207536 9.9045701064 2.4589434241 
Si 5.6845252195 7.5512405811 5.4991911565 
Si 1.9501331214 2.3916894399 8.2980915328 
Si 0.8142517833 4.8848620360 10.0521886928 
Si 8.2337005442 2.2982776070 8.1135181182 
Si 7.3384703577 4.8393182211 8.6202577672 
Si 5.8050562760 10.2089033647 4.2960146325 
Si 3.1116007656 10.0297284398 1.4027304838 
Si 4.5135917302 8.0762991759 0.8597121382 
Si 7.2607363308 0.2581777555 1.7268194680 
Si 6.7267823771 0.9053658246 6.7675087530 
Si 8.4077727870 3.8060303743 3.0726703648 
Si 0.4094390019 0.2513181871 6.4939923139 
Si 3.6356451627 5.4566793701 5.6906209702 

