&CONTROL
   calculation      = 'scf'
   tstress          = .true.
   tprnfor          = .true.
   outdir           = './'
   disk_io          = 'none'
   pseudo_dir       = '/home/ppiaggi/pseudos'
/
&SYSTEM
   ecutwfc          = 30
   occupations      = 'smearing'
   degauss          = 0.01
   smearing         = 'fermi-dirac'
   input_dft        = 'PBE'
   ntyp             = 1
   nat              = 64
   ibrav            = 0
/
&ELECTRONS
   electron_maxstep = 100
   mixing_beta      = 0.5
/
&IONS
/
&CELL
/

ATOMIC_SPECIES
Si 28.085 Si_ONCV_PBE_sr.upf

K_POINTS gamma

CELL_PARAMETERS angstrom
10.59463037974397 0.00000000000000 0.00000000000000
0.00000000000000 10.59463037974397 0.00000000000000
0.00000000000000 0.00000000000000 10.59463037974397

ATOMIC_POSITIONS angstrom
Si 0.7707339330 8.5029748824 3.8165672695 
Si 5.0875097245 1.6619478838 4.5308360604 
Si 9.9911390441 10.3912028818 8.7011156598 
Si 10.4303500411 10.5678153703 2.7727525006 
Si 10.2961160742 3.7073578195 9.9862337302 
Si 9.0724150760 6.3213074053 7.1807650110 
Si 3.6734655969 5.7176677448 4.1096359350 
Si 2.9490365555 2.6557983758 5.9989445868 
Si 0.5308619660 2.0142935063 1.1520283236 
Si 6.7747681802 9.7586610696 9.5783510552 
Si 4.9746557217 3.6929703115 3.3408259869 
Si 2.4385766691 10.5349190429 0.8357256336 
Si 5.4662147874 10.5867585694 1.9790769549 
Si 0.3636532715 8.1310080044 8.5763003193 
Si 6.0344154093 7.7118420480 8.7227922735 
Si 3.7196899693 9.8994107342 4.0256946785 
Si 2.6803885129 8.2584614079 2.6344925741 
Si 9.7571460375 6.9878473864 2.9972315291 
Si 4.4178231382 1.4630019145 8.3174840937 
Si 3.4587230338 9.8341690003 8.9468475168 
Si 7.7110050722 6.3422953681 9.2227634758 
Si 5.1254596905 6.7726068756 2.1976229904 
Si 0.7770324408 5.2818576241 3.0427778451 
Si 7.9194650196 9.1959696555 5.8089087016 
Si 1.5333820441 0.5510616883 9.1738056888 
Si 7.2487507541 8.6191873830 1.7451157323 
Si 8.7439709396 2.2871476171 8.6853720390 
Si 8.2133176878 4.4609538784 1.2514377405 
Si 9.1629991658 7.0159231569 0.6393435649 
Si 3.5039409162 2.0619057752 1.6224616964 
Si 4.3587792631 8.8833009238 0.6513059621 
Si 4.2032712783 3.8182200318 8.9226281917 
Si 2.7555044423 6.0102596520 7.8733042150 
Si 2.0077778086 6.1320873068 1.1294723555 
Si 6.9978063390 4.1773568124 8.8653112414 
Si 7.6525439018 2.3117907274 0.6586130786 
Si 7.4756135745 1.6037409845 3.5810274469 
Si 2.3029971842 0.2563519145 6.1423323143 
Si 9.8285856301 1.6516710923 4.8680843347 
Si 5.4993018181 1.2157126468 10.4814373488 
Si 6.1948393025 7.5531874581 6.1567516063 
Si 1.6503997367 2.7200124305 8.2693103094 
Si 4.3340090172 6.5108347482 10.0761291690 
Si 1.8603111484 1.6932444219 3.7094767456 
Si 7.2925065776 6.8577877039 3.7194780767 
Si 8.0137042568 9.9852590242 3.6512592517 
Si 9.9752682877 3.4063219919 3.0971918667 
Si 2.6098600585 3.7248177704 0.2268797717 
Si 0.7441361134 5.8642550508 9.4056267961 
Si 0.3772991555 8.8026440027 0.5783852401 
Si 2.4676589295 8.5162605489 7.3764796180 
Si 8.8819765950 10.4657255119 0.3668422553 
Si 0.1223245429 10.3702890815 6.2904558417 
Si 10.2290096853 8.2835177087 6.0092955407 
Si 7.3429899914 0.1774981995 7.6221796911 
Si 4.6842463083 4.9511674261 6.2101485434 
Si 5.5422100711 4.5444713497 0.5305134027 
Si 1.3155246596 5.9877990356 5.1684315113 
Si 8.7599052637 3.2024707088 6.2290599586 
Si 3.9376638947 7.9894425533 5.6498938943 
Si 6.9765217265 5.2416510019 6.2560126983 
Si 7.2500009205 4.4179078952 3.7915533472 
Si 6.1313880611 2.2573873004 6.5580973943 
Si 0.4099359144 4.5067120870 6.9068408425 

