&CONTROL
   calculation      = 'scf'
   tstress          = .true.
   tprnfor          = .true.
   outdir           = './'
   disk_io          = 'none'
   pseudo_dir       = '/home/ppiaggi/pseudos'
/
&SYSTEM
   ecutwfc          = 30
   occupations      = 'smearing'
   degauss          = 0.01
   smearing         = 'fermi-dirac'
   input_dft        = 'PBE'
   ntyp             = 1
   nat              = 64
   ibrav            = 0
/
&ELECTRONS
   electron_maxstep = 100
   mixing_beta      = 0.5
/
&IONS
/
&CELL
/

ATOMIC_SPECIES
Si 28.085 Si_ONCV_PBE_sr.upf

K_POINTS gamma

CELL_PARAMETERS angstrom
10.65287681790163 0.00000000000000 0.00000000000000
0.00000000000000 10.65287681790163 0.00000000000000
0.00000000000000 0.00000000000000 10.65287681790163

ATOMIC_POSITIONS angstrom
Si 8.4508845681 4.7054715664 1.7232839242 
Si 3.8496194428 6.7170756016 10.4740469748 
Si 1.6747174588 4.6813321475 0.5432967177 
Si 5.3711378801 8.8920628087 1.6585144331 
Si 1.5589952579 5.4965115873 8.3518128137 
Si 10.2198160695 2.9541918819 7.6892997515 
Si 10.5384542680 10.5073798263 0.9588132433 
Si 1.3589981485 2.4521537561 0.6160164507 
Si 6.2621338443 4.2859506244 10.4789366452 
Si 9.7448788623 8.7728038527 3.4420403758 
Si 8.5282670653 6.0571405356 5.7069698218 
Si 10.0698874812 7.7560187191 5.7476638112 
Si 1.6341832625 9.2207147114 1.2662968145 
Si 9.6802052472 4.7756314131 3.7806527183 
Si 8.9229881101 9.9012950526 9.4655071678 
Si 6.0080946908 1.1272235076 5.4064734725 
Si 6.2156233841 5.5422017760 3.0874274122 
Si 8.5817658127 2.7307051791 4.8753103815 
Si 0.3934725276 2.2523164399 2.8840107294 
Si 2.6562628759 2.2427288507 6.5865139434 
Si 1.5451358652 7.2572616793 5.2193876498 
Si 5.0552161652 2.1567601348 9.0108317323 
Si 5.0772037029 2.4903975839 1.2389295739 
Si 2.4544441246 0.4789245790 8.4920153255 
Si 8.1937560804 7.8063002976 0.0736511140 
Si 1.3139790911 5.0668384538 4.3805588234 
Si 8.5921310619 2.1082788924 9.9998874276 
Si 6.7285700557 0.4405625043 0.0740162947 
Si 0.4418397842 1.3865251822 9.4974764511 
Si 8.0935231624 9.7940205831 2.0404839843 
Si 0.2932012592 7.6644359371 8.8687117027 
Si 4.5008830671 8.0225217384 3.7027908416 
Si 6.6531583407 2.6728174465 3.4209476797 
Si 7.0832043250 3.9237421597 6.5896671949 
Si 10.0793152771 6.1811506747 0.4205872949 
Si 3.9448028972 10.3181953869 6.4745841666 
Si 4.9769707849 6.6034094060 6.4043604026 
Si 3.1514298962 6.8160940917 2.3315418848 
Si 8.2691997540 7.0081228492 8.0628748358 
Si 8.4303032101 9.3305884829 7.1611514247 
Si 4.2503913216 10.4714476728 10.2040711176 
Si 9.4149699202 0.7854323466 5.9708841920 
Si 0.3795406953 0.0620900795 4.1785057088 
Si 8.8398317536 2.1626085642 1.8616115297 
Si 5.9307548051 10.0290017399 7.8927696988 
Si 5.8775117267 7.2259635272 8.4196929448 
Si 6.3501372596 7.2740506132 4.9338692453 
Si 3.0157548570 7.6344480888 7.2057230613 
Si 0.5810931247 7.2153639148 2.2765943461 
Si 8.2152535858 4.4524977006 8.7098027392 
Si 3.9251909510 3.8018519432 4.0780597333 
Si 7.1470150571 1.6350035340 7.5920283333 
Si 7.2648891391 9.7352593146 4.8419562241 
Si 4.1054589325 4.8422971162 8.8782034159 
Si 2.7459600987 8.4631886409 9.5120815452 
Si 2.6342327267 9.5402797102 4.7455583418 
Si 2.9468307440 1.6070290795 3.9778055096 
Si 4.5436330617 4.2025279460 6.3652536918 
Si 2.9826350630 0.6375224785 1.6501412720 
Si 5.2218697701 0.4653272470 2.9596248491 
Si 3.8756976853 4.3894646284 1.8563596614 
Si 0.5947437210 9.7104487645 7.0947626963 
Si 6.2445033331 6.6419089028 0.5640953944 
Si 1.1570728685 4.1979578619 6.4530014382 

