&CONTROL
   calculation      = 'scf'
   tstress          = .true.
   tprnfor          = .true.
   outdir           = './'
   disk_io          = 'none'
   pseudo_dir       = '/home/ppiaggi/pseudos'
/
&SYSTEM
   ecutwfc          = 30
   occupations      = 'smearing'
   degauss          = 0.01
   smearing         = 'fermi-dirac'
   input_dft        = 'PBE'
   ntyp             = 1
   nat              = 64
   ibrav            = 0
/
&ELECTRONS
   electron_maxstep = 100
   mixing_beta      = 0.5
/
&IONS
/
&CELL
/

ATOMIC_SPECIES
Si 28.085 Si_ONCV_PBE_sr.upf

K_POINTS gamma

CELL_PARAMETERS angstrom
10.58684905707929 0.00000000000000 0.00000000000000
0.00000000000000 10.58684905707929 0.00000000000000
0.00000000000000 0.00000000000000 10.58684905707929

ATOMIC_POSITIONS angstrom
Si 0.4019816000 5.6847885776 9.5635348141 
Si 4.3697113615 2.4719657337 6.9811058973 
Si 9.1484985705 0.3362510303 2.9158829015 
Si 3.9128994115 1.2142692395 4.7570735816 
Si 6.5739886168 9.1222220111 6.3506378622 
Si 7.5529333754 7.1590073088 1.7263974757 
Si 1.5324146405 0.5705358825 0.2164438942 
Si 0.8151969056 10.0447600380 2.2647705108 
Si 2.7288238656 5.6541184759 0.5500418601 
Si 3.0670948666 0.2495775557 8.2776137802 
Si 10.4955798314 3.8776875515 1.6285961641 
Si 8.9233586384 2.3352895124 0.7413737484 
Si 6.6738014297 3.2234202798 6.2976930301 
Si 6.9324487390 4.3715534732 0.0235129683 
Si 10.1576793700 0.5173401421 9.4230685008 
Si 8.0479744373 8.5766922661 10.2601600689 
Si 3.6841281902 4.8018771268 8.1886948350 
Si 7.9890056881 7.2001795648 5.5164576776 
Si 9.8704475682 0.7113430924 5.8079877401 
Si 9.0424818640 5.7848448881 0.0618428670 
Si 9.6288027385 8.9287049972 8.1413716197 
Si 10.3189276680 8.7051742662 5.5948638817 
Si 1.2937235416 3.3540196498 9.9303797207 
Si 4.7327344156 1.7459090386 9.3030559799 
Si 7.1688319048 1.3585468184 4.2497835353 
Si 7.9448691143 8.8023086063 3.4984983789 
Si 9.1578255845 3.5315822822 6.1166155638 
Si 1.9986700598 9.6878455957 5.4855864258 
Si 2.6538795611 4.3667893911 3.7500630861 
Si 4.2062609989 8.1328280325 3.5438630271 
Si 1.1472968323 6.1646375111 2.2539401643 
Si 0.1069303515 3.2374584417 3.9877801949 
Si 5.5162565275 9.9309090632 4.2300178882 
Si 3.6759974901 7.5092943836 9.5841685829 
Si 10.0794002081 2.8235549909 8.6031382150 
Si 5.8433266423 8.2914613788 8.8082372418 
Si 7.8097703335 0.2320563205 7.0371315025 
Si 6.9503511008 0.9141733574 8.9564001943 
Si 3.8715895265 8.9924484154 6.7917389282 
Si 5.9770703064 5.8697302438 8.5750513045 
Si 7.7438460244 0.0035920755 0.7126092795 
Si 8.2975276433 6.8508347196 7.8941686942 
Si 6.7391858095 3.3189665925 2.2257262115 
Si 2.9558482567 6.6574024005 6.8891273527 
Si 1.9463921991 8.1756941843 3.5189098238 
Si 2.3578289140 3.5737285283 6.0606217192 
Si 4.5382751721 5.4123783645 2.3422768328 
Si 2.4200795865 2.5895326925 1.5430332501 
Si 6.9938842241 5.2605735359 3.5396388743 
Si 4.1732935509 5.9722956375 4.9442067255 
Si 1.4271601871 7.9267232551 8.7567745685 
Si 4.5078909154 3.5520890088 0.0358268500 
Si 5.6483698169 10.3643875978 1.8445043638 
Si 1.4025457631 1.4074686479 7.3807276886 
Si 10.1265963812 5.3368200228 7.3086841808 
Si 7.5798874931 3.0327511283 8.7067305330 
Si 1.7650077142 1.3463401814 3.7207057537 
Si 4.8277831465 1.7658017279 2.1500937619 
Si 5.2267379663 7.6674724953 1.3647507119 
Si 3.8551693236 10.0526790011 0.2566665099 
Si 6.1749491021 5.4359446905 6.2169683060 
Si 9.6714465665 5.5209782622 3.9991081234 
Si 0.9136853037 6.6697996008 5.6218709337 
Si 0.0587476958 8.0825299126 0.7666202073 

