&CONTROL
   calculation      = 'scf'
   tstress          = .true.
   tprnfor          = .true.
   outdir           = './'
   disk_io          = 'none'
   pseudo_dir       = '/home/ppiaggi/pseudos'
/
&SYSTEM
   ecutwfc          = 30
   occupations      = 'smearing'
   degauss          = 0.01
   smearing         = 'fermi-dirac'
   input_dft        = 'PBE'
   ntyp             = 1
   nat              = 64
   ibrav            = 0
/
&ELECTRONS
   electron_maxstep = 100
   mixing_beta      = 0.5
/
&IONS
/
&CELL
/

ATOMIC_SPECIES
Si 28.085 Si_ONCV_PBE_sr.upf

K_POINTS gamma

CELL_PARAMETERS angstrom
10.91523479638001 0.00000000000000 0.00000000000000
0.00000000000000 10.91523479638001 0.00000000000000
0.00000000000000 0.00000000000000 10.91523479638001

ATOMIC_POSITIONS angstrom
Si 8.6927183481 10.4524506715 10.4703516565 
Si 10.6733750238 3.0889241255 0.4194921206 
Si 2.3647637882 0.1924868911 4.9245609917 
Si 8.6887452026 8.0714231835 5.1206095239 
Si 4.2443017287 10.2706792664 6.1337943634 
Si 6.0970755135 10.5529472383 9.3177028621 
Si 0.7874010247 9.2255018737 7.5558311526 
Si 4.7964816266 2.9187992760 10.0548304983 
Si 0.2833507631 4.7770743391 5.6977743942 
Si 3.9483133067 6.9161438174 7.7600661109 
Si 2.5716620637 4.4140227145 9.8619910452 
Si 0.9165762794 8.7745498633 5.1810690094 
Si 6.6194895661 8.5122021950 0.3941098337 
Si 10.3175820303 5.8417245107 10.4944852407 
Si 2.9908179951 6.6503032739 2.5303697305 
Si 5.7575789656 5.1940690540 1.4359209679 
Si 5.9391538965 4.1123802009 3.6877557369 
Si 10.6368089872 8.0568185993 0.6632063917 
Si 7.7187846929 1.5872061222 5.0979385812 
Si 8.2453465347 4.6348051688 0.6970348873 
Si 7.4769249203 6.5562248652 2.8134017688 
Si 1.8923524262 1.7359807725 2.4720387157 
Si 1.8412036359 1.6734473923 9.0986013540 
Si 4.5343413477 6.3436070066 10.7763275184 
Si 1.6720720728 9.1934438291 10.6466763594 
Si 1.4485498946 7.0702778479 6.7249853104 
Si 8.4690542719 2.3466881593 8.6731145864 
Si 7.7189265910 5.6192174494 7.3304315541 
Si 0.1859257434 10.5486357205 1.7233081849 
Si 8.3910321735 9.2494280684 2.2367280840 
Si 1.6926363751 8.8187238186 3.2097994356 
Si 3.8646480320 9.1028910413 1.0438828458 
Si 0.4742822332 3.9041830124 9.3403192285 
Si 5.7075871903 4.0879300750 5.9525141439 
Si 10.6755580707 2.2102477244 7.8796097624 
Si 3.6557959294 2.7062359935 4.5920174484 
Si 10.2050787053 9.7152247981 3.9562814281 
Si 4.9597189630 0.6825470962 4.6601830897 
Si 3.9379001727 10.3599877175 2.8975800595 
Si 3.5978032869 3.2869264847 1.3357627734 
Si 5.7010926256 6.6412217986 6.0353280303 
Si 6.8490260386 9.1310414318 6.2397158018 
Si 1.3902516255 6.2946521786 8.9138828355 
Si 3.1111366283 9.2560754464 7.8681269354 
Si 8.8718919273 3.0133470398 3.4009579426 
Si 3.4746903537 0.9071597063 0.8473693247 
Si 6.8613711692 0.6320270235 7.4228399319 
Si 2.9021535429 2.3305991033 7.0822300300 
Si 7.8703973042 0.5140387929 2.5672195632 
Si 3.5280003604 8.3277128965 5.0455672846 
Si 5.5655909008 1.3615991342 2.1176865333 
Si 4.7508450299 1.5451933835 8.1707736506 
Si 8.2906884201 5.4380027213 4.9395257786 
Si 4.4317163101 5.8128318842 4.1250418733 
Si 7.3015716733 1.4444021054 0.4095505248 
Si 9.8826426694 8.9015813659 9.3500556180 
Si 0.4185654172 0.4684644131 6.3985433833 
Si 10.1613195290 2.4688951281 5.4592546834 
Si 6.9741910360 4.1049796718 9.4790300323 
Si 4.0506218025 4.4961271107 7.8270310764 
Si 5.7787763516 8.2741081784 8.5991092945 
Si 10.6550810902 0.3281283308 10.2728950591 
Si 1.8367720506 4.8119375990 3.7294082729 
Si 7.7400694008 7.4209625115 9.2344414510 

