&CONTROL
   calculation      = 'scf'
   tstress          = .true.
   tprnfor          = .true.
   outdir           = './'
   disk_io          = 'none'
   pseudo_dir       = '/home/ppiaggi/pseudos'
/
&SYSTEM
   ecutwfc          = 30
   occupations      = 'smearing'
   degauss          = 0.01
   smearing         = 'fermi-dirac'
   input_dft        = 'PBE'
   ntyp             = 1
   nat              = 64
   ibrav            = 0
/
&ELECTRONS
   electron_maxstep = 100
   mixing_beta      = 0.5
/
&IONS
/
&CELL
/

ATOMIC_SPECIES
Si 28.085 Si_ONCV_PBE_sr.upf

K_POINTS gamma

CELL_PARAMETERS angstrom
10.80352344883938 0.00000000000000 0.00000000000000
0.00000000000000 10.80352344883938 0.00000000000000
0.00000000000000 0.00000000000000 10.80352344883938

ATOMIC_POSITIONS angstrom
Si 5.1710956953 4.2796105473 0.7668459783 
Si 4.1116373647 0.6865282635 0.1035194697 
Si 10.7362066942 7.4626526610 1.1573166459 
Si 10.4640659386 9.8487728676 9.6014478053 
Si 3.5362309023 4.8069413304 3.6235125683 
Si 9.2938174751 7.8753256497 8.0414406263 
Si 1.3930927417 8.7421247466 3.8241123917 
Si 2.8195899779 3.1170433890 7.9633635623 
Si 6.5467299431 0.5024902416 6.5203045247 
Si 3.0884248554 2.2108438421 2.4837300409 
Si 5.7145021212 2.6568673077 3.9104433475 
Si 8.7478830246 0.6083345215 1.5480800891 
Si 1.9280616158 1.0506772267 0.6971059934 
Si 4.8037326839 0.0685995650 8.5490765861 
Si 8.2660566823 1.5455088505 4.8443323250 
Si 0.6165765296 7.6572133148 9.4616718189 
Si 5.1558519237 10.2601818440 2.0373068449 
Si 5.2068769649 8.1203063475 3.3031880980 
Si 9.2352731815 1.5155614835 8.9126799713 
Si 0.4281544378 8.5641366978 6.5748299075 
Si 3.7151156436 6.7654472753 1.4513561436 
Si 10.7025105046 4.3561427074 2.2996812154 
Si 3.0402735514 3.2657214787 0.0635416794 
Si 10.3130866984 4.6577014575 6.0270372511 
Si 2.0838052099 4.9316464015 1.3987970021 
Si 2.2364373891 0.2549426267 4.2787462654 
Si 6.3454603012 4.8785794944 5.5900347276 
Si 3.0415051530 7.0431950596 3.7796018751 
Si 6.5618116618 1.5016249382 8.9611553810 
Si 0.5408773211 2.5986579233 3.7023458789 
Si 5.7158525616 9.1860631322 5.5430718111 
Si 2.1255716315 8.5142352230 0.8381503134 
Si 3.3038363094 5.6562063087 8.1695163968 
Si 6.1682284990 6.2586755973 2.1525372260 
Si 10.7808144425 0.5282868949 2.6831954943 
Si 3.9901517435 8.2111963902 8.0961712761 
Si 8.3093355973 9.0376659341 10.3393284568 
Si 1.8610257528 4.5950518250 4.9625228716 
Si 0.1014956457 2.1532934727 7.4078139760 
Si 8.3959042306 8.1295649671 5.5674553636 
Si 8.5059489205 10.4640335280 7.4287836150 
Si 7.0902660113 3.2014729247 0.0928674117 
Si 10.7912830568 7.0543442958 4.3959320843 
Si 5.0390334246 2.7270361925 6.4204367539 
Si 8.5041771427 5.3603734261 2.8032118363 
Si 10.2486328775 2.4286752854 0.4445055705 
Si 10.5992504275 10.6310127864 6.0007846891 
Si 4.5482293543 9.0670407143 10.2988476545 
Si 8.2690168477 5.6026532430 7.8363141266 
Si 8.4565228007 5.5812190524 5.0539314835 
Si 9.0894256149 4.0657656042 9.4972910357 
Si 6.8530206363 0.1091944526 0.2717658734 
Si 5.6536134631 1.8045341287 1.7248905538 
Si 6.4145164231 7.9021832090 7.4712738728 
Si 0.9706771355 3.3751827783 9.2829167199 
Si 2.8281355649 0.8636693161 6.8525560848 
Si 9.5166401462 9.4280296469 3.5630668546 
Si 0.5712535880 5.3606435142 10.3211785374 
Si 8.2150748552 3.1467422749 6.4183408704 
Si 8.2188560884 7.3948065338 1.2434747454 
Si 4.4394918908 6.0659947566 5.6155526499 
Si 4.8054288371 4.1684314875 9.1588814672 
Si 3.3188640105 9.4404536988 6.2942840106 
Si 1.6415413704 9.7164837229 8.5715911290 

