&CONTROL
   calculation      = 'scf'
   tstress          = .true.
   tprnfor          = .true.
   outdir           = './'
   disk_io          = 'none'
   pseudo_dir       = '/home/ppiaggi/pseudos'
/
&SYSTEM
   ecutwfc          = 30
   occupations      = 'smearing'
   degauss          = 0.01
   smearing         = 'fermi-dirac'
   input_dft        = 'PBE'
   ntyp             = 1
   nat              = 64
   ibrav            = 0
/
&ELECTRONS
   electron_maxstep = 100
   mixing_beta      = 0.5
/
&IONS
/
&CELL
/

ATOMIC_SPECIES
Si 28.085 Si_ONCV_PBE_sr.upf

K_POINTS gamma

CELL_PARAMETERS angstrom
10.91072328139388 0.00000000000000 0.00000000000000
0.00000000000000 10.91072328139388 0.00000000000000
0.00000000000000 0.00000000000000 10.91072328139388

ATOMIC_POSITIONS angstrom
Si 3.9491472024 6.1254437110 10.3669873867 
Si 6.9723122307 3.1491729714 3.1581197645 
Si 8.5513557469 8.2416875987 7.3311440980 
Si 9.2371492587 6.5402039458 10.6371150737 
Si 5.8154155090 5.1455625638 2.9807223147 
Si 1.1225715863 3.2731842522 4.1773122477 
Si 1.2985506421 0.0101776863 4.5832020645 
Si 4.9721693495 10.6704691547 2.7004476550 
Si 5.8740715573 3.9760639568 0.3824143046 
Si 3.7611227081 1.5363062131 1.1200839413 
Si 0.0254595181 2.5803533239 8.8562340875 
Si 6.8558402597 4.5343111135 8.6723011144 
Si 5.8664122296 6.4778818945 8.9547251866 
Si 10.4843540370 8.4878989803 10.3137866999 
Si 3.0865999734 10.4121250489 6.9039783708 
Si 8.9527285242 5.8402155830 6.5275911497 
Si 4.2190894071 3.7441238012 5.1244612250 
Si 1.3669826985 6.1786116656 6.7843532007 
Si 4.5603440992 5.9945041209 6.8513777738 
Si 6.3354424020 2.3922960974 5.1259887263 
Si 0.7247687976 4.0098871989 10.7923746660 
Si 7.3470737539 10.8194550811 10.0979398613 
Si 7.4849743855 10.4802843372 1.8061502213 
Si 10.4622489116 0.0151639414 9.1100938861 
Si 9.8515211760 2.3560943176 3.4903512884 
Si 9.4818331390 8.0245205625 3.3544145871 
Si 1.3757440093 6.1629656884 9.2045043746 
Si 6.8699478249 10.2683871804 6.9426568848 
Si 5.9272831548 8.7967597349 5.4872427741 
Si 8.4136078654 2.5801896630 1.4822435792 
Si 10.6643591497 2.4048761613 1.1497938408 
Si 7.9479600172 8.6263233265 9.5410892772 
Si 2.1254634488 2.6734327042 2.1956848639 
Si 0.0712104721 8.0261789924 5.6475649420 
Si 1.2219355432 8.7811137577 3.6530410833 
Si 10.5748257545 4.0881934599 6.1695775867 
Si 2.7166500791 6.4284999609 4.8186772943 
Si 4.4614602141 0.2185286945 10.2453873757 
Si 0.1106718305 10.7405814625 0.7791423870 
Si 6.7615497891 7.1911813397 3.0805772542 
Si 6.7912378671 8.4952746292 1.1046234465 
Si 10.0713722501 5.6167967024 8.8402389672 
Si 6.0291783995 1.4634771352 1.3420516958 
Si 6.9386635601 5.6039766025 5.0992029006 
Si 3.1867822346 9.2718671802 1.8873914668 
Si 8.5832150588 9.3302177283 5.1399980950 
Si 4.6086567819 8.8077031904 10.6917559759 
Si 3.1158407118 1.7388419694 8.8020841679 
Si 1.8442395563 7.1200325132 0.4427091436 
Si 8.8567468915 0.7729407319 7.6225149632 
Si 5.9564256967 2.6077283286 7.5062393852 
Si 7.5467618114 5.0436454977 1.1928584656 
Si 5.4425960945 0.0998254805 4.8755439841 
Si 3.3694277423 3.7241571776 10.1206450764 
Si 7.4759839495 2.1930444688 9.8019319386 
Si 1.1993176138 9.1818755346 7.6949294336 
Si 3.3874959001 4.8798318983 3.0734307304 
Si 10.0047622844 0.1094934724 3.8124249290 
Si 4.3849869546 8.3159132492 8.0278156009 
Si 1.5760976209 6.7008643462 2.5364049305 
Si 3.3826842711 1.3151240307 4.2696060559 
Si 3.2422850839 4.9534901912 8.2386653283 
Si 9.1624326257 2.0650835062 5.6698228175 
Si 9.7996625082 5.8251260527 1.8553575833 

