&CONTROL
   calculation      = 'scf'
   tstress          = .true.
   tprnfor          = .true.
   outdir           = './'
   disk_io          = 'none'
   pseudo_dir       = '/home/ppiaggi/pseudos'
/
&SYSTEM
   ecutwfc          = 30
   occupations      = 'smearing'
   degauss          = 0.01
   smearing         = 'fermi-dirac'
   input_dft        = 'PBE'
   ntyp             = 1
   nat              = 64
   ibrav            = 0
/
&ELECTRONS
   electron_maxstep = 100
   mixing_beta      = 0.5
/
&IONS
/
&CELL
/

ATOMIC_SPECIES
Si 28.085 Si_ONCV_PBE_sr.upf

K_POINTS gamma

CELL_PARAMETERS angstrom
10.92771033146488 0.00000000000000 0.00000000000000
0.00000000000000 10.92771033146488 0.00000000000000
0.00000000000000 0.00000000000000 10.92771033146488

ATOMIC_POSITIONS angstrom
Si 2.0770626858 1.9678402211 7.8319664885 
Si 10.6855522705 1.7175628713 8.8543193563 
Si 9.5541736368 5.0171740782 4.1047211933 
Si 0.0573656710 3.3286789164 5.2613974764 
Si 2.5020194852 3.1441208166 1.6265568997 
Si 4.5905344115 1.3705425021 4.0479408104 
Si 5.9127436507 3.2916449060 5.6288963749 
Si 0.7110945233 3.4997631493 10.6202810567 
Si 10.0278243134 0.0584160426 7.1617590862 
Si 3.5545546889 5.3486770988 5.3668389534 
Si 3.0236209547 7.0190322616 10.2250804126 
Si 1.0474341485 0.8077424718 2.5989810590 
Si 7.1311833527 5.6180451585 7.2703149606 
Si 7.8185472602 9.7698101447 1.1944861609 
Si 7.8229511275 0.3341027229 6.4760124798 
Si 1.0145351838 6.3110914754 1.0288996590 
Si 3.7928334127 3.2983873033 9.2172832550 
Si 6.1945146616 1.2096210397 10.1644097648 
Si 10.8903047790 4.4381693463 7.5980479212 
Si 5.1008584839 5.2346355138 10.7005778722 
Si 5.9230266262 8.7161821700 2.4263669466 
Si 8.8010358407 4.8487452789 1.7476140748 
Si 3.6567506359 10.4745272563 2.3407155530 
Si 8.2598846974 1.8792711288 9.5661176242 
Si 7.4669263249 5.2742047529 10.8482549496 
Si 5.8627603037 3.8329053265 7.8936315579 
Si 10.2145351721 2.9575629458 1.6785400178 
Si 10.4576002330 6.2547263456 5.9621150460 
Si 0.8166813389 5.8234642573 9.7159037497 
Si 3.8564654699 8.4156482805 1.3043096497 
Si 5.5327543794 10.2514817607 5.5234986087 
Si 4.3320940621 1.6140883822 1.1042123459 
Si 6.0653163424 3.1747074778 0.4979145646 
Si 7.1183651485 7.5633852240 8.4335041591 
Si 2.3927533096 10.7032005227 7.4459451211 
Si 4.9019632282 3.7934890753 3.6805948999 
Si 1.1227457426 1.0323866914 5.7394957311 
Si 0.3717596127 8.4371103036 1.7633281222 
Si 5.5046810915 6.3753027013 4.6618377214 
Si 9.4222761731 9.8040794443 9.6472995842 
Si 0.4503943235 8.4053325219 8.8348898873 
Si 10.1530777292 10.3476783948 1.8788121650 
Si 9.6737883541 10.7868630730 4.6217548799 
Si 8.4500159295 7.1802269167 2.0018035448 
Si 8.5504525151 8.3615779697 4.8575311580 
Si 8.4828974098 4.3081951596 8.8018117082 
Si 8.7936596363 1.1512889220 0.7546687683 
Si 1.5851955161 5.2069556236 3.0613324831 
Si 9.0421448415 8.7034076766 7.1787516758 
Si 1.5621708304 7.0679337653 4.2632057762 
Si 8.7431626868 2.9122129479 6.6617944831 
Si 0.6364364063 8.6514027032 6.4472944570 
Si 4.8060725700 7.0225182012 7.0012965877 
Si 7.6825737606 6.3021416807 5.4206469991 
Si 3.7537122097 6.2889191512 2.5739784577 
Si 1.8835875744 8.9275350155 0.1939690439 
Si 1.1197624777 0.5282706512 0.0653290214 
Si 6.2996720181 5.7377582252 2.5737161927 
Si 6.6221815332 9.8598654056 9.2822922037 
Si 3.7281085844 8.5114078061 3.8894452997 
Si 2.8022801820 4.1273634091 7.2880724899 
Si 5.6291149291 7.4880386613 0.1424590957 
Si 2.7070888973 3.1801822607 4.2688663301 
Si 4.7346490553 9.6330279945 7.9308731947 

