&CONTROL
   calculation      = 'scf'
   tstress          = .true.
   tprnfor          = .true.
   outdir           = './'
   disk_io          = 'none'
   pseudo_dir       = '/home/ppiaggi/pseudos'
/
&SYSTEM
   ecutwfc          = 30
   occupations      = 'smearing'
   degauss          = 0.01
   smearing         = 'fermi-dirac'
   input_dft        = 'PBE'
   ntyp             = 1
   nat              = 64
   ibrav            = 0
/
&ELECTRONS
   electron_maxstep = 100
   mixing_beta      = 0.5
/
&IONS
/
&CELL
/

ATOMIC_SPECIES
Si 28.085 Si_ONCV_PBE_sr.upf

K_POINTS gamma

CELL_PARAMETERS angstrom
10.82351560035163 0.00000000000000 0.00000000000000
0.00000000000000 10.82351560035163 0.00000000000000
0.00000000000000 0.00000000000000 10.82351560035163

ATOMIC_POSITIONS angstrom
Si 2.2395152599 1.8101031020 7.0687839210 
Si 8.4426776973 6.1243672438 4.7823703680 
Si 9.7342045198 3.4680925157 8.5474060342 
Si 4.9785032942 7.8246549565 0.6204396318 
Si 10.6133878685 10.0226945046 1.5683707046 
Si 2.3884576581 5.3146167477 6.2782884591 
Si 2.4473808770 0.1629804979 2.3631414551 
Si 10.0861960706 6.9528315984 10.1790510110 
Si 5.3383743644 5.5397891662 8.2391306629 
Si 8.5113096097 6.9235215181 2.4707272002 
Si 8.7180387576 0.7735458364 0.4040667314 
Si 3.4679193394 9.3742035674 6.5422631811 
Si 9.0770872407 0.2594699748 5.8196311621 
Si 6.0899701112 8.0978080197 7.4846775080 
Si 1.0638249484 2.2214399888 9.0269851869 
Si 10.3236315323 4.6304623266 3.9491436666 
Si 7.3841486951 1.2525513429 7.1739019045 
Si 4.1738506739 0.6310650771 7.0042108269 
Si 5.3424873003 0.8972737727 0.4342275400 
Si 4.7681049745 4.2732863118 5.7419074965 
Si 3.0761297217 3.8586157821 8.6245668769 
Si 1.6400981424 8.9401264743 4.9648764881 
Si 1.7836179593 10.1459418767 9.3573513536 
Si 7.1166022129 10.1165885024 9.7122652537 
Si 8.2625094566 5.0641281261 9.3367974975 
Si 0.2376237909 4.0884856064 0.2081805814 
Si 0.8495031042 5.4405158811 8.1457345468 
Si 4.6552048832 10.3313595225 2.7543682500 
Si 4.8197980850 9.0068426244 9.4496867652 
Si 2.2166668185 5.3684962083 0.0331866306 
Si 9.7868717467 4.2894025265 6.1785714099 
Si 10.6011897664 8.9907588802 10.4620642969 
Si 7.6116914635 2.2126621177 10.0088404046 
Si 7.5430054335 7.9623517219 0.7262275909 
Si 6.3369086196 7.6350161396 3.2019097965 
Si 6.3867076149 3.2599779577 6.9992211862 
Si 8.0795920429 7.8160719086 9.3296648007 
Si 0.7980383699 9.7186619514 7.0356314927 
Si 5.8775045000 9.7593150760 5.8082340001 
Si 5.2759767970 4.8361307700 2.1198071774 
Si 9.9184424023 7.0146446960 7.5141932350 
Si 6.3145797069 6.0149631481 5.7483150178 
Si 3.3391195038 6.5651007990 1.8003511144 
Si 1.3700081341 3.4642826382 4.9391922855 
Si 1.7715064453 8.2057401173 2.1883633252 
Si 1.3323639469 4.8549528636 2.3209513913 
Si 2.2174569351 6.4235941561 4.1651702144 
Si 6.2885275049 5.9637895663 10.4055655454 
Si 2.9666390379 9.0068534479 0.5006806788 
Si 10.0150747496 0.6229636757 3.5171988060 
Si 3.5782867280 3.6002043471 3.3545538370 
Si 7.0626361642 9.9384442592 1.5561293084 
Si 8.7341441489 9.6500408625 7.9961752082 
Si 5.1572644779 2.4402590037 1.9237500158 
Si 2.9610649274 2.2819650881 1.0017813099 
Si 6.5233653229 3.6072179852 4.1265843813 
Si 5.2132220535 1.4338452292 4.7888428303 
Si 4.1244521487 8.3004567023 4.2378501217 
Si 0.3620844791 1.1100056424 5.6131509550 
Si 7.1691612047 0.8993540524 3.2213704776 
Si 9.5375087708 0.9855276365 8.7241973380 
Si 10.3659731254 8.0048556677 3.9551507177 
Si 5.4662650247 2.4783469551 9.3136243506 
Si 1.0972771880 2.2324691512 2.6536554373 

