&CONTROL
   calculation      = 'scf'
   tstress          = .true.
   tprnfor          = .true.
   outdir           = './'
   disk_io          = 'none'
   pseudo_dir       = '/home/ppiaggi/pseudos'
/
&SYSTEM
   ecutwfc          = 30
   occupations      = 'smearing'
   degauss          = 0.01
   smearing         = 'fermi-dirac'
   input_dft        = 'PBE'
   ntyp             = 1
   nat              = 64
   ibrav            = 0
/
&ELECTRONS
   electron_maxstep = 100
   mixing_beta      = 0.5
/
&IONS
/
&CELL
/

ATOMIC_SPECIES
Si 28.085 Si_ONCV_PBE_sr.upf

K_POINTS gamma

CELL_PARAMETERS angstrom
11.06942552977856 0.00000000000000 0.00000000000000
0.00000000000000 11.06942552977856 0.00000000000000
0.00000000000000 0.00000000000000 11.06942552977856

ATOMIC_POSITIONS angstrom
Si 10.3490051774 5.9356916353 5.6973890425 
Si 8.1415846160 4.3057187260 6.3376778234 
Si 0.5519979360 0.6831429549 2.5698667616 
Si 8.9590506220 6.3731553322 7.5680776793 
Si 9.6070105148 10.8193672071 2.8705898449 
Si 3.5514259316 6.8802678546 3.4958574154 
Si 1.6653286544 7.2557649074 7.1774597912 
Si 6.2339905145 9.7389359282 5.6185747327 
Si 5.8217540383 5.1700416102 7.4125079729 
Si 1.3793721847 4.1377291242 0.5777254948 
Si 1.8932259872 8.3567631789 4.7585910633 
Si 4.3632797388 8.2638132127 0.4985503217 
Si 3.9488072387 1.9328656000 2.2845080408 
Si 10.2295107289 3.4265738810 1.1634298315 
Si 8.2533636750 6.8511331266 4.8708903853 
Si 6.2791316318 9.5067215195 0.5757307843 
Si 3.5751145022 8.8125135668 7.1351524468 
Si 2.6761332467 3.8283718889 9.5604857193 
Si 1.9486284620 0.9077947322 0.6982438652 
Si 3.8796343985 3.8957736210 1.2880826323 
Si 10.8150722700 2.6179302072 8.7471375396 
Si 0.5870802663 0.0885913799 7.5663397795 
Si 2.5469419813 8.6431513562 10.1277384305 
Si 2.7444537410 2.7961811665 3.8307296765 
Si 8.4781947769 8.9404318482 6.1852518338 
Si 6.2562511292 0.9926474136 10.8024309860 
Si 8.1086420056 8.5411687388 3.3789089347 
Si 10.0429134227 0.0727086360 9.2754148036 
Si 9.4282392925 10.4170600056 0.5825927212 
Si 9.5533791481 1.7095952871 0.0233627974 
Si 4.1665539083 0.1779155557 10.0548019857 
Si 1.0706337303 4.4613216407 7.7354695322 
Si 8.5887672686 2.4891485106 4.6099065396 
Si 3.0852149365 0.1099193955 7.6881034603 
Si 3.2364786364 3.4071913169 6.7306867074 
Si 5.4532307236 3.2343643761 5.3719590013 
Si 10.4602086263 5.1873099141 3.1534800838 
Si 10.2347465671 0.9889612949 4.5282584569 
Si 1.4060273614 5.2061722152 4.4575580360 
Si 6.7982212726 6.1417157832 0.2875017615 
Si 5.5614343581 9.4217083314 8.4545726229 
Si 8.3567742483 8.1137339414 0.9731032358 
Si 2.7026998679 6.2010146958 1.3774239658 
Si 9.9142534898 9.2228128935 7.8175936002 
Si 0.0963423023 7.5832981394 8.8661670723 
Si 1.5976169784 1.3490640976 5.1706836369 
Si 8.5218636607 5.3365036314 1.5339567122 
Si 1.2875180916 6.1752229343 10.2789357138 
Si 3.4544134862 5.7701373071 6.3412643173 
Si 4.2445380111 10.9698781860 5.5179868629 
Si 6.4265763798 2.9410799467 1.6610115784 
Si 0.4995764575 9.6594795918 0.0566103705 
Si 10.6866115867 7.7034124758 4.0472365705 
Si 7.7735262171 2.9829666529 8.3680982706 
Si 5.6346696774 11.0659054525 2.7277057002 
Si 6.4099943804 1.0060535948 5.3921607029 
Si 5.5078140609 5.9887584613 3.9844507889 
Si 5.9113167603 7.6280296880 6.8122240959 
Si 6.1846872931 7.7492288281 2.2556279096 
Si 7.7902299803 9.6981672340 9.6841201330 
Si 6.8415580735 0.4282605766 7.8775898865 
Si 7.6774103953 0.9672021251 1.6775271613 
Si 1.7952837101 1.6015244856 9.6024167032 
Si 7.7608517249 4.2936309133 3.4359164762 

