&CONTROL
   calculation      = 'scf'
   tstress          = .true.
   tprnfor          = .true.
   outdir           = './'
   disk_io          = 'none'
   pseudo_dir       = '/home/ppiaggi/pseudos'
/
&SYSTEM
   ecutwfc          = 30
   occupations      = 'smearing'
   degauss          = 0.01
   smearing         = 'fermi-dirac'
   input_dft        = 'PBE'
   ntyp             = 1
   nat              = 64
   ibrav            = 0
/
&ELECTRONS
   electron_maxstep = 100
   mixing_beta      = 0.5
/
&IONS
/
&CELL
/

ATOMIC_SPECIES
Si 28.085 Si_ONCV_PBE_sr.upf

K_POINTS gamma

CELL_PARAMETERS angstrom
10.75068605055236 0.00000000000000 0.00000000000000
0.00000000000000 10.75068605055236 0.00000000000000
0.00000000000000 0.00000000000000 10.75068605055236

ATOMIC_POSITIONS angstrom
Si 2.0636479408 7.8638903309 2.0548753810 
Si 3.9446632270 9.6072968356 2.4851930916 
Si 4.0068666965 0.6162013726 7.9008511895 
Si 10.2589496706 10.1587855287 1.5644720861 
Si 10.6914820225 3.9057457435 5.3674305203 
Si 5.2988518940 1.2565724376 4.2420809566 
Si 3.9806027705 5.4738300602 5.8111865885 
Si 10.5298454577 5.2537742674 10.6814301310 
Si 6.9034885432 10.3297966917 5.5909265326 
Si 4.3021557903 6.7364336327 9.9336016587 
Si 1.4589326012 9.3188559289 7.3508675926 
Si 7.9161709171 1.2046358733 3.1977915657 
Si 7.1894352908 1.8654375421 0.7822048661 
Si 8.9030516445 4.2307067308 6.7339717256 
Si 4.3736801046 7.1361656414 3.4784919785 
Si 10.3119935556 9.6032868297 4.3889138267 
Si 4.0343239487 4.7953220115 2.1222176784 
Si 7.1229315469 10.3682518957 0.1897238071 
Si 9.8107643198 2.0280094166 8.3194399016 
Si 0.7155000843 3.2023606073 9.4936728348 
Si 9.2469230885 9.1076802028 8.9477207451 
Si 10.5548300521 6.5792478520 8.4332251628 
Si 2.0541980878 7.3891400349 8.7283422455 
Si 6.4856416285 4.5962085551 5.6499908018 
Si 1.1862844522 7.5979183580 5.3606038347 
Si 2.9789828525 3.4580656750 8.6036987915 
Si 9.6163596640 7.5186858018 5.9486341096 
Si 10.1619892331 0.2901685420 9.9387727386 
Si 7.3584790783 2.9928512376 7.8403248271 
Si 8.5513321997 5.8461370688 3.8685376191 
Si 6.3168558575 0.9032909181 8.3641842569 
Si 8.1142200556 7.6907182800 1.8869496649 
Si 10.6600147644 4.1278871694 2.8816568917 
Si 1.6427048285 10.7345385201 9.2993219324 
Si 9.0082041048 4.4541059869 9.1902884744 
Si 6.3746407950 4.7333873091 1.0264561529 
Si 5.3528203380 7.1226305277 1.1936594229 
Si 8.8477823675 4.6103672087 1.5877903242 
Si 1.5646333464 0.3367985677 2.1263136898 
Si 6.2245397164 3.2420736416 2.9735752575 
Si 2.2707921597 9.4358556452 4.0087695680 
Si 0.6468107260 1.0357888234 5.4839787078 
Si 3.4501854221 3.7657288084 4.2730321818 
Si 5.2988841461 8.8971925206 6.7312948048 
Si 3.3228435459 7.8540964559 6.3007190778 
Si 6.4208902464 10.0203489444 3.2674237593 
Si 9.2536745194 2.3285878479 10.6129697622 
Si 2.8689925836 0.7480467113 5.1009317638 
Si 4.9089352617 9.6950439352 9.6917542253 
Si 9.9582099790 8.0511027778 0.2473861868 
Si 2.0742158652 2.6640737568 2.1169605930 
Si 1.5880698420 4.8241983542 7.1029352709 
Si 6.8153114163 5.5524820793 9.3865852510 
Si 2.8221625951 9.1254725882 0.1726721440 
Si 7.6632395264 6.3373896679 6.8691078493 
Si 1.2132686742 6.2956447539 3.4583666942 
Si 4.1939931379 1.3019833355 1.9232762331 
Si 2.5121988149 5.0981473361 10.5952956344 
Si 1.5952943030 1.6786228706 7.7824001306 
Si 8.1778426156 8.7248590232 4.0871528200 
Si 6.4109888646 8.0207213390 8.8705093179 
Si 5.0644976888 2.0197421390 10.2633467012 
Si 10.2699046197 1.3725185867 3.3613417526 
Si 5.2501190342 5.8207331977 7.7174444855 

