&CONTROL
   calculation      = 'scf'
   tstress          = .true.
   tprnfor          = .true.
   outdir           = './'
   disk_io          = 'none'
   pseudo_dir       = '/home/ppiaggi/pseudos'
/
&SYSTEM
   ecutwfc          = 30
   occupations      = 'smearing'
   degauss          = 0.01
   smearing         = 'fermi-dirac'
   input_dft        = 'PBE'
   ntyp             = 1
   nat              = 64
   ibrav            = 0
/
&ELECTRONS
   electron_maxstep = 100
   mixing_beta      = 0.5
/
&IONS
/
&CELL
/

ATOMIC_SPECIES
Si 28.085 Si_ONCV_PBE_sr.upf

K_POINTS gamma

CELL_PARAMETERS angstrom
10.49934228328179 0.00000000000000 0.00000000000000
0.00000000000000 10.49934228328179 0.00000000000000
0.00000000000000 0.00000000000000 10.49934228328179

ATOMIC_POSITIONS angstrom
Si 10.2001005289 3.1328357479 4.0181297898 
Si 5.5847576506 2.6618352530 4.0631299709 
Si 7.9594358922 2.1215495985 2.2755644504 
Si 4.7333974829 9.0038054691 2.3934930630 
Si 0.4515200152 1.2954613476 8.3785276388 
Si 1.5142361428 10.4791520481 1.3261824231 
Si 1.9466305560 3.6648689194 4.4711869087 
Si 4.3892080442 0.5209479659 0.0839842389 
Si 9.3105542533 6.5739006871 9.4465102365 
Si 2.4295793024 2.3111572208 6.8657614039 
Si 3.4457476459 6.1557748800 2.5642543658 
Si 1.1440608319 8.0582976991 1.4805647521 
Si 6.8138421563 3.8564084206 5.5214151186 
Si 5.1036252905 1.5907973467 6.5580991770 
Si 2.6625387090 0.0267818273 6.6655494459 
Si 5.4373363856 7.6144275048 4.2005768607 
Si 3.8300970689 4.8650802338 0.0792274069 
Si 8.6703463582 3.3985321037 7.0867200623 
Si 6.9923519738 3.1477238152 0.1385419712 
Si 1.2886157765 6.2064657046 8.8235317621 
Si 2.6613522833 1.2647507714 9.2291213545 
Si 0.2157194866 9.9612299926 6.6032673475 
Si 3.2482340189 4.6711783805 6.2075156388 
Si 6.3866554168 7.4675627049 1.4942243964 
Si 7.1050309152 9.7826466797 2.1094648555 
Si 9.2704992624 6.8811324410 3.6545270672 
Si 7.8980147398 8.1636795976 6.9017111519 
Si 9.6422494747 9.7038911132 3.9467447617 
Si 7.5487436194 8.7854716463 4.2936430307 
Si 9.2491016029 6.2899249764 6.1514911484 
Si 8.0328577928 4.7482225542 0.9581027810 
Si 9.9860819358 5.2477392627 1.9955889891 
Si 2.4125808672 8.9783970608 8.8968066719 
Si 1.9261883366 6.6633655827 6.0773552925 
Si 5.2197270174 8.9831322642 6.4055857310 
Si 4.7169240148 1.1560195828 2.3698380448 
Si 8.8014936427 9.6198228796 8.6734016668 
Si 3.2944941210 1.3384771530 4.7653994782 
Si 3.6974168805 6.5851349834 8.8563527061 
Si 2.2521824152 2.5713204232 1.6747395883 
Si 0.3375486047 9.3559744080 10.2185898706 
Si 7.2250173988 8.3286242649 9.7381084697 
Si 4.0564943865 3.8460560692 8.5152290753 
Si 8.6603089870 1.6639147664 9.5150919403 
Si 8.9530306498 8.5720830138 1.1852602510 
Si 7.5494155773 0.8725982373 4.3685768366 
Si 6.6280142972 10.3475847899 7.8455390271 
Si 4.1942667560 3.9642051679 2.3847366115 
Si 6.0858177624 1.8669405481 8.8031945361 
Si 1.4878827936 6.8064821174 3.5572611603 
Si 5.2403162277 5.8945197460 5.6520794333 
Si 6.8775101679 10.4849371857 10.4134051667 
Si 0.1035831512 7.7471706892 7.4859050559 
Si 4.3555786508 8.6495261624 10.1490947241 
Si 2.1450786245 10.0265149029 3.8161329437 
Si 0.4639848343 4.8010342459 10.4889374351 
Si 7.1047999297 6.4728655163 8.5038477883 
Si 5.8427789872 5.5365341715 2.8737014810 
Si 9.1625975218 1.5351088352 5.7291026083 
Si 1.1651330119 3.4891309282 8.6779478820 
Si 10.4046277165 1.7293886648 1.7511223034 
Si 8.1305331740 4.8400393025 3.4909158164 
Si 6.2101719724 4.5566620542 7.8446990797 
Si 0.1596886965 4.3598203851 5.9518881522 

