&CONTROL
   calculation      = 'scf'
   tstress          = .true.
   tprnfor          = .true.
   outdir           = './'
   disk_io          = 'none'
   pseudo_dir       = '/home/ppiaggi/pseudos'
/
&SYSTEM
   ecutwfc          = 30
   occupations      = 'smearing'
   degauss          = 0.01
   smearing         = 'fermi-dirac'
   input_dft        = 'PBE'
   ntyp             = 1
   nat              = 64
   ibrav            = 0
/
&ELECTRONS
   electron_maxstep = 100
   mixing_beta      = 0.5
/
&IONS
/
&CELL
/

ATOMIC_SPECIES
Si 28.085 Si_ONCV_PBE_sr.upf

K_POINTS gamma

CELL_PARAMETERS angstrom
10.65472244342742 0.00000000000000 0.00000000000000
0.00000000000000 10.65472244342742 0.00000000000000
0.00000000000000 0.00000000000000 10.65472244342742

ATOMIC_POSITIONS angstrom
Si 0.5937035095 3.3702698391 4.0595557982 
Si 3.7940933885 2.4797587920 6.8551738370 
Si 8.2492909952 1.2534322030 0.4683784022 
Si 4.6753454818 8.1929488229 1.9695787173 
Si 2.2005837546 2.1435170612 8.3835511527 
Si 2.0203378150 0.9071164320 0.4177130660 
Si 2.0310777752 5.1847477618 2.9807438413 
Si 5.7243881441 0.4422370407 1.9410240611 
Si 8.0140879972 8.7843391921 9.6039750255 
Si 1.5431341062 1.3949056076 6.2123957415 
Si 3.5978973294 6.2552064163 1.9589346496 
Si 1.2529101216 5.7994932826 0.6451317238 
Si 7.7443743533 5.6688450760 6.0158693860 
Si 7.2203005205 2.6889855767 5.3349580388 
Si 1.9242535280 7.8181902704 5.6593304089 
Si 4.0713825401 6.7661216669 4.3974809752 
Si 5.7582275426 5.7874001727 9.7468761629 
Si 9.5416981728 1.7749915213 9.0587196045 
Si 6.3872290821 2.7182114803 10.4409460923 
Si 2.7288662028 5.9768091735 9.3853401210 
Si 3.9438561672 10.5459696914 8.9161807276 
Si 0.0180483540 8.1067840825 7.4013136000 
Si 1.9781877330 4.7600185610 5.5312606451 
Si 7.2978562451 8.2383592499 1.3694088568 
Si 7.9279019474 10.4778327414 3.1368142157 
Si 9.8375158867 6.5153734289 4.2496253918 
Si 7.0241364256 10.3595440129 5.5087152524 
Si 10.4879014541 10.6003727042 4.3396897607 
Si 6.1222461349 8.4390196377 3.9669556054 
Si 8.0889480771 8.2506974185 5.2453198589 
Si 7.6731901526 6.1499697227 0.3556535697 
Si 9.2442929053 6.3464321498 1.8787685179 
Si 1.7330012601 8.9196328577 10.1803848550 
Si 0.9900677081 6.1226510143 7.1531438049 
Si 4.3680206676 8.1375868851 6.5321546167 
Si 4.1183059377 0.6487980137 3.9459658022 
Si 0.5257253148 0.2033293957 9.3317894860 
Si 3.0001674003 9.8504081009 5.5175160532 
Si 3.8315340832 7.9390148229 8.8910675468 
Si 2.5445395045 2.0790559904 3.3975672380 
Si 9.5949398209 9.8515801204 0.4915034118 
Si 6.9913411899 9.8871775480 7.9699241727 
Si 3.6185248721 2.4899979803 10.4396781804 
Si 10.1077303026 3.1150679272 0.8337671918 
Si 10.2518780426 8.7253439939 2.4174499752 
Si 9.3936827686 1.7537779689 5.0250867460 
Si 5.7576521876 1.1484512227 6.9490845607 
Si 5.2432741522 2.7287170367 3.1982067264 
Si 5.1763518405 4.3317200283 8.1370328395 
Si 1.2960830569 7.5312159761 3.5189138719 
Si 4.3262435009 4.6538442519 6.0053425202 
Si 7.1331342361 1.5462026663 8.7855751399 
Si 9.2308466455 6.9355530632 8.4774938404 
Si 5.7314202609 9.5721387148 10.4432048935 
Si 2.1990175104 8.7715215610 1.6404436863 
Si 1.3909953244 3.9608611042 10.0104420320 
Si 6.4499747425 7.3365541970 7.9907008815 
Si 5.5114215519 4.7315704521 1.7857421362 
Si 10.2135530059 10.4956474373 6.9492870004 
Si 0.7390424474 3.5424927727 7.2771115005 
Si 0.3839024353 1.1762813578 2.4347745539 
Si 6.7202211226 4.3054028638 3.8639990224 
Si 7.7148288079 5.1169197987 8.9188870271 
Si 9.8969479285 4.6890900737 5.8478976867 

