&CONTROL
   calculation      = 'scf'
   tstress          = .true.
   tprnfor          = .true.
   outdir           = './'
   disk_io          = 'none'
   pseudo_dir       = '/home/ppiaggi/pseudos'
/
&SYSTEM
   ecutwfc          = 30
   occupations      = 'smearing'
   degauss          = 0.01
   smearing         = 'fermi-dirac'
   input_dft        = 'PBE'
   ntyp             = 1
   nat              = 64
   ibrav            = 0
/
&ELECTRONS
   electron_maxstep = 100
   mixing_beta      = 0.5
/
&IONS
/
&CELL
/

ATOMIC_SPECIES
Si 28.085 Si_ONCV_PBE_sr.upf

K_POINTS gamma

CELL_PARAMETERS angstrom
10.53044570069600 0.00000000000000 0.00000000000000
0.00000000000000 10.53044570069600 0.00000000000000
0.00000000000000 0.00000000000000 10.53044570069600

ATOMIC_POSITIONS angstrom
Si 0.6194966432 3.6444819526 3.6293286412 
Si 3.0444782174 9.6899897684 5.5809993256 
Si 7.1039545046 2.9587603894 10.0080513504 
Si 5.9486593068 0.2788462022 0.9517616903 
Si 2.9572966575 2.3852828470 9.9949830673 
Si 3.2784331296 10.4685688018 3.3743444290 
Si 2.8135455432 2.6157943034 5.2353269150 
Si 6.7883359861 2.4668727403 1.7493387007 
Si 5.1030750474 10.2658682525 7.6316140778 
Si 0.3178488669 10.1955248752 5.0674084279 
Si 2.3840718457 5.6796696018 2.8095018521 
Si 7.9173893132 6.2751873671 1.1166379317 
Si 8.9335352015 7.7425102014 8.0886459516 
Si 8.3654492473 3.5662618019 4.5385483839 
Si 3.0967934717 6.2113833966 8.2431381205 
Si 3.6801485721 5.8404273859 5.1459760832 
Si 6.9429650507 6.2503671065 9.2247125556 
Si 10.1579417145 0.7447415522 0.1618645339 
Si 6.1108913532 3.5594170122 5.8041921222 
Si 0.9086174012 4.1653072665 0.8417311692 
Si 6.6706687858 10.1011299599 5.8071301166 
Si 8.5693713283 9.9998481332 7.2613741374 
Si 10.5001917302 2.8081434246 5.7396194292 
Si 5.0057105465 7.8237104682 2.5333409136 
Si 9.1392474583 0.2243795779 2.3113169964 
Si 9.4297298029 6.3410342440 3.2659756123 
Si 7.3237775586 1.3186961238 3.7650976776 
Si 0.5367610374 1.1659941307 2.4228975990 
Si 5.1734394856 9.2547875085 4.1890955433 
Si 9.8799906002 7.9943036886 5.3463599345 
Si 5.4091424517 4.4708797398 9.7353338676 
Si 0.5028666918 6.6187220971 1.4661750158 
Si 2.2186280133 7.4036299283 0.0804112205 
Si 0.6564521893 7.8976657884 9.0304890151 
Si 7.2858363627 7.9016989491 6.1471160864 
Si 1.6845553987 7.9726952140 4.4175114410 
Si 3.8083883399 8.4049700100 8.3372171224 
Si 1.6199300535 8.4237563252 6.7689283746 
Si 5.2361482898 6.9094677029 6.7675910080 
Si 1.6520900346 0.8458475205 6.6566738235 
Si 8.5421922479 1.2782592123 8.7752836635 
Si 7.4451514757 8.1973728035 3.6154179224 
Si 2.5014336631 2.5994615821 2.4155262871 
Si 9.0206746397 3.6278754397 0.2904349576 
Si 0.9674436300 8.9202773704 1.8087409449 
Si 9.0118606566 1.0830247490 5.5281786099 
Si 5.2055994668 1.7560676555 4.5285339300 
Si 4.8995320625 4.0008954177 3.6917425929 
Si 4.6044268522 3.2838668395 7.6228316860 
Si 1.0207382157 5.8358887638 5.0507071410 
Si 2.5391537196 4.2730442564 6.8253189114 
Si 8.0041917771 3.2938391716 7.5323856879 
Si 6.7686967048 8.6996434721 1.2582197741 
Si 3.5100081610 1.2092953234 7.9289622730 
Si 4.0482297712 6.8070907098 0.9507644571 
Si 1.3832898777 3.7604853424 9.2415612687 
Si 7.3361508323 9.7304898626 9.7129461401 
Si 4.2265102169 3.7225652074 1.1063496862 
Si 2.0166014126 10.0074511150 10.1546140936 
Si 10.1341007854 4.2407895012 7.8682753144 
Si 3.6684913688 0.5983683569 0.9558127527 
Si 7.3322650978 4.6643661491 2.7439814189 
Si 9.3788782807 5.6575977876 9.5615288613 
Si 8.6538992159 5.6722351071 6.2164380105 

