&CONTROL
   calculation      = 'scf'
   tstress          = .true.
   tprnfor          = .true.
   outdir           = './'
   disk_io          = 'none'
   pseudo_dir       = '/home/ppiaggi/pseudos'
/
&SYSTEM
   ecutwfc          = 30
   occupations      = 'smearing'
   degauss          = 0.01
   smearing         = 'fermi-dirac'
   input_dft        = 'PBE'
   ntyp             = 1
   nat              = 64
   ibrav            = 0
/
&ELECTRONS
   electron_maxstep = 100
   mixing_beta      = 0.5
/
&IONS
/
&CELL
/

ATOMIC_SPECIES
Si 28.085 Si_ONCV_PBE_sr.upf

K_POINTS gamma

CELL_PARAMETERS angstrom
10.78299675195534 0.00000000000000 0.00000000000000
0.00000000000000 10.78299675195534 0.00000000000000
0.00000000000000 0.00000000000000 10.78299675195534

ATOMIC_POSITIONS angstrom
Si 1.0898159157 3.0744264679 5.5743564349 
Si 2.9920551557 8.9891158463 5.5724909765 
Si 6.6370746798 2.9196042006 9.3868251155 
Si 6.0542105734 1.1849327301 0.2843044924 
Si 3.7142894952 2.2937698521 10.3657702586 
Si 2.8141680583 10.6175640158 3.0382926458 
Si 2.8063611687 1.7792483791 6.1535327564 
Si 7.3542517938 2.9118188769 1.9119223711 
Si 5.6324983534 10.2534545645 7.9624882915 
Si 10.3081459240 0.5363602763 3.8099670254 
Si 2.1356372047 5.4262196255 4.2765472948 
Si 8.7770466492 7.0840838101 0.2623999128 
Si 8.5666703826 7.2567950691 8.6715242430 
Si 9.5397495754 3.9487657596 4.1098421650 
Si 4.1819049323 6.8567458896 8.9675929848 
Si 3.9414764538 5.9021811022 5.3968575254 
Si 6.2504934632 6.6798616109 9.8917928534 
Si 10.3714852469 0.5032812772 0.5207993337 
Si 6.1478824661 4.0122236954 5.4221328697 
Si 10.4666236273 4.0896563951 2.3652934695 
Si 6.5553826964 10.1222578430 5.9031623549 
Si 9.6118554747 9.1346216045 7.6727276028 
Si 10.2248796231 2.6590007351 7.3713320606 
Si 5.8754284872 8.6016180750 2.2260957645 
Si 9.1889894741 9.8216386765 2.2567949562 
Si 9.0767600439 6.4598669112 2.5377459366 
Si 6.8527669638 0.3945541644 2.6390414081 
Si 1.2456302188 1.7918213533 1.9957925198 
Si 5.1063959419 9.8498685620 3.9490676835 
Si 10.2105813694 8.7119712638 5.3453794989 
Si 5.0898009099 4.3895746668 9.9852922182 
Si 1.3221355807 7.2174586970 1.3847093109 
Si 2.6343939365 7.8591332677 10.5533297041 
Si 0.5238358256 7.2993339913 8.0530115493 
Si 8.0038949991 7.9754925856 6.2789497917 
Si 1.5200898351 7.7972496493 4.5535516984 
Si 3.8873134611 8.9758096283 7.7784441030 
Si 1.2078465982 9.6193604405 7.9371913812 
Si 5.9802068666 6.3250578858 6.6922728402 
Si 0.8231049609 0.2935358159 6.1211837662 
Si 9.7302851281 1.3814204969 9.3399837776 
Si 7.2259341324 7.4430605550 4.0332181901 
Si 2.4268428150 3.6500767495 2.9294059446 
Si 8.9111439968 3.4652669682 0.1620457969 
Si 0.6594632805 9.2547334053 2.7691382639 
Si 8.8307783220 1.0981835212 5.5343191680 
Si 4.9639956867 2.3875603578 4.1570069928 
Si 4.8287229925 4.5739423452 3.1727350493 
Si 5.1377421134 3.3574370007 7.5281491824 
Si 9.4411175042 6.1242784863 5.6340511049 
Si 3.4526400790 5.0767319178 7.5481624243 
Si 7.7089692549 2.6930103068 7.2378385608 
Si 7.3916903585 9.1956318001 0.5208554053 
Si 4.2699157518 1.3505379942 8.1701580260 
Si 4.5625662837 7.0131640405 1.0341745742 
Si 2.2449336598 4.2105661377 9.6574352020 
Si 7.8391308087 10.6342668778 9.3902217595 
Si 3.5002038777 4.2677915015 0.9172696366 
Si 1.9215084552 9.9166045289 0.5728003356 
Si 0.8876681539 5.3262935946 6.8761013688 
Si 3.9197918473 0.1541364688 0.8685434309 
Si 7.2405774420 5.1119707512 3.3767062159 
Si 10.6311613747 5.3656299668 10.4872407170 
Si 8.0496903863 5.3327741757 7.3684961325 

