&CONTROL
   calculation      = 'scf'
   tstress          = .true.
   tprnfor          = .true.
   outdir           = './'
   disk_io          = 'none'
   pseudo_dir       = '/home/ppiaggi/pseudos'
/
&SYSTEM
   ecutwfc          = 30
   occupations      = 'smearing'
   degauss          = 0.01
   smearing         = 'fermi-dirac'
   input_dft        = 'PBE'
   ntyp             = 1
   nat              = 64
   ibrav            = 0
/
&ELECTRONS
   electron_maxstep = 100
   mixing_beta      = 0.5
/
&IONS
/
&CELL
/

ATOMIC_SPECIES
Si 28.085 Si_ONCV_PBE_sr.upf

K_POINTS gamma

CELL_PARAMETERS angstrom
10.59899477134559 0.00000000000000 0.00000000000000
0.00000000000000 10.59899477134559 0.00000000000000
0.00000000000000 0.00000000000000 10.59899477134559

ATOMIC_POSITIONS angstrom
Si 10.3208347526 3.0488538410 2.8388559575 
Si 3.6526043801 2.4160408581 7.0324224318 
Si 7.7593968842 1.7795182271 10.4545940666 
Si 6.1462934739 8.9233678910 0.8544665808 
Si 2.8649294847 2.0123357463 9.2462768657 
Si 4.1328024372 9.7345089608 1.8061217040 
Si 1.8781948685 3.6615393327 3.0982133596 
Si 6.4468067727 0.5667494484 1.5905699473 
Si 6.1761508422 10.1083143084 9.4918555745 
Si 1.6661831760 9.9236798195 5.1441691173 
Si 3.3403579941 5.6210602880 3.3988326483 
Si 9.3865863584 5.6292745090 0.6357542039 
Si 7.7420145327 6.5145767453 7.5101933191 
Si 8.5105794406 3.0133260105 4.5663225214 
Si 0.9494091962 6.4940464924 7.6297499801 
Si 4.5589668190 4.8173173165 5.2518761022 
Si 3.8987766327 7.5268867359 9.7251288504 
Si 10.3205379807 1.6190812433 9.8649401905 
Si 6.9165330230 3.9038747492 7.8445280102 
Si 2.8561747150 5.4103946680 0.9491717788 
Si 5.8258328670 0.4861599917 7.0070802353 
Si 9.2859595021 9.6531510769 7.6796500475 
Si 0.2223605509 4.5126386128 5.3818515750 
Si 6.8059961065 7.1678669860 2.4287808498 
Si 9.0375614606 10.2720581786 2.6643435086 
Si 7.9911015089 5.8658758693 3.7487584607 
Si 6.7890589128 1.2420855983 3.8464069995 
Si 0.8724753328 0.6562272222 3.4925171631 
Si 5.2604824859 8.0166132893 4.3163664277 
Si 9.5980257051 9.3315563776 5.1221444062 
Si 5.2424429968 4.9826404370 9.8822271509 
Si 0.1325573880 6.8593620452 1.9751968686 
Si 1.7347798702 7.2390286369 9.9341728243 
Si 10.2712844520 8.0118437416 8.9787158417 
Si 5.6255012668 7.3528936377 6.4145010366 
Si 2.8469747875 8.9967447318 3.6498910375 
Si 2.2584550039 9.4169312805 9.0729197072 
Si 2.6344437444 7.8807659733 6.4479302661 
Si 4.5928412063 8.9792669894 7.7574254711 
Si 1.5183907930 2.3123084963 5.3915602543 
Si 8.5994732097 10.3754089766 9.4975578337 
Si 7.2952457051 9.4847118520 4.3144692076 
Si 3.2115378117 3.0537717745 0.9869020803 
Si 9.9210088728 3.3149840007 0.5205855267 
Si 0.6532192275 9.6531510769 1.4605626775 
Si 9.6446930791 1.4042608173 6.0302132832 
Si 4.9034553470 1.5718627216 5.0951381675 
Si 4.3638181273 3.2485495014 3.3842590305 
Si 4.7095679357 4.2699640286 7.6046515605 
Si 1.2038444251 6.5712919663 4.1300678966 
Si 2.5893132247 5.2401324160 6.9983572626 
Si 7.9182758158 1.8954818289 7.8019518482 
Si 8.7675944648 7.9515566594 1.0013124736 
Si 5.2123524507 1.8465780671 9.6089532687 
Si 3.4200518358 7.4880414200 1.8314003065 
Si 1.4172657838 4.2996730109 10.0352342395 
Si 7.2558386426 7.9426535038 9.4191782674 
Si 6.0880413987 3.5362910115 1.1063972672 
Si 0.6371797687 0.4093003212 8.0776317022 
Si 0.6389921968 2.8435937082 7.6198717170 
Si 2.3172052319 1.0858246183 1.3315941091 
Si 6.6249970728 4.3654503725 3.0872010040 
Si 9.1387712617 5.2644041140 8.8991279899 
Si 8.5476229273 4.9541927350 5.9873615473 

