&CONTROL
   calculation      = 'scf'
   tstress          = .true.
   tprnfor          = .true.
   outdir           = './'
   disk_io          = 'none'
   pseudo_dir       = '/home/ppiaggi/pseudos'
/
&SYSTEM
   ecutwfc          = 30
   occupations      = 'smearing'
   degauss          = 0.01
   smearing         = 'fermi-dirac'
   input_dft        = 'PBE'
   ntyp             = 1
   nat              = 64
   ibrav            = 0
/
&ELECTRONS
   electron_maxstep = 100
   mixing_beta      = 0.5
/
&IONS
/
&CELL
/

ATOMIC_SPECIES
Si 28.085 Si_ONCV_PBE_sr.upf

K_POINTS gamma

CELL_PARAMETERS angstrom
10.76901073514169 0.00000000000000 0.00000000000000
0.00000000000000 10.76901073514169 0.00000000000000
0.00000000000000 0.00000000000000 10.76901073514169

ATOMIC_POSITIONS angstrom
Si 1.1222493777 3.0737556581 5.4465241004 
Si 2.9710946788 9.0306554843 5.6052808567 
Si 6.6065619368 2.8412096403 9.3848805544 
Si 6.0180570381 1.1632577706 0.2046273575 
Si 3.6814724719 2.3330630997 10.3524977069 
Si 2.7656757990 10.5911712919 3.0992997516 
Si 2.7651265794 1.9173900544 6.1211380089 
Si 7.3606942205 2.9021191650 1.9139655089 
Si 5.7073710784 10.3468332073 8.0683797610 
Si 10.3971460254 0.3556347336 3.8628226127 
Si 2.0952725737 5.4685574964 4.0646554119 
Si 8.6189131278 7.0640079748 0.2288080942 
Si 8.5471376713 7.2377551940 8.6623660861 
Si 9.5190516591 3.9357395844 4.1109621580 
Si 4.0983624155 6.8017717944 8.9846825774 
Si 3.9775448840 5.9795578248 5.3581859053 
Si 6.3821465221 6.6794573705 9.7698726881 
Si 10.4084857938 0.5816364236 0.5118521571 
Si 6.1826398292 4.0035628140 5.5191180018 
Si 10.5559889338 4.1461875921 2.3121389119 
Si 6.5514353708 10.1338760200 5.8929103644 
Si 9.4394148247 9.1858153909 7.6124521535 
Si 10.1424696906 2.6254525102 7.2927848388 
Si 5.8344669431 8.4485150709 2.2388557938 
Si 9.1188213751 9.7476454500 2.2281729352 
Si 9.1241304974 6.5159945565 2.7061770147 
Si 6.9655469096 0.5270741538 2.7232889727 
Si 1.1903633706 1.6606891455 1.9706105054 
Si 5.0688118179 9.7687096350 4.0222255096 
Si 10.1709321859 8.7880727484 5.2596494571 
Si 5.1126955366 4.3733275666 9.8775197195 
Si 1.2029308061 7.2172725356 1.4512749627 
Si 2.6029129707 7.8071343296 10.4795612646 
Si 0.5162006837 7.2224631987 8.0811625767 
Si 8.0982745348 7.8739775792 6.2611566865 
Si 1.5800400241 7.7448679095 4.4533413163 
Si 3.9213306480 8.9136178756 7.8257431801 
Si 1.2870475490 9.5089072510 7.8337014791 
Si 5.9449139172 6.3285814627 6.7909489386 
Si 0.8359983034 0.3521046519 6.2028963384 
Si 9.6617625894 1.4194309980 9.1947967459 
Si 7.3354408904 7.5008313572 4.0521956665 
Si 2.3486027822 3.6986059680 2.8773719783 
Si 8.9685613684 3.5837113924 0.2495804390 
Si 0.7197285252 9.2266622486 2.7595051558 
Si 8.8553036825 1.0785918082 5.5441774897 
Si 4.9802474736 2.3119773767 4.1656687326 
Si 4.7759378019 4.5347981135 3.1950362570 
Si 5.1154416344 3.3878123182 7.6022969764 
Si 9.5443696034 6.1669924566 5.5740830326 
Si 3.3672219696 4.9636847351 7.4732088447 
Si 7.7618506394 2.7717279830 7.3303363793 
Si 7.4010457038 9.1763494305 0.5550218905 
Si 4.1612426692 1.2828476348 8.1108096633 
Si 4.6404744159 6.9925771266 1.0846655303 
Si 2.2353558653 4.1330278610 9.6755469231 
Si 7.7215206942 10.5267941457 9.3520458406 
Si 3.5242879912 4.2859262754 0.9402940185 
Si 1.8678418360 10.0008464304 0.4994796407 
Si 0.7974377066 5.3090469093 7.0266610456 
Si 3.9263490070 0.1836740933 0.9032809286 
Si 7.2624269976 5.1104878894 3.2863897751 
Si 10.4892749123 5.3279034471 10.5227019216 
Si 8.0805702812 5.3787008708 7.2704068345 

