&CONTROL
   calculation      = 'scf'
   tstress          = .true.
   tprnfor          = .true.
   outdir           = './'
   disk_io          = 'none'
   pseudo_dir       = '/home/ppiaggi/pseudos'
/
&SYSTEM
   ecutwfc          = 30
   occupations      = 'smearing'
   degauss          = 0.01
   smearing         = 'fermi-dirac'
   input_dft        = 'PBE'
   ntyp             = 1
   nat              = 64
   ibrav            = 0
/
&ELECTRONS
   electron_maxstep = 100
   mixing_beta      = 0.5
/
&IONS
/
&CELL
/

ATOMIC_SPECIES
Si 28.085 Si_ONCV_PBE_sr.upf

K_POINTS gamma

CELL_PARAMETERS angstrom
10.60775744455163 0.00000000000000 0.00000000000000
0.00000000000000 10.60775744455163 0.00000000000000
0.00000000000000 0.00000000000000 10.60775744455163

ATOMIC_POSITIONS angstrom
Si 0.2804988086 3.0005208785 4.4877815110 
Si 4.3452556820 2.3379073097 6.2468128893 
Si 7.9666273882 1.3412130280 0.9543958489 
Si 4.5913132237 8.3946504011 2.2352560410 
Si 1.9250109590 2.1029136591 8.8156616864 
Si 1.6743708661 0.5599039573 0.7366132847 
Si 1.8279393706 4.9995527689 2.9497733669 
Si 5.6822362148 0.8823500819 1.6216609193 
Si 8.4018742840 8.0954904257 9.6536427012 
Si 1.6904628341 1.6709975992 6.3950456918 
Si 4.1275951070 5.8267350867 1.3982297243 
Si 1.7419847120 6.2391646962 0.8440868400 
Si 7.4839850323 5.0653102573 5.9150977062 
Si 6.9391069634 2.5584107637 5.6573292003 
Si 2.1826097408 8.2495362793 5.9020925956 
Si 4.2367807544 7.2691673363 4.4639352723 
Si 5.0167161205 5.1870236663 9.9916164611 
Si 9.5318868613 2.3461707528 8.6613930698 
Si 5.6658154063 2.7143235827 0.3653163155 
Si 2.7067496439 5.8601495227 9.0007564460 
Si 3.4523158758 10.4646163656 9.4910045641 
Si 0.7872197131 8.6049067614 7.6510784275 
Si 2.2031781824 4.5722192603 5.1622121216 
Si 6.9371869593 8.4518898603 1.2404287245 
Si 7.4696221287 0.1832309767 2.9856806259 
Si 10.0517730536 6.4202497235 4.1251447150 
Si 7.1553354911 10.4311913219 5.4547528564 
Si 0.0023602260 10.0540961525 4.2792648229 
Si 6.2023769933 8.6390849559 4.1156825954 
Si 7.9976762943 7.2435496020 5.5401877349 
Si 7.3735794928 6.1112139259 0.4122248797 
Si 9.2936366290 6.1586518172 1.6854241493 
Si 1.7302843556 8.9904457058 9.6226574417 
Si 1.2992487396 5.9520445254 7.2360923486 
Si 4.2334287030 8.0273992306 6.7123343247 
Si 4.4846203993 0.7987651964 3.9151005099 
Si 0.2811713404 0.2814916947 8.8257602714 
Si 3.0106088559 10.5532547868 5.6261954322 
Si 4.1414806615 8.0140546718 9.0975734482 
Si 2.3202029626 2.6315830746 3.0275706600 
Si 9.6879481888 10.0458008862 0.3539129763 
Si 7.2020096239 9.9036993674 8.4519641146 
Si 3.5992439242 2.2419283204 10.2752042487 
Si 10.0225911129 2.6367702680 0.2680357543 
Si 9.9245860419 8.5416102728 2.6398146944 
Si 9.0751062179 1.6789215940 4.7071817583 
Si 5.7837630613 0.9724332797 7.3225561795 
Si 4.8630945772 2.9586308444 3.1585552489 
Si 4.8720899555 3.6924542889 8.0898789220 
Si 1.7535683832 7.3995578908 3.7625821733 
Si 4.5079574657 4.7254907476 5.4978203516 
Si 7.1247533264 1.6930086959 9.0989418489 
Si 9.3493273556 6.6597092401 7.7538039506 
Si 5.2826738151 9.4479264611 10.5682011170 
Si 2.1152610887 8.9139531668 1.8750696369 
Si 1.3697266800 3.7832991236 10.3232679976 
Si 6.0664810127 7.1983393398 7.6376383989 
Si 6.1688670876 4.6067369030 1.5604859822 
Si 10.0289981984 0.1842047688 6.4946843575 
Si 0.4808560096 3.6525266899 7.4464866097 
Si 0.0878375355 1.4316335525 2.1619882603 
Si 7.3261840325 4.5150328399 3.5991484544 
Si 7.8097492634 4.7053147930 8.4535871015 
Si 9.8689059230 4.8341247916 5.6344164442 

