&CONTROL
   calculation      = 'scf'
   tstress          = .true.
   tprnfor          = .true.
   outdir           = './'
   disk_io          = 'none'
   pseudo_dir       = '/home/ppiaggi/pseudos'
/
&SYSTEM
   ecutwfc          = 30
   occupations      = 'smearing'
   degauss          = 0.01
   smearing         = 'fermi-dirac'
   input_dft        = 'PBE'
   ntyp             = 1
   nat              = 64
   ibrav            = 0
/
&ELECTRONS
   electron_maxstep = 100
   mixing_beta      = 0.5
/
&IONS
/
&CELL
/

ATOMIC_SPECIES
Si 28.085 Si_ONCV_PBE_sr.upf

K_POINTS gamma

CELL_PARAMETERS angstrom
10.70722817903887 0.00000000000000 0.00000000000000
0.00000000000000 10.70722817903887 0.00000000000000
0.00000000000000 0.00000000000000 10.70722817903887

ATOMIC_POSITIONS angstrom
Si 0.1361263455 3.0572455692 3.5694044147 
Si 3.5054394335 2.7862135023 6.8985707507 
Si 8.3563919890 1.4758843322 0.5392716887 
Si 4.8099331643 8.6947939356 1.5058966928 
Si 2.6284532023 1.3347523576 9.2702324996 
Si 2.5803242116 0.6960629845 0.6209614154 
Si 1.6592563220 5.2007469928 2.9646387527 
Si 6.0453331516 0.0676893834 2.2095007781 
Si 7.5266139268 9.2392564885 9.7496165196 
Si 1.2381731594 0.8010291545 5.5481537183 
Si 3.5217893710 6.6541568531 2.2079803517 
Si 0.3000122507 5.5177558975 0.8349903409 
Si 7.5112169326 6.3615497214 6.3385291808 
Si 7.5073623305 2.4352412698 5.2568207468 
Si 1.6489238468 7.5444200472 5.7528866283 
Si 4.7418780220 6.2408471381 4.5593197815 
Si 5.0885566559 6.9803204378 10.1589645601 
Si 9.8626313130 1.7817148907 9.0052714311 
Si 6.3001651822 3.2638415369 10.1941056830 
Si 2.4803508221 6.0063588410 9.5688678007 
Si 4.8421297994 10.6465503169 8.3593685984 
Si 10.0945819971 8.3100296909 6.6719308518 
Si 1.7964052077 5.1069945029 5.5835625219 
Si 7.7251045228 8.1803116216 1.9836103852 
Si 8.4488703187 10.1305904055 2.9637500527 
Si 9.2637332121 6.4481819046 4.7071544810 
Si 6.7674500344 10.4577390552 4.9066729709 
Si 10.4540878904 10.5132774478 4.1565245646 
Si 5.9523301676 7.9445491643 3.6726649232 
Si 8.6109991678 8.8851684526 5.1094785798 
Si 7.4840419875 5.9147156750 0.3009127286 
Si 9.7957539658 7.0193804062 2.3952497726 
Si 1.9125893407 8.3297095763 10.0574814515 
Si 0.8978535482 6.1957482930 7.9865107915 
Si 4.8971970739 8.0534952110 6.6067559539 
Si 4.1847166964 10.6729436344 3.7344242154 
Si 0.7090497816 10.5859259910 9.7594136334 
Si 3.0799770146 9.2837128999 5.2366162072 
Si 3.7543396598 8.3534582084 8.7086812105 
Si 2.6784131290 2.2326605127 3.4835003230 
Si 9.6136989651 9.8117398575 0.1576767836 
Si 6.5664432398 9.7231054226 7.1616366398 
Si 4.0802891000 2.9951543530 0.1577164004 
Si 10.4836719619 3.4588308693 1.4117694499 
Si 10.6244505980 9.3265525198 2.2540214329 
Si 9.9110279844 2.3699592996 5.7057641171 
Si 5.5207753359 1.6680469563 6.2487276581 
Si 5.1189009406 2.1542943096 3.1546171022 
Si 5.6402572951 4.8562098045 8.2938296547 
Si 0.9761908418 7.3485206005 3.4876868492 
Si 4.0561657149 4.8791553944 6.3702332834 
Si 7.5320103698 1.1368185375 8.2969347509 
Si 9.1675608886 7.2446926088 9.7151178304 
Si 5.6657083765 10.1796616322 10.5719530582 
Si 2.5505474101 8.8207430606 1.8350154726 
Si 1.2900496799 3.7639654579 9.4700400846 
Si 6.9192249939 7.4964516650 8.0995255849 
Si 5.4318839275 4.4901510875 1.4472960330 
Si 10.6201569995 0.0854408970 7.6611502488 
Si 0.4754394772 3.1005563072 7.4152159248 
Si 0.7425430620 1.0068402824 2.1765332226 
Si 6.0773798855 4.3972444686 4.0093644206 
Si 7.8857878960 4.7178724164 8.6736899888 
Si 9.5105134072 4.5224440877 5.9091586236 

