&CONTROL
   calculation      = 'scf'
   tstress          = .true.
   tprnfor          = .true.
   outdir           = './'
   disk_io          = 'none'
   pseudo_dir       = '/home/ppiaggi/pseudos'
/
&SYSTEM
   ecutwfc          = 30
   occupations      = 'smearing'
   degauss          = 0.01
   smearing         = 'fermi-dirac'
   input_dft        = 'PBE'
   ntyp             = 1
   nat              = 64
   ibrav            = 0
/
&ELECTRONS
   electron_maxstep = 100
   mixing_beta      = 0.5
/
&IONS
/
&CELL
/

ATOMIC_SPECIES
Si 28.085 Si_ONCV_PBE_sr.upf

K_POINTS gamma

CELL_PARAMETERS angstrom
10.51758292892974 0.00000000000000 0.00000000000000
0.00000000000000 10.51758292892974 0.00000000000000
0.00000000000000 0.00000000000000 10.51758292892974

ATOMIC_POSITIONS angstrom
Si 9.8873693598 3.1567473403 3.5589607467 
Si 5.5846577364 2.8183651447 4.0470397001 
Si 7.8175826625 2.1926320659 2.6333503434 
Si 4.3753565688 9.3487218677 2.2533605898 
Si 0.3667323404 1.1092999891 8.1447320795 
Si 1.5805087395 10.5099681989 1.6702657922 
Si 2.0851108157 3.1240061046 4.8180731870 
Si 4.2794782828 0.5567082855 10.3044546285 
Si 9.3896457829 6.5273802470 9.4709677341 
Si 2.2724394852 2.6848654646 6.8936235198 
Si 3.3198224636 6.1661328262 2.4932982091 
Si 1.0586367921 8.0769252224 1.8822897465 
Si 6.6836504942 3.9088176252 5.5270108643 
Si 4.6375914639 1.5810766890 6.9470212883 
Si 2.8063014771 10.4765222852 6.5611837586 
Si 5.3295747976 7.9266710326 4.0652561537 
Si 3.8039257707 4.8645819387 0.4052319527 
Si 8.7034891902 3.5616532479 6.8748496342 
Si 7.2972042119 2.7713515490 0.0561770398 
Si 1.3052951470 6.2792599481 8.5898572242 
Si 2.7554174109 1.4143729995 8.7781745466 
Si 0.2579868434 10.4578115051 6.1753567464 
Si 3.4578131516 4.8224379839 6.3701318647 
Si 6.3069632616 7.1253153541 1.4285401837 
Si 7.2637477806 9.8569419924 2.2764046140 
Si 9.2138128315 7.4715541841 3.8828286778 
Si 7.8029211519 7.7865663104 7.1941108641 
Si 10.0663260334 9.7156698185 4.2257334340 
Si 7.4389391595 8.5011519298 4.9707359032 
Si 9.6106202002 6.5064923273 6.0207693125 
Si 7.8882503022 5.1800778738 1.2766136983 
Si 10.5008494545 5.0950116631 2.3070318155 
Si 2.7137783001 9.2971962289 8.6689810006 
Si 1.8518623790 6.6324929708 6.0023530248 
Si 5.1823286366 9.2300519795 6.0102517296 
Si 4.5671657286 1.3188207586 2.1081969102 
Si 9.0666823639 9.3978600152 8.5770993961 
Si 3.5886729184 1.6358207081 4.0709356485 
Si 3.6184166430 6.4131172261 8.9568682805 
Si 2.0841011277 2.4712638729 1.8082144099 
Si 0.3853705491 9.6039520526 9.8468451128 
Si 6.7843037628 8.0621269832 9.7809945261 
Si 4.0397720503 4.0897621219 8.4504361449 
Si 8.7883976372 1.5464843587 8.9068887264 
Si 9.0645788473 8.4014557612 1.0417529163 
Si 7.7137846366 0.2046574392 4.3974750457 
Si 6.6080080378 10.1776756838 7.5571673092 
Si 4.2519116979 3.7463420041 2.3302651562 
Si 5.9665722077 1.8926706008 8.8320771591 
Si 1.0692595509 6.5611311706 3.7682711645 
Si 5.4746227837 5.8674124358 5.6630032116 
Si 6.7021614401 10.3883323523 10.2362481032 
Si 0.3603376499 8.2601625521 7.5055049418 
Si 4.5417762835 8.3602268361 10.2979968325 
Si 1.8169440037 10.3105127562 3.9804318474 
Si 0.0335912667 4.9426855095 10.3580101607 
Si 7.4296521337 6.1027538714 8.7624297249 
Si 5.7515402247 5.7200295462 3.4165000859 
Si 9.2070289905 1.6526488408 5.7014344596 
Si 1.4261632100 3.5226224976 8.9596344048 
Si 10.3100184298 1.8915767722 1.7927956333 
Si 7.9407225234 4.7907695417 3.7074374649 
Si 6.7662871433 4.0633629888 7.8645015999 
Si 0.3372431413 4.2934561505 6.3216352898 

