&CONTROL
   calculation      = 'scf'
   tstress          = .true.
   tprnfor          = .true.
   outdir           = './'
   disk_io          = 'none'
   pseudo_dir       = './'
/
&SYSTEM
   ecutwfc          = 30
   input_dft        = 'PBE'
   ntyp             = 1
   nat              = 64
   ibrav            = 0
/
&ELECTRONS
   electron_maxstep = 1000
   mixing_beta      = 0.5
/
&IONS
/
&CELL
/

ATOMIC_SPECIES
Si 28.085 Si_ONCV_PBE-1.0.upf

K_POINTS gamma

CELL_PARAMETERS angstrom
10.89127514335008 0.00000000000000 0.00000000000000
0.00000000000000 10.82841386587493 0.00000000000000
0.00000000000000 0.00000000000000 10.91228502402911

ATOMIC_POSITIONS angstrom
Si 4.1570031975 4.1422502509 1.3976244183 
Si 0.0213081676 2.7312550404 2.6965061871 
Si 4.1605059030 1.4216477068 4.0429565918 
Si 0.0391560662 -0.0336139740 0.0164942925 
Si 1.3808731045 4.1177331234 4.0298004128 
Si 2.7310666387 2.7313781054 0.0333937246 
Si 1.3896230184 1.3655029320 1.3887946921 
Si 2.7585557000 0.0422635386 2.6661132298 
Si 4.1166732043 4.1489366436 6.8078464241 
Si -0.0082699343 2.7382071762 8.0965620780 
Si 4.1578774554 1.3711682049 9.5117911713 
Si -0.0084330670 -0.0090491059 5.4293906933 
Si 1.3815263901 4.1175558433 9.4918527639 
Si 2.7022105731 2.7200087709 5.3751829089 
Si 1.3831517736 1.4152708786 6.7287114194 
Si 2.7596839345 -0.0357634399 8.0781350592 
Si 4.0668214031 9.7130124597 1.3665972662 
Si -0.0372004375 8.2395312838 2.7452769202 
Si 4.0792381835 6.8941008443 4.0508283970 
Si 0.0051407449 5.4918761987 0.0233439139 
Si 1.3698761276 9.7155948058 4.0468268895 
Si 2.7770699540 8.2420799159 0.0005716327 
Si 1.3449435695 6.9362567366 1.3960184584 
Si 2.7661734619 5.4969912812 2.6737600751 
Si 4.1538010247 9.6775162641 6.7847044238 
Si -0.0184673184 8.3311148083 8.0913304588 
Si 4.1585971234 6.9345384164 9.5223652837 
Si -0.0146180015 5.4997922735 5.4223643432 
Si 1.3655130255 9.6204067638 9.4507978424 
Si 2.7729645728 8.2702346907 5.3981245642 
Si 1.3826765203 6.8832909741 6.7889782406 
Si 2.7051317487 5.5200410223 8.1472485420 
Si 9.5975740437 4.1464636150 1.3730438573 
Si 5.4465765350 2.7980887897 2.7483612339 
Si 9.5726277168 1.3766167518 4.0279857315 
Si 5.4651226523 0.0234219658 0.0369900672 
Si 6.8373687076 4.1555317181 4.0522499802 
Si 8.2371998678 2.8052181344 -0.0467637622 
Si 6.8686278841 1.3447384133 1.3568906180 
Si 8.2277025154 -0.0201805894 2.7281310660 
Si 9.5700155167 4.1882423758 6.7679930708 
Si 5.4564513837 2.7541450649 8.1479541633 
Si 9.5678807088 1.3964409067 9.4550790299 
Si 5.5053225065 -0.0330075756 5.4106917444 
Si 6.8870362674 4.1160780557 9.5288039406 
Si 8.2118030738 2.8106313412 5.4572364009 
Si 6.8251235544 1.3312286976 6.7466261085 
Si 8.2471753344 -0.0325599321 8.1033200275 
Si 9.6369649126 9.6691617004 1.3904704084 
Si 5.4406125961 8.2364770598 2.6738859368 
Si 9.6452933365 6.9324335688 4.0396929309 
Si 5.4498114031 5.4755202925 -0.0258765198 
Si 6.8944630886 9.6281545941 4.1059772404 
Si 8.2233992869 8.2952039353 0.0469862619 
Si 6.8520071310 6.9087845722 1.3244144865 
Si 8.2566553099 5.5213885156 2.7055486615 
Si 9.6442018893 9.6745538859 6.7847237666 
Si 5.4519105156 8.2802461930 8.1073004646 
Si 9.6442321773 6.8928414414 9.4562933928 
Si 5.5217313252 5.5620440675 5.4084282794 
Si 6.8773964999 9.6157364888 9.4824116052 
Si 8.1833029737 8.2919837539 5.4626803444 
Si 6.8787756149 6.8931188401 6.7758181322 
Si 8.2598983263 5.5150715371 8.1733751394 

