&CONTROL
   calculation      = 'scf'
   tstress          = .true.
   tprnfor          = .true.
   outdir           = './'
   disk_io          = 'none'
   pseudo_dir       = './'
/
&SYSTEM
   ecutwfc          = 30
   input_dft        = 'PBE'
   ntyp             = 1
   nat              = 64
   ibrav            = 0
/
&ELECTRONS
   electron_maxstep = 1000
   mixing_beta      = 0.5
/
&IONS
/
&CELL
/

ATOMIC_SPECIES
Si 28.085 Si_ONCV_PBE-1.0.upf

K_POINTS gamma

CELL_PARAMETERS angstrom
10.73589452537999 0.00000000000000 0.00000000000000
0.00000000000000 10.80500028010966 0.00000000000000
0.00000000000000 0.00000000000000 11.02843270211949

ATOMIC_POSITIONS angstrom
Si 4.0452864674 4.1413194994 1.4055390630 
Si 0.0212835175 2.7435200489 2.7551164981 
Si 4.0477326614 1.3596416866 4.1065761463 
Si -0.0264839048 0.0096298925 -0.0402214323 
Si 1.3712130310 4.1057129996 4.1529957650 
Si 2.6244151359 2.7285940817 -0.0230417225 
Si 1.3275690738 1.4103869722 1.3350038030 
Si 2.6529876407 -0.0477660061 2.7871312639 
Si 3.9599639306 4.1497485306 6.8305974526 
Si -0.0205070424 2.7308330490 8.1940057739 
Si 3.9936302665 1.3351380491 9.5849549068 
Si 0.0118830284 -0.0152040293 5.4423017729 
Si 1.3016390487 4.0747144057 9.5817444468 
Si 2.6246061145 2.7050262443 5.5039918207 
Si 1.3379061661 1.3580251073 6.8185482294 
Si 2.6802750510 0.0086166433 8.2503283942 
Si 3.9742752389 9.6294383546 1.4053638723 
Si -0.0269845961 8.1939125642 2.7217760842 
Si 4.0022473206 6.9004925092 4.0933838606 
Si -0.0352894930 5.4945151039 -0.0074825525 
Si 1.3043210183 9.6315242152 4.0874735273 
Si 2.6616694118 8.2223808493 -0.0169924303 
Si 1.3321939948 6.8470223705 1.3590492840 
Si 2.6679732097 5.5050420505 2.7172145975 
Si 3.9676577339 9.6420809337 6.8507779736 
Si -0.0045731232 8.2262125683 8.2377502105 
Si 4.0107060540 6.8083740939 9.5440451346 
Si 0.0233137804 5.4694541895 5.4712563080 
Si 1.3410042141 9.6118421108 9.6000368212 
Si 2.6696423627 8.2477230078 5.5174433805 
Si 1.3244604130 6.8113090444 6.8346567803 
Si 2.6240616542 5.4457307130 8.2343422643 
Si 9.3188270434 4.1449829779 1.3874786848 
Si 5.3762615731 2.7417742624 2.7277728913 
Si 9.3615944705 1.3320818397 4.1111507696 
Si 5.3090995783 0.0262917141 0.0078513230 
Si 6.7089178769 4.1256547403 4.0618195450 
Si 7.9994162039 2.7734519266 -0.0112909829 
Si 6.6956479288 1.4071179404 1.4121099900 
Si 7.9802404958 -0.0135570317 2.7251145334 
Si 9.3462480105 4.0746597459 6.8360633954 
Si 5.3570943625 2.7445325945 8.1980674437 
Si 9.3080395177 1.4099760997 9.5697766306 
Si 5.3834518493 0.0497001430 5.5249377382 
Si 6.7148759338 4.1099254983 9.5480404112 
Si 8.0170036838 2.6922162637 5.5232252103 
Si 6.6351019654 1.4064924884 6.8613515773 
Si 7.9749730802 -0.0387977581 8.1768698090 
Si 9.3562840664 9.5719085930 1.4199277983 
Si 5.3388133850 8.2466538476 2.7806319143 
Si 9.2997622442 6.8322361965 4.1190575562 
Si 5.3335963668 5.4380730481 0.0023569388 
Si 6.6815024842 9.5997795175 4.1034178793 
Si 7.9605040881 8.2326392331 0.0332521875 
Si 6.6432508485 6.8166502800 1.3751496417 
Si 8.0270300721 5.5148421609 2.7278012593 
Si 9.3219782502 9.6029601336 6.8952139616 
Si 5.3715845372 8.2158614489 8.2449094935 
Si 9.3889964866 6.8234480032 9.6341153558 
Si 5.3136257171 5.5059436182 5.4752289021 
Si 6.6971864022 9.6389873961 9.5567302785 
Si 8.0210920550 8.2051224836 5.4924043623 
Si 6.6804410547 6.8047218424 6.8072962895 
Si 7.9796568386 5.4738541918 8.1753055138 

