&CONTROL
   calculation      = 'scf'
   tstress          = .true.
   tprnfor          = .true.
   outdir           = './'
   disk_io          = 'none'
   pseudo_dir       = './'
/
&SYSTEM
   ecutwfc          = 30
   input_dft        = 'PBE'
   ntyp             = 1
   nat              = 64
   ibrav            = 0
/
&ELECTRONS
   electron_maxstep = 1000
   mixing_beta      = 0.5
/
&IONS
/
&CELL
/

ATOMIC_SPECIES
Si 28.085 Si_ONCV_PBE-1.0.upf

K_POINTS gamma

CELL_PARAMETERS angstrom
11.01146153758738 0.00000000000000 0.00000000000000
0.00000000000000 10.86411746665138 0.00000000000000
0.00000000000000 0.00000000000000 10.85889700106267

ATOMIC_POSITIONS angstrom
Si 4.0972828783 4.0414103942 1.4081648589 
Si -0.0011875372 2.7042582028 2.7313001346 
Si 4.1008627380 1.3099577770 4.1041764398 
Si -0.0478804151 -0.0077724840 -0.0166597082 
Si 1.3277349177 3.9927217841 4.0932138498 
Si 2.7423848403 2.7124204319 -0.0166018754 
Si 1.4022975333 1.3214350917 1.3181876773 
Si 2.7263011683 -0.0424007961 2.7582733069 
Si 4.0614562481 4.0386313099 6.8511778931 
Si 0.0443980079 2.6820887068 8.1805581363 
Si 4.1040744790 1.3634673392 9.5679637894 
Si 0.0219505791 -0.0005159105 5.4482228880 
Si 1.3543741715 4.0180466012 9.5222483836 
Si 2.7637196593 2.6384648659 5.5083321119 
Si 1.3957059687 1.3559384103 6.8447073845 
Si 2.6975149945 -0.0314706612 8.1671226891 
Si 4.1400355145 9.3185644156 1.3746640865 
Si 0.0318005112 7.9804734164 2.6846221292 
Si 4.0804751224 6.7183020777 4.0515024340 
Si 0.0444890041 5.3150834489 0.0031768749 
Si 1.4143608153 9.3452383733 4.0665550081 
Si 2.7762963746 8.0157761862 -0.0210911531 
Si 1.3515530411 6.7275973617 1.3942106527 
Si 2.7128184221 5.3171905778 2.6999080363 
Si 4.0599814201 9.3258243631 6.8520890732 
Si 0.0262476440 8.0192977922 8.2157394653 
Si 4.0868178329 6.7241447486 9.5365126754 
Si -0.0489367782 5.3765424174 5.4907569477 
Si 1.3565842504 9.4042463914 9.5949258546 
Si 2.7607822619 8.0158238692 5.4500759934 
Si 1.4090417804 6.6789456930 6.8040713272 
Si 2.7687592729 5.3194521550 8.2350355763 
Si 9.5599091020 4.0472674716 1.4141784542 
Si 5.4269563407 2.6795921672 2.7655834617 
Si 9.5733058291 1.3474532222 4.1152835408 
Si 5.5073954178 0.0262021589 0.0114870383 
Si 6.8007755939 3.9960811643 4.1127969671 
Si 8.1697364463 2.7109165703 0.0039627389 
Si 6.8659779813 1.3223091892 1.3363787783 
Si 8.2099709176 0.0315158954 2.7573988552 
Si 9.5970890107 4.0484111816 6.8069634815 
Si 5.4477591046 2.6500759858 8.2362235325 
Si 9.5949928758 1.3374965774 9.5117518084 
Si 5.4770705804 -0.0325040911 5.4294671941 
Si 6.8142883955 3.9789780887 9.5175696199 
Si 8.1507151591 2.7039341939 5.4837377281 
Si 6.8573073110 1.3263821349 6.8328434744 
Si 8.1709801917 -0.0044586506 8.2148383594 
Si 9.5870897499 9.3753947618 1.3790896253 
Si 5.5000433111 8.0293354067 2.7772382484 
Si 9.5756940317 6.6750736080 4.1275354206 
Si 5.4847739880 5.3009577144 0.0147313921 
Si 6.7944789499 9.3906768909 4.0627090135 
Si 8.2308330497 7.9883072734 0.0426593168 
Si 6.7919271426 6.6919350649 1.3285663577 
Si 8.1557086755 5.3031518201 2.7540685456 
Si 9.5664336252 9.3960294626 6.7913078210 
Si 5.5094008914 8.0485815415 8.1754428635 
Si 9.5105826951 6.6664089791 9.5276793316 
Si 5.4902729079 5.3684774147 5.4633545051 
Si 6.8048463658 9.3683344907 9.5534446446 
Si 8.1650976170 8.0431177389 5.4939852048 
Si 6.8766330102 6.6548598183 6.8730724506 
Si 8.1925551018 5.3538414931 8.2242934249 

