&CONTROL
   calculation      = 'scf'
   tstress          = .true.
   tprnfor          = .true.
   outdir           = './'
   disk_io          = 'none'
   pseudo_dir       = './'
/
&SYSTEM
   ecutwfc          = 30
   input_dft        = 'PBE'
   ntyp             = 1
   nat              = 64
   ibrav            = 0
/
&ELECTRONS
   electron_maxstep = 1000
   mixing_beta      = 0.5
/
&IONS
/
&CELL
/

ATOMIC_SPECIES
Si 28.085 Si_ONCV_PBE-1.0.upf

K_POINTS gamma

CELL_PARAMETERS angstrom
10.73730393179832 0.00000000000000 0.00000000000000
0.00000000000000 11.04609199476045 0.00000000000000
0.00000000000000 0.00000000000000 11.13718974306158

ATOMIC_POSITIONS angstrom
Si 3.9678996295 4.1893564781 1.4049577905 
Si -0.0090876361 2.7909896675 2.7902513242 
Si 4.0048885707 1.3994997956 4.2376347401 
Si -0.0360059204 -0.0385821726 -0.0417619075 
Si 1.3514441972 4.1363392461 4.2423032305 
Si 2.6915606784 2.7568542571 -0.0493755218 
Si 1.3758626501 1.4036165259 1.4321909317 
Si 2.6187112224 -0.0044711767 2.8201735615 
Si 3.9513249846 4.1721425776 7.0094663531 
Si 0.0240656670 2.7539535004 8.4119194122 
Si 4.0000670819 1.4267469327 9.8163199889 
Si 0.0350095182 -0.0407980800 5.5809309848 
Si 1.3703748154 4.1270467757 9.7833173437 
Si 2.6361105752 2.7666277540 5.6223222440 
Si 1.2993683648 1.3669993644 6.9643328512 
Si 2.6560553204 -0.0404543108 8.4593635102 
Si 4.0274912594 9.7019984443 1.3842351022 
Si 0.0299989473 8.2938375929 2.8417734029 
Si 4.0050308434 6.9165987628 4.1723319902 
Si -0.0130115208 5.5500260282 -0.0484418973 
Si 1.3598665633 9.6430222637 4.2346065590 
Si 2.6612633046 8.3519709922 0.0172568027 
Si 1.3669269738 6.9478667009 1.4263684384 
Si 2.6284325182 5.5265356050 2.7925181046 
Si 4.0047851493 9.7081681117 6.9582184531 
Si 0.0279666354 8.3356134571 8.3955037712 
Si 4.0220209525 6.9514653486 9.8107174900 
Si -0.0232545246 5.5682445916 5.5913498782 
Si 1.2944032749 9.7270455205 9.8445021973 
Si 2.6946480830 8.2664357117 5.6444828651 
Si 1.3120155105 6.9336097492 7.0451595296 
Si 2.6376422745 5.5360774740 8.4507923121 
Si 9.2987858289 4.1797290519 1.3823200063 
Si 5.3003998747 2.7481150396 2.8134252696 
Si 9.3503949640 1.4149823407 4.2475055048 
Si 5.3283531352 -0.0250889550 -0.0263331216 
Si 6.6853088344 4.1910160718 4.1867829980 
Si 8.0290051308 2.7383880412 0.0250303035 
Si 6.6537135905 1.4047571754 1.3724037012 
Si 8.0375737034 0.0072963348 2.8010764504 
Si 9.3688962162 4.1740273303 6.9989338286 
Si 5.2883524145 2.7530861047 8.4062191137 
Si 9.3547014249 1.4071328531 9.8447246513 
Si 5.3407628875 -0.0481250009 5.5714940262 
Si 6.7021623777 4.1889881598 9.8341033090 
Si 7.9736308992 2.7447395519 5.5888785991 
Si 6.6207158652 1.4120793938 6.9784849783 
Si 8.0027727250 0.0459436978 8.4156041127 
Si 9.3173634355 9.7066822981 1.4069022170 
Si 5.3153782068 8.3013814222 2.8151957474 
Si 9.3518550689 6.9406087100 4.2115352497 
Si 5.3355250190 5.4951232459 -0.0091041240 
Si 6.6651102019 9.6925635104 4.2506698996 
Si 7.9469232737 8.3110554167 0.0357186182 
Si 6.6337624243 6.8983391487 1.4114938430 
Si 7.9515853162 5.5215731478 2.8198257384 
Si 9.2907412996 9.6488836499 7.0370564691 
Si 5.2870569680 8.3192458933 8.3630273332 
Si 9.2849882515 6.9101238519 9.8372272206 
Si 5.2839777067 5.5178317907 5.6046109167 
Si 6.6407475367 9.6427909799 9.7904914319 
Si 7.9698628527 8.2889003740 5.5874738948 
Si 6.6767258150 6.9060763879 6.9636578990 
Si 7.9993564319 5.5758957898 8.3816372613 

