&CONTROL
   calculation      = 'scf'
   tstress          = .true.
   tprnfor          = .true.
   outdir           = './'
   disk_io          = 'none'
   pseudo_dir       = './'
/
&SYSTEM
   ecutwfc          = 30
   input_dft        = 'PBE'
   ntyp             = 1
   nat              = 64
   ibrav            = 0
/
&ELECTRONS
   electron_maxstep = 1000
   mixing_beta      = 0.5
/
&IONS
/
&CELL
/

ATOMIC_SPECIES
Si 28.085 Si_ONCV_PBE-1.0.upf

K_POINTS gamma

CELL_PARAMETERS angstrom
10.97068874784036 0.00000000000000 0.00000000000000
0.00000000000000 10.97224696703046 0.00000000000000
0.00000000000000 0.00000000000000 10.85413460340824

ATOMIC_POSITIONS angstrom
Si 4.0615771053 4.1610553533 1.3198360774 
Si -0.0488206356 2.7593632319 2.6597311857 
Si 4.0634089701 1.4118386378 4.0278058382 
Si 0.0273940238 -0.0147417683 0.0154291067 
Si 1.3520776533 4.1773908866 3.9957702490 
Si 2.7165617714 2.7667291893 0.0061952805 
Si 1.3235025019 1.4148089043 1.3324720623 
Si 2.7225107142 -0.0024050281 2.6557906359 
Si 4.1118998392 4.2115169371 6.7062424865 
Si 0.0353911041 2.8330854702 8.0930516378 
Si 4.0886739344 1.4149849423 9.4307267492 
Si -0.0297147776 -0.0494583058 5.3708290329 
Si 1.3670660768 4.1418867186 9.4036138449 
Si 2.6869656879 2.8029407310 5.3841291388 
Si 1.3600071625 1.3861921643 6.7208289778 
Si 2.7313064354 -0.0401291204 8.0681715043 
Si 4.0518218392 9.7995057622 1.3328573982 
Si -0.0404466445 8.3872423961 2.6570370603 
Si 4.1444450364 7.0018648498 3.9931491687 
Si -0.0319510942 5.5471940566 0.0140840208 
Si 1.3516559431 9.8118633942 4.0722343598 
Si 2.7760371610 8.4117877744 -0.0009633172 
Si 1.4136792551 6.9808685634 1.3521365126 
Si 2.7151815172 5.6007204314 2.6522203520 
Si 4.0869845580 9.7449601053 6.7267744814 
Si -0.0426152287 8.4069852046 8.0676331694 
Si 4.0596773753 6.9629449719 9.3789414015 
Si -0.0003276691 5.6232864211 5.3738255210 
Si 1.3515089980 9.7415162605 9.4253386430 
Si 2.7177103184 8.4154594594 5.3436224864 
Si 1.3643717735 7.0186659846 6.7175846045 
Si 2.6859670802 5.5627185600 8.0047800316 
Si 9.5164191530 4.2325589924 1.3071741029 
Si 5.4902641989 2.7871992213 2.6536402273 
Si 9.5455398375 1.4419206435 4.0500913330 
Si 5.4281508660 0.0381641850 0.0049414674 
Si 6.8032845902 4.2265220221 3.9853551023 
Si 8.1676820716 2.8170695027 -0.0282835022 
Si 6.7861662767 1.4001187469 1.3067611740 
Si 8.1985830964 -0.0285603648 2.7208776399 
Si 9.5233244766 4.2318478288 6.7131207301 
Si 5.4635155274 2.7587811295 8.0390325880 
Si 9.5678666762 1.4355454724 9.3540437021 
Si 5.4244294441 0.0481183633 5.4060547792 
Si 6.8276024852 4.2398997925 9.4190090481 
Si 8.1684430961 2.7582246137 5.3492089870 
Si 6.8446013471 1.4363527759 6.7093437014 
Si 8.2050136127 0.0334355023 8.0063073257 
Si 9.5426708333 9.7436823786 1.3426120911 
Si 5.4308117455 8.3536191220 2.7262799489 
Si 9.5734311783 6.9922060719 4.0050964687 
Si 5.4257665534 5.5427195296 -0.0072988593 
Si 6.8136223765 9.7951872834 4.0437048138 
Si 8.2144013005 8.3570089457 0.0384324662 
Si 6.8506387255 7.0091846143 1.3314036585 
Si 8.2091821441 5.6138411259 2.6645605274 
Si 9.5367127593 9.8261590872 6.6704936055 
Si 5.4458254907 8.3867266078 8.0772620616 
Si 9.5218171877 6.9323276298 9.3940008777 
Si 5.4116223399 5.5745668277 5.4137315939 
Si 6.7968983234 9.7311132587 9.3929041957 
Si 8.1702977842 8.4233804837 5.3509796485 
Si 6.8085304304 6.9497441817 6.7569773967 
Si 8.1547391450 5.5873027880 8.0242190272 

