&CONTROL
   calculation      = 'scf'
   tstress          = .true.
   tprnfor          = .true.
   outdir           = './'
   disk_io          = 'none'
   pseudo_dir       = './'
/
&SYSTEM
   ecutwfc          = 30
   input_dft        = 'PBE'
   ntyp             = 1
   nat              = 64
   ibrav            = 0
/
&ELECTRONS
   electron_maxstep = 1000
   mixing_beta      = 0.5
/
&IONS
/
&CELL
/

ATOMIC_SPECIES
Si 28.085 Si_ONCV_PBE-1.0.upf

K_POINTS gamma

CELL_PARAMETERS angstrom
11.09658373978225 0.00000000000000 0.00000000000000
0.00000000000000 10.83011794377258 0.00000000000000
0.00000000000000 0.00000000000000 11.00744735863927

ATOMIC_POSITIONS angstrom
Si 4.1443702880 4.0135426991 1.3632298645 
Si 0.0075834071 2.6555876113 2.7457310297 
Si 4.1860779594 1.3201683783 4.1261479897 
Si 0.0140347903 0.0101430320 -0.0027033897 
Si 1.3997802981 4.0637315493 4.1818410549 
Si 2.7887719624 2.6659229288 -0.0437580904 
Si 1.4063324443 1.2934507628 1.3994682850 
Si 2.7753351042 -0.0158882751 2.8077278267 
Si 4.1434633393 3.9846547832 6.9317688618 
Si -0.0332279266 2.6753953085 8.2823243401 
Si 4.1244459881 1.3886173756 9.6386396371 
Si 0.0457808683 -0.0115348757 5.5043925976 
Si 1.4119629889 3.9851579465 9.7134734171 
Si 2.8259270610 2.6632581823 5.5699047044 
Si 1.3831866519 1.3336087391 6.9364790893 
Si 2.7385815741 0.0204041214 8.2961809519 
Si 4.1379596229 9.3479453639 1.3998033370 
Si -0.0282178003 8.0229872129 2.8048004665 
Si 4.1263065758 6.7386160964 4.1561242269 
Si -0.0246853313 5.3720391536 -0.0051200339 
Si 1.3832178212 9.4245597914 4.1068873517 
Si 2.7652459450 8.0245053052 0.0362281343 
Si 1.4354045429 6.7146183944 1.3454863172 
Si 2.8073386474 5.4034446647 2.7579456752 
Si 4.1506940017 9.3758646899 6.8949859409 
Si -0.0236726675 8.0257501287 8.3364478750 
Si 4.1596946211 6.6800613377 9.7151689178 
Si -0.0375555705 5.3326711030 5.5028075263 
Si 1.4158030906 9.3845588613 9.7179204343 
Si 2.8288438299 8.0031473404 5.5017769627 
Si 1.4382736718 6.6681031405 6.9342353973 
Si 2.7707710346 5.3954638996 8.3175228320 
Si 9.7817360594 3.9737795520 1.3837480292 
Si 5.5894637856 2.6708991713 2.7942585034 
Si 9.7262432984 1.3712118140 4.1651855006 
Si 5.5458609735 0.0116921582 0.0009463689 
Si 6.9313194997 4.0105290597 4.1850272903 
Si 8.3249038986 2.6603953297 -0.0009967216 
Si 6.9374366122 1.3670162697 1.3848039606 
Si 8.3546809631 0.0120200000 2.7316163605 
Si 9.7570663410 4.0016476910 6.8608997766 
Si 5.5544196466 2.7073751693 8.2494145491 
Si 9.7475281080 1.3086804591 9.6873432881 
Si 5.5882900443 0.0426386496 5.5133250661 
Si 6.9619719888 4.0422707056 9.6209238564 
Si 8.3623388944 2.6933833944 5.5683756988 
Si 6.9846007189 1.3016831020 6.8774220669 
Si 8.3212125641 -0.0486147880 8.2640190730 
Si 9.6962677053 9.4018169733 1.4274745483 
Si 5.5732452877 8.0037464868 2.7807975354 
Si 9.7733990160 6.6997886859 4.1893572822 
Si 5.5732588614 5.3944651790 -0.0183599862 
Si 6.9842724327 9.4288845183 4.0983806937 
Si 8.3506215335 8.0514547109 -0.0249886500 
Si 6.9667931125 6.6821911159 1.3733601927 
Si 8.3305923378 5.3984720534 2.7807705406 
Si 9.7526583987 9.3739038553 6.9340740602 
Si 5.5870752610 8.0774065551 8.3339370901 
Si 9.7089693253 6.7419526169 9.6912399963 
Si 5.6087400108 5.3207604945 5.4996565402 
Si 6.9105718324 9.3434350785 9.6904621412 
Si 8.3373486240 8.0011496972 5.5220623403 
Si 6.9580448634 6.7033765958 6.9521211945 
Si 8.3003125274 5.4033595838 8.2973280626 

