&CONTROL
   calculation      = 'scf'
   tstress          = .true.
   tprnfor          = .true.
   outdir           = './'
   disk_io          = 'none'
   pseudo_dir       = './'
/
&SYSTEM
   ecutwfc          = 30
   input_dft        = 'PBE'
   ntyp             = 1
   nat              = 64
   ibrav            = 0
/
&ELECTRONS
   electron_maxstep = 1000
   mixing_beta      = 0.5
/
&IONS
/
&CELL
/

ATOMIC_SPECIES
Si 28.085 Si_ONCV_PBE-1.0.upf

K_POINTS gamma

CELL_PARAMETERS angstrom
10.83581863185227 0.00000000000000 0.00000000000000
0.00000000000000 10.91740619557387 0.00000000000000
0.00000000000000 0.00000000000000 10.91143710754797

ATOMIC_POSITIONS angstrom
Si 4.0550110551 4.0765224581 1.3584496210 
Si 0.0047408666 2.7437666289 2.7333691610 
Si 4.0521207696 1.3398124538 4.1285748293 
Si 0.0287476419 -0.0072946814 -0.0407166035 
Si 1.3489834828 4.1075664610 4.1183884624 
Si 2.7158496452 2.6910639402 0.0428833539 
Si 1.3988559470 1.3650834085 1.3492033350 
Si 2.7770003451 -0.0369230148 2.7314603866 
Si 4.0997724340 4.0554475458 6.9370602538 
Si 0.0449479663 2.7338272136 8.3085430306 
Si 4.0701075944 1.3221155568 9.6640313519 
Si -0.0140177185 -0.0003976396 5.5849157395 
Si 1.3866128867 4.0149475179 9.6813641415 
Si 2.7637335579 2.6742104186 5.5181471585 
Si 1.3706556100 1.3890358722 6.9625048606 
Si 2.7153264548 0.0345605395 8.2692372285 
Si 4.1022484257 9.5035627431 1.3860704491 
Si -0.0258776029 8.1669565557 2.7747198989 
Si 4.0916869501 6.7306400084 4.1710896570 
Si -0.0425252725 5.4072376754 -0.0226416405 
Si 1.3955688956 9.5101311353 4.1869137483 
Si 2.7768097241 8.0767491396 -0.0202446793 
Si 1.3640489443 6.7881795171 1.4025893806 
Si 2.7126879479 5.3681980785 2.7951075622 
Si 4.0499290424 9.4322682823 6.9361007408 
Si 0.0120181543 8.0987813407 8.2843000523 
Si 4.0747429303 6.8137604236 9.6957258663 
Si -0.0464223362 5.4034899620 5.5445200945 
Si 1.3845842044 9.4381115466 9.6634232976 
Si 2.7792499732 8.1179828851 5.5907414897 
Si 1.3659330108 6.7960497308 6.9637351147 
Si 2.7277939224 5.4634967637 8.3220534380 
Si 9.6016632349 4.1057701665 1.3567900683 
Si 5.4180030883 2.7044134191 2.7914738831 
Si 9.6046920261 1.3423901801 4.1450139613 
Si 5.4729409236 -0.0123694205 -0.0019591219 
Si 6.8105809754 4.0693663637 4.1991205345 
Si 8.1954162113 2.7563810065 -0.0039504242 
Si 6.8561394044 1.3279265237 1.3550211279 
Si 8.1865868268 0.0202564567 2.7497428616 
Si 9.5170311265 4.0735355142 6.9257525215 
Si 5.4930126066 2.6880187263 8.3507067586 
Si 9.5876519927 1.3233142690 9.7464865297 
Si 5.4518531673 0.0047323591 5.5573122422 
Si 6.8465066422 4.0657412971 9.6835483854 
Si 8.1799463561 2.7112450958 5.5826595076 
Si 6.8515693197 1.3075376718 6.9345087571 
Si 8.2332255867 0.0004362990 8.3659854047 
Si 9.5997760257 9.4795081236 1.3602807200 
Si 5.4304246298 8.0910179157 2.7843514410 
Si 9.5935614098 6.7795577061 4.1607091071 
Si 5.4793418539 5.4115805959 0.0182083209 
Si 6.8473551149 9.4713454269 4.1406793480 
Si 8.1488223428 8.0929754952 -0.0192696379 
Si 6.8306222728 6.7674166306 1.3941364593 
Si 8.1481273854 5.4005258414 2.7799225428 
Si 9.5150041611 9.4510635913 6.9203777162 
Si 5.4188566168 8.0949451383 8.3161628626 
Si 9.5729026865 6.7575997940 9.6594701020 
Si 5.4540488319 5.4575329594 5.5380533128 
Si 6.8178520537 9.4423923455 9.6787657329 
Si 8.2175086068 8.1443407383 5.5405839776 
Si 6.8107130035 6.7596141115 6.9111529621 
Si 8.2137387133 5.4371016394 8.2915084888 

