&CONTROL
   calculation      = 'scf'
   tstress          = '.true.'
   tprnfor          = '.true.'
   outdir           = './'
   disk_io          = 'none'
   pseudo_dir       = './'
/
&SYSTEM
   ecutwfc          = 30
   input_dft        = 'PBE'
   ntyp             = 1
   nat              = 64
   ibrav            = 0
/
&ELECTRONS
   electron_maxstep = 1000
   mixing_beta      = 0.5
/
&IONS
/
&CELL
/

ATOMIC_SPECIES
Si 28.085 Si_ONCV_PBE-1.0.upf

K_POINTS gamma

CELL_PARAMETERS angstrom
11.05609072127483 0.00000000000000 0.00000000000000
0.00000000000000 10.80893985987615 0.00000000000000
0.00000000000000 0.00000000000000 10.88107881873387

ATOMIC_POSITIONS angstrom
Si 4.1148135489 3.9992595632 1.3256849631 
Si -0.0287780961 2.7102868547 2.7817377997 
Si 4.1405625861 1.3007544425 4.1284212196 
Si 0.0263462355 0.0142219498 -0.0103359899 
Si 1.3363777400 4.0462386769 4.1484745379 
Si 2.7736324390 2.6920443714 -0.0258966105 
Si 1.4198846050 1.3631992228 1.4064246411 
Si 2.7642677891 0.0095408931 2.7204092421 
Si 4.1239936870 4.0007155287 6.8639423790 
Si 0.0185215512 2.7167656703 8.2924505682 
Si 4.1636777020 1.3331407093 9.5713979912 
Si 0.0272368999 -0.0082624378 5.4931019586 
Si 1.4085867422 4.0415356392 9.6166447634 
Si 2.7827699904 2.6276275940 5.5195794396 
Si 1.3359789613 1.3859895346 6.8441440350 
Si 2.7345275243 0.0433031376 8.2417310552 
Si 4.0811823560 9.3927791489 1.3331311221 
Si -0.0099914127 7.9952916115 2.7165766258 
Si 4.1415994884 6.7331866041 4.1012274119 
Si -0.0116161178 5.3651581003 0.0259173644 
Si 1.4134208406 9.3481939737 4.1702773489 
Si 2.7837493951 8.0715211601 0.0105733426 
Si 1.4129265394 6.7019862555 1.4011921000 
Si 2.7751833270 5.3407462685 2.7042586498 
Si 4.1593480960 9.3717891899 6.8995151060 
Si -0.0460532175 7.9809178293 8.2677797123 
Si 4.1270663458 6.7378516646 9.6609026910 
Si 0.0461001407 5.3388042205 5.5375188338 
Si 1.3296556312 9.3843495687 9.6323339952 
Si 2.7205413752 7.9892021174 5.5468256947 
Si 1.3960361165 6.6844111713 6.8485881794 
Si 2.7895523383 5.3232909498 8.2506352583 
Si 9.5737524758 3.9835348207 1.3478536842 
Si 5.4597149772 2.7088648933 2.7589178180 
Si 9.5837829371 1.3660654270 4.0977173812 
Si 5.5181775249 -0.0207160801 -0.0493722433 
Si 6.9012009557 4.0138372366 4.0820145319 
Si 8.2804524586 2.7179140351 -0.0157591948 
Si 6.8838977200 1.3220256441 1.3765112379 
Si 8.2801775773 -0.0014786538 2.7898306341 
Si 9.6426854523 3.9956100178 6.8773206130 
Si 5.4598457222 2.6695694135 8.2102210773 
Si 9.6374635662 1.3776353203 9.5876784160 
Si 5.5024724537 -0.0194817271 5.5323175707 
Si 6.8904544216 3.9889033889 9.6635005654 
Si 8.2965846804 2.6797194818 5.4815378525 
Si 6.8467132869 1.3720712350 6.9003321831 
Si 8.2296641323 0.0006461561 8.2571181795 
Si 9.5858695499 9.3998095884 1.3869285846 
Si 5.5107216007 8.0222206724 2.7926476177 
Si 9.6374618071 6.6944225227 4.1064818113 
Si 5.4576751252 5.3806984295 0.0361041879 
Si 6.8667391598 9.3596583878 4.1572840703 
Si 8.2584561737 8.0582630415 -0.0445434593 
Si 6.9115211149 6.6585036414 1.3410546926 
Si 8.2334167216 5.3075442490 2.7278436613 
Si 9.5994520157 9.4032342912 6.9199998023 
Si 5.4598667635 8.0085382787 8.2701721894 
Si 9.6198571163 6.6790575533 9.6374999972 
Si 5.5279272994 5.3675417372 5.5455326589 
Si 6.9037425365 9.3820379355 9.6396426271 
Si 8.2414981622 7.9875858402 5.4494416886 
Si 6.8365482673 6.6789351364 6.8658599618 
Si 8.2488669532 5.3274984674 8.2185841734 

