&CONTROL
   calculation      = 'scf'
   tstress          = .true.
   tprnfor          = .true.
   outdir           = './'
   disk_io          = 'none'
   pseudo_dir       = './'
/
&SYSTEM
   ecutwfc          = 30
   input_dft        = 'PBE'
   ntyp             = 1
   nat              = 64
   ibrav            = 0
/
&ELECTRONS
   electron_maxstep = 1000
   mixing_beta      = 0.5
/
&IONS
/
&CELL
/

ATOMIC_SPECIES
Si 28.085 Si_ONCV_PBE-1.0.upf

K_POINTS gamma

CELL_PARAMETERS angstrom
11.11796164263944 0.00000000000000 0.00000000000000
0.00000000000000 10.80925474914813 0.00000000000000
0.00000000000000 0.00000000000000 11.01199172458160

ATOMIC_POSITIONS angstrom
Si 4.1970120120 4.0583538948 1.4270431837 
Si -0.0492346728 2.6767972968 2.7329570720 
Si 4.2552604831 1.3267851735 4.1539896238 
Si 0.0115525019 -0.0008030100 0.0236604985 
Si 1.4373414729 4.0296916775 4.1455174595 
Si 2.8281268935 2.7221404041 0.0202705244 
Si 1.4262482545 1.3445271756 1.4151294297 
Si 2.7976376724 0.0296539530 2.7522687348 
Si 4.2064217451 4.0596932037 6.8810234463 
Si -0.0276422064 2.7571897070 8.2995348411 
Si 4.1961982883 1.3549626650 9.6556686333 
Si -0.0306010446 0.0138975610 5.5429052856 
Si 1.3945428411 4.0861084027 9.6349060649 
Si 2.7762000521 2.7312989669 5.4821086796 
Si 1.3665473451 1.3444187446 6.9119308227 
Si 2.7677258281 0.0055136340 8.3295373562 
Si 4.2206848057 9.5204169266 1.3856992666 
Si -0.0512957745 8.1739698787 2.7190549433 
Si 4.2044675716 6.7887088848 4.1709840905 
Si -0.0356411400 5.4073214539 0.0327491409 
Si 1.4323175568 9.5022472434 4.1486730186 
Si 2.8417415891 8.0837657971 0.0167238414 
Si 1.4391523195 6.7540943601 1.3858180392 
Si 2.7739327668 5.4208480186 2.7252182145 
Si 4.2125781258 9.4637636735 6.8754873180 
Si 0.0136283836 8.1288755828 8.3144492268 
Si 4.1946320234 6.7406302530 9.6867644435 
Si 0.0423235235 5.3775548525 5.5126136857 
Si 1.4078930692 9.5023228763 9.7159940899 
Si 2.8009769072 8.1058638442 5.5187852504 
Si 1.3668211924 6.8024817664 6.8962370711 
Si 2.8387484493 5.4543656374 8.3177585331 
Si 9.8419578089 4.0551478832 1.3945925697 
Si 5.5989289072 2.7316343516 2.7890693277 
Si 9.8353781608 1.4038152521 4.1600607246 
Si 5.5813587572 -0.0494695808 -0.0146754660 
Si 6.9991696965 4.0692759643 4.1221570228 
Si 8.4594607750 2.6804852656 0.0409839067 
Si 7.0064350604 1.3719455777 1.3635897407 
Si 8.4690303554 0.0090065068 2.7561273861 
Si 9.8193542359 4.0559413121 6.8644460038 
Si 5.6315543205 2.7403942156 8.2396752157 
Si 9.8384751672 1.3736727209 9.6955579154 
Si 5.6181774051 -0.0140671626 5.5362101368 
Si 6.9764603243 4.0546140339 9.6756008710 
Si 8.4714519028 2.7300854638 5.5368421608 
Si 7.0453151614 1.3330043262 6.8967886614 
Si 8.4324222489 0.0472593085 8.3306473229 
Si 9.7898879483 9.5211304071 1.3961924113 
Si 5.6134234243 8.1168647673 2.8049987823 
Si 9.8515202411 6.8014694495 4.1340407052 
Si 5.6105584132 5.4275375797 -0.0245516671 
Si 6.9946804155 9.5153306449 4.1927792211 
Si 8.4325942204 8.0988258516 -0.0432797208 
Si 6.9824908254 6.7390956643 1.4315542544 
Si 8.4070564545 5.4606343240 2.7214886050 
Si 9.8615732966 9.5104699031 6.9482530353 
Si 5.6241682260 8.1406477941 8.2835367338 
Si 9.7811989663 6.7996436614 9.6742895049 
Si 5.6245930830 5.4101325484 5.4981531076 
Si 6.9922876852 9.5176666885 9.6793078595 
Si 8.4507354324 8.1017665505 5.5572546027 
Si 7.0671263077 6.7266050964 6.8701185891 
Si 8.4514842999 5.4086402292 8.2526429045 

