&CONTROL
   calculation      = 'scf'
   tstress          = .true.
   tprnfor          = .true.
   outdir           = './'
   disk_io          = 'none'
   pseudo_dir       = './'
/
&SYSTEM
   ecutwfc          = 30
   input_dft        = 'PBE'
   ntyp             = 1
   nat              = 64
   ibrav            = 0
/
&ELECTRONS
   electron_maxstep = 1000
   mixing_beta      = 0.5
/
&IONS
/
&CELL
/

ATOMIC_SPECIES
Si 28.085 Si_ONCV_PBE-1.0.upf

K_POINTS gamma

CELL_PARAMETERS angstrom
11.04220964186516 0.00000000000000 0.00000000000000
0.00000000000000 10.73611473567652 0.00000000000000
0.00000000000000 0.00000000000000 10.97310479820732

ATOMIC_POSITIONS angstrom
Si 4.1667667217 3.9974644378 1.3967063664 
Si -0.0445164569 2.6344696932 2.7020043483 
Si 4.1484698751 1.2841850421 4.1152967659 
Si 0.0106114855 -0.0418100056 0.0435990382 
Si 1.3550054390 3.9742735162 4.0835570512 
Si 2.7239570891 2.6592549167 0.0329862364 
Si 1.4030876246 1.3274834830 1.3956982714 
Si 2.7746242421 -0.0370091654 2.7589892498 
Si 4.1113503862 4.0223939325 6.8429256005 
Si 0.0073326776 2.6594231940 8.2343791602 
Si 4.1779006987 1.3302038145 9.6495898595 
Si -0.0207995872 -0.0451563588 5.5268790169 
Si 1.3339766967 4.0077893747 9.6656011260 
Si 2.7431732089 2.7064988490 5.4737507182 
Si 1.3822180390 1.3029032680 6.8734600019 
Si 2.7328830679 -0.0023465833 8.2091197972 
Si 4.1249991703 9.3252769648 1.3676811321 
Si 0.0251746420 7.9942904049 2.7848986060 
Si 4.1521475643 6.6214241835 4.1673065724 
Si -0.0222029043 5.3370237583 0.0459357048 
Si 1.3835558598 9.3553777246 4.1031872065 
Si 2.7982300752 7.9543844827 0.0458059329 
Si 1.3988990244 6.6865811416 1.3361490548 
Si 2.7545235057 5.3072535028 2.7080883285 
Si 4.1061385761 9.2970977076 6.8929263980 
Si -0.0273513512 7.9446890471 8.2897898182 
Si 4.1372017477 6.6516676493 9.6200582840 
Si -0.0196197297 5.3486231724 5.4856332347 
Si 1.4150664125 9.2818678426 9.6377660223 
Si 2.7445225651 7.9776074637 5.4962852290 
Si 1.3365855536 6.6597961466 6.8249969006 
Si 2.7279525713 5.2918332744 8.2823650554 
Si 9.6067006861 3.9560032128 1.4045628918 
Si 5.4900906569 2.6555829348 2.7306850241 
Si 9.6063299624 1.2829288523 4.0946220920 
Si 5.5125974148 -0.0346199995 -0.0179076104 
Si 6.8801155458 3.9562918068 4.0987617265 
Si 8.2829593094 2.6919103612 -0.0501254776 
Si 6.8527964125 1.3641339311 1.4170098516 
Si 8.2709405152 0.0455510704 2.7880661019 
Si 9.5950025834 4.0326588875 6.8967277385 
Si 5.4760965678 2.7068417698 8.2202377845 
Si 9.5859219267 1.3089009539 9.6334808713 
Si 5.5282047025 0.0388473531 5.4484729053 
Si 6.9184024728 3.9536573344 9.5898486177 
Si 8.2984281724 2.6195458308 5.5457934406 
Si 6.8609548428 1.3632460162 6.8440386315 
Si 8.2129106331 -0.0323290852 8.2427270471 
Si 9.6613825822 9.3472636830 1.4053877151 
Si 5.5091242776 7.9644794669 2.7403318008 
Si 9.6046714023 6.6766368288 4.1707304802 
Si 5.5319047813 5.2894833102 -0.0403333465 
Si 6.8328283620 9.2952372680 4.1061278256 
Si 8.2994897371 8.0237379528 -0.0389377027 
Si 6.8961097852 6.6562007023 1.3592435133 
Si 8.2821857860 5.3455482363 2.7130961907 
Si 9.6377526776 9.2738936040 6.8809289937 
Si 5.4756491523 7.9567088064 8.2436357474 
Si 9.5999030845 6.6312233177 9.5806674118 
Si 5.5223517385 5.2957923281 5.4537343404 
Si 6.8909902697 9.2927880199 9.5714738042 
Si 8.2713503021 7.9385232237 5.4735566994 
Si 6.9171144330 6.6570544186 6.8768259206 
Si 8.2591813572 5.2734773942 8.1949497126 

