&CONTROL
   calculation      = 'scf'
   tstress          = .true.
   tprnfor          = .true.
   outdir           = './'
   disk_io          = 'none'
   pseudo_dir       = './'
/
&SYSTEM
   ecutwfc          = 30
   input_dft        = 'PBE'
   ntyp             = 1
   nat              = 64
   ibrav            = 0
/
&ELECTRONS
   electron_maxstep = 1000
   mixing_beta      = 0.5
/
&IONS
/
&CELL
/

ATOMIC_SPECIES
Si 28.085 Si_ONCV_PBE-1.0.upf

K_POINTS gamma

CELL_PARAMETERS angstrom
10.91350160659517 0.00000000000000 0.00000000000000
0.00000000000000 11.01658609415474 0.00000000000000
0.00000000000000 0.00000000000000 10.73658395875744

ATOMIC_POSITIONS angstrom
Si 4.0635302995 4.0828956915 1.3292301470 
Si 0.0013332082 2.7519032782 2.7675208905 
Si 4.1385297950 1.4012898054 4.1400202443 
Si -0.0322177570 0.0470597123 0.0411063384 
Si 1.4095851649 4.0740497915 4.1353975469 
Si 2.7302801348 2.6586856178 -0.0414568931 
Si 1.3426199862 1.3943610124 1.3549730659 
Si 2.7298926615 -0.0033021404 2.7007634007 
Si 4.1338241113 4.0295054122 6.8092756557 
Si -0.0336559395 2.7089800489 8.2486095224 
Si 4.0846487555 1.3693537840 9.5713537904 
Si 0.0322040226 0.0304297030 5.4343279982 
Si 1.3761918127 4.0415872442 9.6213166568 
Si 2.7223492740 2.7340288327 5.4438547441 
Si 1.3154922398 1.3595863984 6.8265767513 
Si 2.7128085239 -0.0220643552 8.1883806042 
Si 4.1136121574 9.4972833987 1.3486755898 
Si 0.0119892801 8.1192007200 2.6973923937 
Si 4.0794795658 6.7893498004 4.0708236121 
Si 0.0212732867 5.4125052529 -0.0116249644 
Si 1.3724674458 9.5002833420 4.0825979872 
Si 2.7157530082 8.0968156747 0.0460962108 
Si 1.3488553949 6.7594877876 1.4145968801 
Si 2.6780551577 5.4000551586 2.7391601168 
Si 4.0864343715 9.4860770461 6.7989514587 
Si 0.0328322330 8.1611519510 8.1576063635 
Si 4.0451905387 6.7936139047 9.5297604104 
Si -0.0470428504 5.4607746113 5.5206404753 
Si 1.3543045793 9.4981154800 9.6192359860 
Si 2.7479128267 8.0823041916 5.4352551753 
Si 1.3507589005 6.7973640848 6.8374094967 
Si 2.6815426564 5.4266698311 8.2276719475 
Si 9.5808619057 4.0923445619 1.3768188339 
Si 5.4869933101 2.6684695314 2.7621697989 
Si 9.5230882010 1.3326895298 4.0938754117 
Si 5.4605250095 0.0011268160 -0.0203016775 
Si 6.8277700464 4.0418130029 4.1197535813 
Si 8.2226600852 2.7160097611 -0.0127743665 
Si 6.8350641650 1.3411260193 1.3957551194 
Si 8.2032238398 0.0475044020 2.7370107246 
Si 9.5506363786 4.0222877861 6.8832605891 
Si 5.4127701917 2.7402025528 8.1852217686 
Si 9.5271424280 1.3963317289 9.5391076234 
Si 5.4781426536 -0.0406089302 5.5060382165 
Si 6.7746809978 4.0925168013 9.6142130133 
Si 8.2232118004 2.6745775653 5.4816124316 
Si 6.7756906309 1.3349637430 6.8862816600 
Si 8.1544906343 -0.0293400807 8.1833877278 
Si 9.5307955984 9.4859772858 1.3762114718 
Si 5.4562246808 8.1182372715 2.7476499042 
Si 9.5121409721 6.7407664214 4.0948710651 
Si 5.4803420076 5.4424332424 0.0154499382 
Si 6.8134415249 9.4268869419 4.0644949569 
Si 8.2141038303 8.1469060489 0.0090667262 
Si 6.8276065445 6.8094891575 1.3881189814 
Si 8.1330106342 5.4000046737 2.7491615511 
Si 9.5177176658 9.4789009543 6.8450857263 
Si 5.4519194368 8.0873886264 8.2355385204 
Si 9.5559859006 6.7276559201 9.5402980539 
Si 5.4979712071 5.4037823846 5.4871766802 
Si 6.8649341682 9.5137742328 9.6153485518 
Si 8.1771327408 8.0783696358 5.4855222202 
Si 6.8051488761 6.7870618380 6.8366975077 
Si 8.1577937679 5.4200588735 8.2054168316 

