&CONTROL
   calculation      = 'scf'
   tstress          = .true.
   tprnfor          = .true.
   outdir           = './'
   disk_io          = 'none'
   pseudo_dir       = './'
/
&SYSTEM
   ecutwfc          = 30
   input_dft        = 'PBE'
   ntyp             = 1
   nat              = 64
   ibrav            = 0
/
&ELECTRONS
   electron_maxstep = 1000
   mixing_beta      = 0.5
/
&IONS
/
&CELL
/

ATOMIC_SPECIES
Si 28.085 Si_ONCV_PBE-1.0.upf

K_POINTS gamma

CELL_PARAMETERS angstrom
10.87510516874807 0.00000000000000 0.00000000000000
0.00000000000000 10.73349483770199 0.00000000000000
0.00000000000000 0.00000000000000 11.02925660305711

ATOMIC_POSITIONS angstrom
Si 4.1611410675 4.0028342693 1.3938069304 
Si -0.0263522709 2.6298813694 2.8109326715 
Si 4.1294590099 1.3059147622 4.1245839221 
Si -0.0277834691 -0.0003261306 -0.0387297560 
Si 1.3469746234 3.9868524430 4.1418374929 
Si 2.7479176484 2.6450736958 0.0367036383 
Si 1.4006218282 1.2869982339 1.4112259768 
Si 2.7896844206 0.0402338053 2.7368161584 
Si 4.1004285565 4.0425615879 6.9131771714 
Si 0.0295483065 2.7173802839 8.2567554586 
Si 4.1790453638 1.3398550747 9.6288959896 
Si 0.0339023408 -0.0214510015 5.4807389346 
Si 1.4030453213 3.9696661124 9.6344534241 
Si 2.7556349792 2.6682757148 5.5367194745 
Si 1.3870059336 1.3211948198 6.8860296304 
Si 2.7932939263 -0.0260875291 8.2503305782 
Si 4.0927222037 9.3906457052 1.3649254588 
Si 0.0421544744 8.0108486618 2.7912099717 
Si 4.1284778674 6.6738550973 4.1316998922 
Si 0.0098409629 5.3597011552 0.0270834963 
Si 1.4226915924 9.3127913040 4.1148665804 
Si 2.7362821588 8.0508111487 0.0243180598 
Si 1.4038568872 6.6953526428 1.3407367880 
Si 2.7718362585 5.3061496140 2.7887359015 
Si 4.1824869017 9.3540915699 6.9413183765 
Si 0.0170207181 8.0051012802 8.3144377468 
Si 4.1431969751 6.7255802735 9.6861177985 
Si 0.0206741304 5.3061476366 5.5454389229 
Si 1.3818391238 9.3911302197 9.6722843129 
Si 2.7940389004 8.0110512533 5.5149957077 
Si 1.3621256050 6.6447339062 6.9472860235 
Si 2.7916122626 5.3858466735 8.2524987157 
Si 9.6346189286 3.9657181353 1.3577928534 
Si 5.5536994534 2.6544628705 2.7758906622 
Si 9.6416728906 1.3425611805 4.1323150064 
Si 5.5588567483 0.0024497004 0.0455586854 
Si 6.8652470679 4.0161677774 4.1880237550 
Si 8.3030971113 2.6720510024 -0.0344444517 
Si 6.8921099568 1.3711340908 1.4234469534 
Si 8.2622963497 -0.0358849562 2.8106671967 
Si 9.6634192769 3.9662085165 6.9136874938 
Si 5.4861558885 2.6894643860 8.3100213631 
Si 9.6495669190 1.3674394864 9.6829309646 
Si 5.5255990901 0.0214188142 5.4830697973 
Si 6.8640154644 4.0308662478 9.7146934015 
Si 8.2924479209 2.6751072526 5.5443971022 
Si 6.9049709589 1.3725973832 6.8898215336 
Si 8.2942459045 0.0082381137 8.3051823811 
Si 9.6522368614 9.3651345307 1.3836436141 
Si 5.5009965945 7.9709338432 2.7731055124 
Si 9.6396944792 6.6486821291 4.1541087580 
Si 5.4834841165 5.2949553581 0.0403197236 
Si 6.9382896395 9.3590182999 4.1608641377 
Si 8.2777302057 8.0336277425 0.0069870762 
Si 6.8532139539 6.6913492909 1.3702943415 
Si 8.2893401240 5.3347977160 2.7217593608 
Si 9.6457859138 9.3244535657 6.8871058925 
Si 5.5211908095 8.0552183382 8.2914699269 
Si 9.6189519807 6.6874720242 9.6937238855 
Si 5.5387284888 5.3824902994 5.5111582990 
Si 6.9020630291 9.3475431043 9.6477602513 
Si 8.3004064295 7.9867704688 5.4866042101 
Si 6.8733210804 6.6521895586 6.9217091951 
Si 8.2566180355 5.3339694163 8.2580700269 

