&CONTROL
   calculation      = 'scf'
   tstress          = '.true.'
   tprnfor          = '.true.'
   outdir           = './'
   disk_io          = 'none'
   pseudo_dir       = './'
/
&SYSTEM
   ecutwfc          = 30
   input_dft        = 'PBE'
   ntyp             = 1
   nat              = 64
   ibrav            = 0
/
&ELECTRONS
   electron_maxstep = 1000
   mixing_beta      = 0.5
/
&IONS
/
&CELL
/

ATOMIC_SPECIES
Si 28.085 Si_ONCV_PBE-1.0.upf

K_POINTS gamma

CELL_PARAMETERS angstrom
10.93553976945984 0.00000000000000 0.00000000000000
0.00000000000000 10.76945013031736 0.00000000000000
0.00000000000000 0.00000000000000 11.14806940863493

ATOMIC_POSITIONS angstrom
Si 4.0003993422 4.0431920116 1.4452395773 
Si 0.0291017383 2.7107627994 2.8019706394 
Si 4.0319745808 1.3871140047 4.2544876573 
Si -0.0405435652 -0.0016991483 -0.0136858622 
Si 1.3384596201 4.0383223429 4.2698873632 
Si 2.7177701639 2.7446059839 0.0373817113 
Si 1.3306090319 1.3164036946 1.3993246623 
Si 2.6958552879 0.0130285518 2.8008419227 
Si 4.0171303958 4.0612586904 7.1093292721 
Si -0.0163024922 2.6605411755 8.5102841145 
Si 4.0599395497 1.3126258485 9.8535548176 
Si -0.0246720967 0.0307170987 5.6671609665 
Si 1.3169070970 4.0243536425 9.8863805503 
Si 2.6622573903 2.7444326329 5.6180958325 
Si 1.3059203766 1.3857057168 7.0554803800 
Si 2.7287585340 -0.0449441070 8.5018003756 
Si 4.0764088878 9.4438865072 1.4282548956 
Si 0.0116338790 8.1213395467 2.8238095896 
Si 4.0206773794 6.7839109348 4.2555940090 
Si 0.0156892214 5.3829512891 0.0284082482 
Si 1.3349408033 9.4492055839 4.2511300512 
Si 2.7133232346 8.0846440917 -0.0219624472 
Si 1.3909372408 6.7667464406 1.3930580265 
Si 2.6471426219 5.3927262501 2.8369687998 
Si 4.0491097520 9.4497543653 7.0170036346 
Si 0.0117176669 8.1235434107 8.5167816005 
Si 4.0027458500 6.7049649034 9.8772667871 
Si 0.0490661077 5.4449697932 5.6398281099 
Si 1.3549710739 9.4093453967 9.8631462935 
Si 2.7271511584 8.1088467293 5.6073615508 
Si 1.3492786490 6.7297134289 7.0617793930 
Si 2.6564685978 5.4113399928 8.5178239601 
Si 9.4786852884 4.0397242610 1.4179887921 
Si 5.3500386632 2.6747100471 2.8100946745 
Si 9.3959814635 1.3379494709 4.2604083917 
Si 5.3923233480 0.0214784948 -0.0310729445 
Si 6.6993489479 4.0434501317 4.2026128795 
Si 8.0463073539 2.6705103235 -0.0409888474 
Si 6.7560406580 1.3190023877 1.4625913418 
Si 8.0807860872 0.0317351533 2.8739380978 
Si 9.3893023364 4.0658151825 7.0174681872 
Si 5.4265521456 2.6607411723 8.4751536387 
Si 9.4183947164 1.3078087430 9.8658648593 
Si 5.3396252473 -0.0139771858 5.6942900982 
Si 6.7644988323 4.0238552140 9.8922562329 
Si 8.0948922385 2.6671809691 5.6156734097 
Si 6.6908414936 1.3479788981 7.1074935033 
Si 8.0357758246 -0.0022830521 8.5104885115 
Si 9.4660565330 9.4766770287 1.3624654578 
Si 5.3394405907 8.0818209537 2.8348841829 
Si 9.4584625502 6.7391009842 4.2691152960 
Si 5.3715769260 5.3524416907 -0.0164746001 
Si 6.6892347288 9.4568463889 4.2650878372 
Si 8.0901125259 8.1042483642 0.0156104484 
Si 6.7217080195 6.7016279699 1.4107879915 
Si 8.0394482717 5.3605810882 2.8012691887 
Si 9.4105395987 9.4173778181 7.1059480052 
Si 5.3500508725 8.1211101063 8.4863785893 
Si 9.3829198455 6.7943250027 9.8363480560 
Si 5.3883149177 5.4207858671 5.6815587718 
Si 6.7023470209 9.4047649906 9.8316835857 
Si 8.0523081320 8.1151816877 5.6884753267 
Si 6.7189168840 6.7908427858 7.0169271677 
Si 8.1206244146 5.3589715291 8.4452909838 

