&CONTROL
   calculation      = 'scf'
   tstress          = .true.
   tprnfor          = .true.
   outdir           = './'
   disk_io          = 'none'
   pseudo_dir       = '/home/ppiaggi/pseudos'
/
&SYSTEM
   ecutwfc          = 30
   occupations      = 'smearing'
   degauss          = 0.01
   smearing         = 'fermi-dirac'
   input_dft        = 'PBE'
   ntyp             = 1
   nat              = 64
   ibrav            = 0
/
&ELECTRONS
   electron_maxstep = 100
   mixing_beta      = 0.5
/
&IONS
/
&CELL
/

ATOMIC_SPECIES
Si 28.085 Si_ONCV_PBE_sr.upf

K_POINTS gamma

CELL_PARAMETERS angstrom
11.58059825910599 0.00000000000000 0.00000000000000
0.00000000000000 11.58059825910599 0.00000000000000
0.00000000000000 0.00000000000000 11.58059825910599

ATOMIC_POSITIONS angstrom
Si 3.4521068574 3.6621789099 4.8252415542 
Si 3.5024708793 4.8995195115 10.8894334132 
Si 3.7643776895 2.8847386069 7.8770881940 
Si 7.9834907309 3.0625818544 2.0314569660 
Si 3.6780327489 2.2469024160 0.9182221618 
Si 10.6912198934 8.2184958113 5.8407442156 
Si 3.3410257589 4.8138925679 1.5180774646 
Si 11.3045283772 8.5795557038 3.8718224802 
Si 9.0333530272 4.9029936909 0.9766462800 
Si 10.6322746483 11.2141649690 7.0671179906 
Si 8.8225398165 10.9632828883 11.1532046998 
Si 2.1271706106 11.1513402234 9.3015481023 
Si 1.0306431355 5.6955698358 8.1834760822 
Si 6.7346505952 7.7511144462 9.4315055760 
Si 9.4177362446 7.9402603576 2.3417011934 
Si 9.7030706052 0.9096872609 1.2161596874 
Si 5.9719755550 1.7639104044 8.5117165592 
Si 4.6204039322 3.1123668463 2.8263144887 
Si 2.0724986062 2.0364829457 8.5224401932 
Si 4.4526705470 9.0858247179 4.9592522373 
Si 1.6731995783 8.3473994505 2.5717034554 
Si 2.6701501212 7.0810726115 7.3413349768 
Si 1.8752115343 4.0743092407 6.4063058927 
Si 6.6895210038 10.2678332211 10.0399849503 
Si 10.9030753580 4.3183703490 6.1339533829 
Si 11.0950353547 4.4063365734 0.1893196203 
Si 5.3992454875 5.6326871872 2.2863575143 
Si 7.1737173976 1.3743043372 6.3152129068 
Si 8.6771222442 5.0044049899 5.9883852628 
Si 3.7391319853 7.0541593012 2.2787722224 
Si 9.9533620753 0.4380164421 9.1645264637 
Si 2.6722230483 10.5160980865 5.7606875398 
Si 7.6259397596 0.2470512188 8.4229628542 
Si 1.0539838313 9.9062058792 7.6789673190 
Si 4.4182298478 6.7447257157 8.8545485901 
Si 8.7703923826 3.3323403103 4.0648942143 
Si 7.9133702084 5.9304012073 10.5446326806 
Si 2.3252220021 1.2291878604 10.9355473555 
Si 9.1765008023 9.4206082330 4.0883101840 
Si 6.7481188310 1.9239311112 3.6060709113 
Si 1.5873294422 3.3614076119 0.0166540584 
Si 6.7328787637 9.2820000525 5.1686873568 
Si 5.5224514724 7.4051672344 3.2723528113 
Si 11.4841550368 2.3021302891 1.4136667907 
Si 0.1386521868 7.7898168056 7.8175291772 
Si 9.1628009546 7.3442185458 9.3518658017 
Si 4.4893231405 9.4725356356 2.6541920568 
Si 3.9831467712 4.9801667977 6.4517481603 
Si 2.5293763688 10.5652924679 11.3857199516 
Si 10.3337152445 9.2667715657 8.7608383890 
Si 3.9963486532 9.5260843220 9.2554341600 
Si 7.2840573378 1.2199118012 10.3875534459 
Si 10.8609219803 2.1972332301 4.5215287843 
Si 9.4163581535 10.0419073296 1.6194887635 
Si 3.6197707590 0.0484065533 1.4155428476 
Si 10.1843718494 5.9755887017 7.6205895232 
Si 6.6810440058 9.2155505796 7.8650675331 
Si 5.6183735678 4.0670482056 7.9086569049 
Si 9.6447159705 0.1311688042 5.0153602358 
Si 3.2376573389 10.9795188871 3.5444968704 
Si 2.5692020462 1.7243974032 6.1393499417 
Si 10.6735247393 6.0528660339 1.7643273060 
Si 5.7675200928 5.3673641005 9.8483955327 
Si 10.3391697063 3.8522049467 2.6516790670 

