&CONTROL
   calculation      = 'scf'
   tstress          = .true.
   tprnfor          = .true.
   outdir           = './'
   disk_io          = 'none'
   pseudo_dir       = '/home/ppiaggi/pseudos'
/
&SYSTEM
   ecutwfc          = 30
   occupations      = 'smearing'
   degauss          = 0.01
   smearing         = 'fermi-dirac'
   input_dft        = 'PBE'
   ntyp             = 1
   nat              = 64
   ibrav            = 0
/
&ELECTRONS
   electron_maxstep = 100
   mixing_beta      = 0.5
/
&IONS
/
&CELL
/

ATOMIC_SPECIES
Si 28.085 Si_ONCV_PBE_sr.upf

K_POINTS gamma

CELL_PARAMETERS angstrom
10.64511885439118 0.00000000000000 0.00000000000000
0.00000000000000 10.64511885439118 0.00000000000000
0.00000000000000 0.00000000000000 10.64511885439118

ATOMIC_POSITIONS angstrom
Si 4.4906220985 1.1784678828 5.3778288843 
Si 4.3177560134 3.5568748531 0.1569867613 
Si 1.0485410136 3.0827306142 8.7423145043 
Si 8.0402156902 2.2273846691 10.2079664035 
Si 10.3037511830 2.3706360335 10.6388169440 
Si 6.4808654549 7.8561722304 3.7421105662 
Si 4.8970953168 4.3402172142 2.4823778461 
Si 0.1076189581 8.2396519920 4.5269964696 
Si 8.1820618990 4.7930818605 9.7094129071 
Si 10.4486206055 0.3232209373 6.6407232047 
Si 9.0816276678 10.6144715572 10.1230715807 
Si 2.2196350226 10.0784046619 9.5869621049 
Si 0.7721735024 4.8380361974 7.0687847241 
Si 4.8399736091 6.3342608780 10.5139177645 
Si 9.9593177173 8.4471147133 0.6214929096 
Si 8.2478061530 0.8626357225 1.5384645122 
Si 4.6272309087 3.1474635819 7.2240118472 
Si 1.9938414065 2.2870612054 0.7306724421 
Si 2.9546059636 1.3703248599 8.3081852672 
Si 5.2170982347 10.1159712864 2.0529111711 
Si 1.7037938531 6.6051685077 4.0826798537 
Si 4.2588246354 7.2025406425 7.6416943757 
Si 2.5622481729 4.7943166943 5.2120205130 
Si 6.7162716132 8.3233971420 7.5075232977 
Si 9.2842894405 4.2381305244 5.3866856232 
Si 9.5104662808 4.4805305258 0.9876967078 
Si 7.2603542830 6.5158878959 0.4626198332 
Si 6.5938953269 0.7857183517 3.6095149658 
Si 7.2219360490 2.9586298186 5.9976515747 
Si 3.8714168250 7.8798576198 2.1119277100 
Si 8.4447834323 10.3579029026 7.8634002661 
Si 4.0017343700 8.8355551003 9.3085922469 
Si 7.2193067047 9.8794261003 5.4708033524 
Si 0.8339130628 9.4271895160 7.9491254082 
Si 1.5554008963 4.3752290101 10.6172925137 
Si 8.0232473708 2.7519761262 3.8887683687 
Si 7.0788869419 5.9245621886 7.7938876400 
Si 3.1581299910 0.4093420779 1.6374108919 
Si 8.8918145535 8.5077493103 2.9900116289 
Si 6.0186224588 2.3410213129 0.8348147043 
Si 2.5510388627 5.0023436069 2.4112152266 
Si 3.9307420723 6.8020286907 4.3722696671 
Si 6.3610865775 8.6243027167 9.6892616971 
Si 10.4324293797 1.5103188179 2.5489311292 
Si 1.7979179940 6.7253944801 8.1869480085 
Si 9.5438813089 5.8403699436 8.1379165911 
Si 1.9425532239 9.1560689839 6.0138428005 
Si 5.0415282894 3.7107500461 4.8176082143 
Si 1.8671006215 9.0783915516 3.1092476052 
Si 9.1858540265 8.1730561284 9.0356513994 
Si 2.2868802384 7.4797714728 10.5286506090 
Si 6.2862088115 0.3671033108 7.3388513894 
Si 10.5609159643 2.0029323380 5.1331401823 
Si 7.2756832541 9.1549618916 1.5096481755 
Si 3.1010508637 2.4527418352 3.1975382210 
Si 8.7794127435 6.4198263433 4.4932833782 
Si 5.2321610779 8.2851066495 5.8334612615 
Si 6.4767351487 5.5570713956 3.9217256567 
Si 9.0541206807 10.6000793565 4.0288794231 
Si 3.9295072386 9.6915397525 4.4726744281 
Si 5.3076562608 1.3904867150 9.1486493361 
Si 0.4446146792 5.9010471211 1.8095105285 
Si 4.8664799550 5.1406449911 8.4789329736 
Si 7.1946845448 4.4494680690 1.9134494690 

