&CONTROL
   calculation      = 'scf'
   tstress          = .true.
   tprnfor          = .true.
   outdir           = './'
   disk_io          = 'none'
   pseudo_dir       = '/home/ppiaggi/pseudos'
/
&SYSTEM
   ecutwfc          = 30
   occupations      = 'smearing'
   degauss          = 0.01
   smearing         = 'fermi-dirac'
   input_dft        = 'PBE'
   ntyp             = 1
   nat              = 64
   ibrav            = 0
/
&ELECTRONS
   electron_maxstep = 100
   mixing_beta      = 0.5
/
&IONS
/
&CELL
/

ATOMIC_SPECIES
Si 28.085 Si_ONCV_PBE_sr.upf

K_POINTS gamma

CELL_PARAMETERS angstrom
11.50044680904097 0.00000000000000 0.00000000000000
0.00000000000000 11.50044680904097 0.00000000000000
0.00000000000000 0.00000000000000 11.50044680904097

ATOMIC_POSITIONS angstrom
Si 4.0026845101 2.3642158532 5.3141149611 
Si 4.4151135336 4.8398135338 10.5229203307 
Si 2.3611797353 3.7846590395 9.0243776102 
Si 8.0589266010 2.2277170500 1.7193858006 
Si 2.9009992080 2.7030995193 0.9720867670 
Si 9.1568052552 7.2572994566 4.6617981176 
Si 4.5702430606 4.9032844997 1.3959357341 
Si 0.1285013925 8.2279486677 3.8343064684 
Si 8.3091993244 4.3055602773 0.7278023262 
Si 11.0071696445 11.0549540010 7.3061648551 
Si 8.6392161461 10.8819067779 10.7515492133 
Si 2.7929525103 10.7537918004 9.2914524864 
Si 1.0016038138 5.2430537002 7.4327847745 
Si 5.3209002247 7.7529802145 10.1792064769 
Si 8.9880822000 7.9958121489 2.4792548226 
Si 9.8906257652 1.0484600842 0.6607961229 
Si 6.1009870322 1.8288470534 7.3364225307 
Si 4.2674132952 2.6973032941 2.8022448713 
Si 2.1564832825 1.2828403402 9.2143419906 
Si 5.2373264777 9.7274114240 3.5235528951 
Si 1.5669013764 7.7621345702 2.0977620011 
Si 2.8426114396 6.4751195678 7.0160660843 
Si 2.2954661822 4.6816133875 5.5645486908 
Si 7.0522809913 9.8273618073 9.4419588338 
Si 10.7682823634 3.9836052688 6.1761539525 
Si 10.6822590213 4.6631206690 0.6921808422 
Si 6.7619177103 5.9810488724 1.1689054137 
Si 7.6748461789 1.4242498342 5.3449936608 
Si 8.7918155748 3.6028599763 7.1157979591 
Si 3.8532822056 7.0949361486 2.7208562092 
Si 9.1141385975 0.3397473497 8.4253768381 
Si 3.4721573984 9.3034244515 6.4515551523 
Si 7.0550410986 11.1528573047 7.6345026115 
Si 1.2913391704 9.6542570819 7.9114448711 
Si 2.7264569268 6.7517973171 9.2682905865 
Si 8.0467706287 3.4951352911 4.5237582546 
Si 7.8158301563 6.6518814352 10.2435974786 
Si 2.7998412779 0.2672140317 0.2293683613 
Si 9.8492241566 9.6553381239 3.8026342379 
Si 6.4762351111 2.2296836264 3.5736373410 
Si 1.4426850504 4.4408170322 1.9369167520 
Si 6.9477534303 8.7812121628 4.8088198296 
Si 6.7831015333 8.6932912470 2.1197738563 
Si 11.1891067130 2.6651595453 1.7197308140 
Si 0.6455614810 7.4756239388 7.8076648391 
Si 10.0606828721 7.5282384830 8.7763129725 
Si 2.8120432520 9.4569554164 3.4586213725 
Si 4.5177090195 5.0292603941 5.7067747165 
Si 1.9531783838 9.7314710818 1.1242020269 
Si 10.6243197702 10.1078577049 9.2951211289 
Si 3.0966563096 8.9332595701 10.6364757425 
Si 6.7565700025 0.4625675214 9.9956938472 
Si 10.1948240837 2.5971804042 3.9071502985 
Si 9.2742363175 9.9973959133 1.5945024487 
Si 2.3351772250 0.2245013722 2.4776102588 
Si 9.6086118085 6.1217223378 7.1130493523 
Si 6.4313258663 8.9286478909 7.1144524068 
Si 6.8228355771 5.0214400902 7.1054590574 
Si 9.8362056509 0.2398659691 5.0893272277 
Si 3.5438051820 0.0717660082 4.4211397677 
Si 3.2816984987 2.4770927386 7.4128775010 
Si 10.6443650490 6.9501800246 1.2210714404 
Si 6.0333644050 5.7489008531 9.1397845939 
Si 9.4066409616 4.2288867984 2.6827897303 

