&CONTROL
   calculation      = 'scf'
   tstress          = .true.
   tprnfor          = .true.
   outdir           = './'
   disk_io          = 'none'
   pseudo_dir       = '/home/ppiaggi/pseudos'
/
&SYSTEM
   ecutwfc          = 30
   occupations      = 'smearing'
   degauss          = 0.01
   smearing         = 'fermi-dirac'
   input_dft        = 'PBE'
   ntyp             = 1
   nat              = 64
   ibrav            = 0
/
&ELECTRONS
   electron_maxstep = 100
   mixing_beta      = 0.5
/
&IONS
/
&CELL
/

ATOMIC_SPECIES
Si 28.085 Si_ONCV_PBE_sr.upf

K_POINTS gamma

CELL_PARAMETERS angstrom
11.53857960982034 0.00000000000000 0.00000000000000
0.00000000000000 11.53857960982034 0.00000000000000
0.00000000000000 0.00000000000000 11.53857960982034

ATOMIC_POSITIONS angstrom
Si 2.1139485546 3.0801545954 3.9093169261 
Si 3.6189024159 5.7090238036 0.3350076588 
Si 6.7926695077 2.8170288259 9.0926776584 
Si 7.8994154481 2.9658880415 2.6558002531 
Si 4.3219134558 0.5454182734 1.2739745747 
Si 10.5244769251 8.9876419683 5.0614094844 
Si 3.3520612239 4.2699090775 2.1447104078 
Si 11.4686212016 10.5262769435 1.8717999229 
Si 8.9555531784 4.3722447401 1.1060893953 
Si 10.0139870860 11.0556785146 7.8496380157 
Si 8.0774672701 10.7443676367 11.1413524682 
Si 2.1907608790 0.2254742303 8.7548165089 
Si 0.3360565157 5.5731108744 6.5670902763 
Si 7.5020383049 6.8774549906 10.7821795621 
Si 10.9551428704 8.3599432375 2.5786417712 
Si 10.3939640511 0.2985745937 0.4364779279 
Si 7.2537511489 3.0697006422 6.7947695292 
Si 4.0377182400 2.2027725404 3.1316628147 
Si 2.6310846155 2.7120162129 7.6177817970 
Si 4.8281917134 10.0936840553 5.2458767566 
Si 1.6791056434 8.5944648681 2.3038851135 
Si 1.6487476404 7.2749244425 9.1808670224 
Si 1.5950240138 3.6425680427 5.9296645229 
Si 6.1018893622 10.0218217815 10.1739579537 
Si 11.0260012878 3.3280609783 6.3535227063 
Si 11.3899280887 4.1386461959 1.2936247758 
Si 5.6409461839 6.4557199059 3.0815392249 
Si 9.4934009897 1.4073490164 6.4698431273 
Si 9.0699120409 6.7958772328 3.9537519962 
Si 3.4582276949 6.7043186036 2.5532799732 
Si 9.2125058077 9.3654150647 9.5824788243 
Si 2.9250876240 11.2236571565 6.1360666350 
Si 8.2066762845 1.3529561521 8.0683171764 
Si 0.8131721671 10.4903227294 7.3621676429 
Si 4.0493260511 5.3443700722 9.3208646088 
Si 8.1923107529 5.1132292455 6.0229539391 
Si 8.3652855998 4.5805737949 10.5151652913 
Si 1.7842336422 2.3415354988 9.9846098623 
Si 8.0327668127 8.6560578060 3.5983983600 
Si 5.7884092313 4.0991727150 1.0153269280 
Si 1.9853857006 3.9401133951 0.3031981025 
Si 6.2438715843 8.3266428967 5.7448626319 
Si 4.5175616117 7.7995836573 4.4019565826 
Si 0.3138343652 2.0671019214 0.1652082290 
Si 0.6193436453 8.0123781425 7.4956459318 
Si 9.1095586004 6.8673702721 9.2563177945 
Si 2.7161470244 9.7319034303 4.1514770964 
Si 2.5459645137 5.1221485675 7.5512157312 
Si 4.1045496931 11.2126262744 10.0955879210 
Si 11.1514141096 7.9328773290 9.6531987787 
Si 2.2588384987 9.5436515039 10.0764223402 
Si 6.3228070074 0.6192963371 9.8607085944 
Si 8.9078757674 3.3257301852 4.8455918914 
Si 9.4074154945 9.9195438119 1.7020904940 
Si 4.3017324801 9.7755307998 0.6651598833 
Si 9.7201571562 6.7793886025 7.0600876287 
Si 8.0940597475 9.6666758397 7.5020959978 
Si 5.6073804558 4.5118730919 7.8650304809 
Si 7.8244723735 9.9109014157 5.3539817090 
Si 4.5986893649 10.5566464850 2.8529945786 
Si 3.5903790471 1.8566613064 5.6068150654 
Si 10.3134478426 5.8949218597 2.2460191368 
Si 5.8956603288 5.0474016488 10.5761351460 
Si 9.8691894505 2.2299920497 1.6193011853 

