&CONTROL
   calculation      = 'scf'
   tstress          = .true.
   tprnfor          = .true.
   outdir           = './'
   disk_io          = 'none'
   pseudo_dir       = '/home/ppiaggi/pseudos'
/
&SYSTEM
   ecutwfc          = 30
   occupations      = 'smearing'
   degauss          = 0.01
   smearing         = 'fermi-dirac'
   input_dft        = 'PBE'
   ntyp             = 1
   nat              = 64
   ibrav            = 0
/
&ELECTRONS
   electron_maxstep = 100
   mixing_beta      = 0.5
/
&IONS
/
&CELL
/

ATOMIC_SPECIES
Si 28.085 Si_ONCV_PBE_sr.upf

K_POINTS gamma

CELL_PARAMETERS angstrom
11.57729045169582 0.00000000000000 0.00000000000000
0.00000000000000 11.57729045169582 0.00000000000000
0.00000000000000 0.00000000000000 11.57729045169582

ATOMIC_POSITIONS angstrom
Si 3.5886937623 2.8603316882 5.0635479476 
Si 4.1888026129 5.1111306113 10.8177623116 
Si 3.1748750924 3.7053465409 8.5857649081 
Si 8.0944247014 2.4328749701 2.1923683383 
Si 3.7008892841 2.3950982714 1.1302538195 
Si 9.8727312466 7.9164470153 5.7850331112 
Si 3.4890596007 4.5355540392 1.2738492684 
Si 10.9295642055 7.9509704954 3.6286238371 
Si 8.2529525395 4.4805503323 0.9936915745 
Si 10.8469023517 0.0054330024 7.1953554795 
Si 8.5474209222 10.4298420404 10.9002157742 
Si 2.5686881644 10.9068264071 9.0935217128 
Si 0.8808141503 5.3247663520 7.7801475748 
Si 5.8594519343 7.7937045819 9.8634578370 
Si 8.9770541708 7.9270055041 2.3281699553 
Si 9.8976687303 0.9189509028 1.1708345380 
Si 6.0027440582 1.8080022953 7.8961172932 
Si 5.1449478767 3.5757735062 2.8775355418 
Si 1.8666065395 1.8111281637 9.0799878602 
Si 4.9018942410 9.2511812541 4.5456841684 
Si 1.8233885143 8.2890968403 2.2061684685 
Si 2.5244860694 6.5118554058 6.7326343347 
Si 2.2584862440 4.1995810703 6.2737336958 
Si 6.6063839823 10.0449550194 9.7034365283 
Si 11.0261188079 3.9704549150 5.6056777275 
Si 10.6844266575 4.6187831803 0.6817565337 
Si 5.9683247737 6.2517368439 2.0714666941 
Si 7.5340143798 1.1934449862 6.1309509726 
Si 8.9052286609 4.0407869545 6.7938318920 
Si 4.1547653790 7.2256995577 2.6761485744 
Si 9.2940056515 0.3332407284 9.1327918820 
Si 3.0132676950 9.9726085313 5.8799437383 
Si 7.1574166987 0.0320725677 7.9747270954 
Si 1.0916609217 10.0006139970 7.4241806252 
Si 3.9451238035 6.9297029728 9.3058607969 
Si 8.4394511114 3.5854868529 4.4151039094 
Si 7.8133628211 6.7784109411 10.8574724179 
Si 2.6319464794 0.8399463150 11.1354084297 
Si 9.4827965269 9.8087782942 3.8856165306 
Si 6.8928177254 1.6249884878 4.0391777111 
Si 1.5228188996 3.7860749873 0.5645376257 
Si 7.6775264722 9.1552402482 5.1638883239 
Si 6.0408796529 8.1671185081 2.9480759725 
Si 11.3414031587 2.7244953393 1.7183130261 
Si 0.0114568751 7.7771606338 8.0519128908 
Si 9.7064118920 7.5268943461 9.0630039751 
Si 3.6238308389 9.5957445726 2.2484487332 
Si 4.3702650634 5.1524846928 6.4865590261 
Si 2.3391799585 10.1274200593 11.3686908323 
Si 10.4840006052 9.6769013786 8.8955268915 
Si 3.9669006868 9.3037421528 10.1994886923 
Si 7.3130849461 0.7047455594 10.0949804914 
Si 10.7037607325 2.5757387343 3.7192277122 
Si 9.3245581210 10.0100031795 1.5587895410 
Si 2.8882213809 11.5350796507 1.7162291138 
Si 10.2822663191 6.0973884076 7.3379413887 
Si 6.6069281150 9.4016744527 7.3577617099 
Si 6.0084632397 3.9401918777 7.4156828941 
Si 9.5763641883 0.4797108185 5.2067242986 
Si 3.3409976331 11.1733356333 3.7702604085 
Si 2.5460777161 1.8283783265 6.8514289120 
Si 11.1488149321 6.4584030558 1.7364199084 
Si 6.1905045547 5.4909815110 9.4779340649 
Si 9.5835305311 4.1269451500 2.6006530633 

