&CONTROL
   calculation      = 'scf'
   tstress          = '.true.'
   tprnfor          = '.true.'
   outdir           = './'
   disk_io          = 'none'
   pseudo_dir       = './'
/
&SYSTEM
   ecutwfc          = 30
   input_dft        = 'PBE'
   ntyp             = 1
   nat              = 64
   ibrav            = 0
/
&ELECTRONS
   electron_maxstep = 1000
   mixing_beta      = 0.5
/
&IONS
/
&CELL
/

ATOMIC_SPECIES
Si 28.085 Si_ONCV_PBE-1.0.upf

K_POINTS gamma

CELL_PARAMETERS angstrom
10.99338500693001 0.00000000000000 0.00000000000000
0.00000000000000 11.03904126989105 0.00000000000000
0.00000000000000 0.00000000000000 10.84166967277301

ATOMIC_POSITIONS angstrom
Si 4.1116421757 4.1245129718 1.3408944882 
Si -0.0086514561 2.7628514899 2.7034443960 
Si 4.1155815562 1.3821328806 4.0520086764 
Si -0.0075244000 -0.0009103104 -0.0075684233 
Si 1.3729293801 4.1397961779 4.0399454595 
Si 2.7449233022 2.7498660706 0.0084186920 
Si 1.3791922027 1.3844681773 1.3543455785 
Si 2.7522673338 -0.0085328890 2.6891325485 
Si 4.1216606860 4.1334268972 6.7317733064 
Si 0.0055337250 2.7489083699 8.0808216413 
Si 4.1195069746 1.3789661067 9.4371023156 
Si -0.0001244070 -0.0053827167 5.4020020750 
Si 1.3808201643 4.1383408768 9.4384160619 
Si 2.7368633568 2.7605044947 5.3936881977 
Si 1.3759357897 1.3700989812 6.7374633006 
Si 2.7499685205 -0.0013370020 8.0831518578 
Si 4.1172115743 9.6431760813 1.3412551339 
Si 0.0051308108 8.2690992018 2.7060004775 
Si 4.1139291529 6.8877519396 4.0409966693 
Si -0.0015179037 5.5036080714 0.0028371618 
Si 1.3785743370 9.6539584632 4.0523452952 
Si 2.7417214121 8.2759351489 -0.0003940422 
Si 1.3621637655 6.8827905717 1.3478891932 
Si 2.7412895867 5.5053037835 2.6965816627 
Si 4.1098860548 9.6359276543 6.7376214390 
Si 0.0006151433 8.2669745069 8.0835644855 
Si 4.1242932309 6.8941622910 9.4294114843 
Si 0.0017271997 5.5195466917 5.3978621741 
Si 1.3696552684 9.6456242687 9.4369164927 
Si 2.7337915487 8.2694463426 5.3897110795 
Si 1.3736153624 6.8930943732 6.7349509992 
Si 2.7343470649 5.5076250221 8.0795611128 
Si 9.6080396707 4.1263321501 1.3415200741 
Si 5.4843860683 2.7579692947 2.6884344681 
Si 9.6012885899 1.3779933059 4.0374205513 
Si 5.4890445439 0.0001472580 0.0050862766 
Si 6.8628265863 4.1310091844 4.0449426470 
Si 8.2231961577 2.7526816369 0.0033469392 
Si 6.8668441910 1.3683675775 1.3526796837 
Si 8.2353830423 -0.0019616164 2.6994767284 
Si 9.6065790196 4.1307920465 6.7480282781 
Si 5.4937280489 2.7504699734 8.0820173137 
Si 9.6045879996 1.3839033633 9.4332109740 
Si 5.4837983033 0.0100217568 5.3904696620 
Si 6.8692047575 4.1357455206 9.4385559157 
Si 8.2391121342 2.7480185423 5.3868585185 
Si 6.8510170414 1.3860806785 6.7328033917 
Si 8.2391803207 -0.0015341895 8.0898583660 
Si 9.6022298274 9.6437003040 1.3493756957 
Si 5.4904035918 8.2694271513 2.7044336660 
Si 9.6081572012 6.8812972962 4.0372918055 
Si 5.4790356343 5.5042709198 0.0052157311 
Si 6.8601420281 9.6476814194 4.0483336433 
Si 8.2354591827 8.2645835337 0.0052954410 
Si 6.8666895568 6.8934310943 1.3406521495 
Si 8.2352360656 5.5091115385 2.6909906826 
Si 9.6113940273 9.6352713241 6.7499143131 
Si 5.4930742468 8.2731215624 8.0815209072 
Si 9.6070667185 6.8976203126 9.4282390821 
Si 5.4961898765 5.5081350251 5.3842030650 
Si 6.8691632744 9.6361938720 9.4447649903 
Si 8.2368336968 8.2642585597 5.3964272144 
Si 6.8520764715 6.8820304772 6.7426551787 
Si 8.2368374216 5.5089939671 8.0835569074 

