&CONTROL
   calculation      = 'scf'
   tstress          = '.true.'
   tprnfor          = '.true.'
   outdir           = './'
   disk_io          = 'none'
   pseudo_dir       = './'
/
&SYSTEM
   ecutwfc          = 30
   input_dft        = 'PBE'
   ntyp             = 1
   nat              = 64
   ibrav            = 0
/
&ELECTRONS
   electron_maxstep = 1000
   mixing_beta      = 0.5
/
&IONS
/
&CELL
/

ATOMIC_SPECIES
Si 28.085 Si_ONCV_PBE-1.0.upf

K_POINTS gamma

CELL_PARAMETERS angstrom
10.84548845611978 0.00000000000000 0.00000000000000
0.00000000000000 10.87443472123734 0.00000000000000
0.00000000000000 0.00000000000000 11.01656879217916

ATOMIC_POSITIONS angstrom
Si 4.0934813427 4.0800871026 1.3835093554 
Si -0.0005417570 2.7092128169 2.7754549949 
Si 4.1058455435 1.3536797815 4.1717231086 
Si 0.0030441923 -0.0068895770 -0.0077977855 
Si 1.3666722465 4.0716874972 4.1578100911 
Si 2.7400579130 2.7249018350 -0.0057681709 
Si 1.3580655565 1.3519510525 1.3913409498 
Si 2.7345470631 -0.0069146712 2.7842472951 
Si 4.1040122895 4.0728043086 6.9468100452 
Si -0.0056424475 2.7219201370 8.3349083274 
Si 4.0995433684 1.3641148867 9.7217818587 
Si -0.0004276724 0.0036032873 5.5517381557 
Si 1.3651261183 4.0851230779 9.7115691760 
Si 2.7448403012 2.7249445068 5.5552543971 
Si 1.3666722470 1.3649330627 6.9322165655 
Si 2.7334357623 -0.0036799014 8.3260254127 
Si 4.1123958697 9.5101609017 1.3781155653 
Si 0.0062636626 8.1508667045 2.7714101332 
Si 4.1120214173 6.7950089231 4.1746958083 
Si 0.0090443696 5.4394461729 0.0064278759 
Si 1.3771169551 9.5045729159 4.1698296992 
Si 2.7324839289 8.1598679185 0.0035729452 
Si 1.3606997239 6.7986906240 1.3875892734 
Si 2.7284447322 5.4280490908 2.7715741361 
Si 4.1048782415 9.5096023838 6.9413012000 
Si 0.0069065737 8.1473179044 8.3289346324 
Si 4.1017113174 6.7953768552 9.7141888727 
Si -0.0079248334 5.4305094623 5.5619528606 
Si 1.3613344812 9.5139683005 9.7125958323 
Si 2.7407165253 8.1622671679 5.5582522429 
Si 1.3592820767 6.7946366433 6.9342558975 
Si 2.7337552673 5.4454026206 8.3234396990 
Si 9.5711233898 4.0733118415 1.3797135901 
Si 5.4738144096 2.7197961099 2.7777128788 
Si 9.5726649486 1.3616313117 4.1662005528 
Si 5.4789575055 -0.0028009137 -0.0038255466 
Si 6.8398030151 4.0784880430 4.1560649917 
Si 8.1979094112 2.7130393813 0.0091063131 
Si 6.8424636210 1.3537395845 1.3875500240 
Si 8.2137127431 -0.0014927469 2.7694721130 
Si 9.5669259530 4.0864571363 6.9397010015 
Si 5.4745217630 2.7221693190 8.3380550612 
Si 9.5678234075 1.3595066233 9.7202312872 
Si 5.4765103586 0.0053430731 5.5571898698 
Si 6.8471056854 4.0784497453 9.7090904533 
Si 8.2040943630 2.7140434829 5.5455649811 
Si 6.8403164262 1.3541042244 6.9509696586 
Si 8.2012029674 0.0020096236 8.3238846967 
Si 9.5639279320 9.5047094138 1.3822231730 
Si 5.4776192406 8.1498202919 2.7681429413 
Si 9.5666190358 6.7937849082 4.1739529951 
Si 5.4610573334 5.4325606945 -0.0092776945 
Si 6.8381303747 9.5191986603 4.1728744982 
Si 8.2012640776 8.1611368378 -0.0091856507 
Si 6.8331760782 6.7891945691 1.3833432209 
Si 8.2106790805 5.4292760503 2.7850775230 
Si 9.5724070102 9.5174850711 6.9478897284 
Si 5.4797389723 8.1538818415 8.3253652702 
Si 9.5807475451 6.7968117841 9.7155062023 
Si 5.4682761068 5.4278706669 5.5551316484 
Si 6.8439331915 9.5146117731 9.7248975015 
Si 8.2008561379 8.1572489188 5.5448186133 
Si 6.8455361985 6.7892080879 6.9316741435 
Si 8.2038462997 5.4399075443 8.3394083069 

