&CONTROL
   calculation      = 'scf'
   tstress          = .true.
   tprnfor          = .true.
   outdir           = './'
   disk_io          = 'none'
   pseudo_dir       = '/home/ppiaggi/pseudos'
/
&SYSTEM
   ecutwfc          = 30
   occupations      = 'smearing'
   degauss          = 0.01
   smearing         = 'fermi-dirac'
   input_dft        = 'PBE'
   ntyp             = 1
   nat              = 64
   ibrav            = 0
/
&ELECTRONS
   electron_maxstep = 100
   mixing_beta      = 0.5
/
&IONS
/
&CELL
/

ATOMIC_SPECIES
Si 28.085 Si_ONCV_PBE_sr.upf

K_POINTS gamma

CELL_PARAMETERS angstrom
11.00696949449148 0.00000000000000 0.00000000000000
0.00000000000000 11.01579532588423 0.00000000000000
0.00000000000000 0.00000000000000 11.07831388450029

ATOMIC_POSITIONS angstrom
Si -0.0041275158 0.0074243836 -0.0021485612 
Si 0.0097352076 2.7678411583 2.7482785212 
Si 2.7706104354 0.0033035111 2.7373611287 
Si 2.7714991329 2.7633554060 -0.0063975397 
Si 1.3895507511 1.3851990301 1.3660415416 
Si 5.5271293230 0.0033068593 0.0092487102 
Si 5.5370822245 2.7748020920 2.7503109882 
Si 6.9065296044 1.3873319223 1.3776869746 
Si 8.3043191987 0.0012715209 2.7447330117 
Si 8.2881901637 2.7761483068 0.0057104415 
Si -0.0025946636 5.5386119193 -0.0029057142 
Si 2.7671531794 5.5444794018 2.7393743416 
Si 1.3889160098 6.9279562734 1.3776061426 
Si 4.1418460130 4.1641975564 1.3759835309 
Si 5.5398462729 5.5402399477 -0.0027105408 
Si 6.9047067296 6.9276222585 1.3704114216 
Si 9.6783021297 4.1485795662 1.3751394717 
Si 8.2885253468 5.5503570707 2.7475447992 
Si 0.0017058977 8.3041285183 2.7399404752 
Si 2.7626531603 8.3083333242 0.0096398683 
Si 4.1398595559 9.6933228153 1.3724126498 
Si 5.5243522361 8.3192632642 2.7403827295 
Si 8.2974962116 8.3030523811 -0.0066135114 
Si 9.6683598565 9.6967830722 1.3780202476 
Si 0.0030743749 -0.0056196434 5.4849044078 
Si 2.7614542011 2.7666050752 5.4861249334 
Si 1.3817156504 1.3758244353 6.8636526756 
Si 4.1457690163 1.3799130076 4.1257017314 
Si 5.5274878685 -0.0039799018 5.4939676518 
Si 6.9203572973 1.3949442389 6.8743844623 
Si 9.6699993216 1.3850234864 4.1267102193 
Si 8.2938272289 2.7639616844 5.4952157375 
Si 1.3727063035 4.1603794134 4.1223290815 
Si -0.0087126535 5.5439309893 5.4901702500 
Si 1.3732530377 6.9315586397 6.8580371805 
Si 6.9090828386 4.1628938456 4.1247895550 
Si 4.1498530133 6.9186025514 4.1235983075 
Si 4.1510033168 4.1518420835 6.8636718919 
Si 5.5210738850 5.5475451691 5.4854257219 
Si 6.9094485521 6.9223999464 6.8634671968 
Si 9.6695734637 6.9281686089 4.1108734524 
Si 9.6736798404 4.1542129858 6.8745793379 
Si 1.3742107256 9.7016712239 4.1105569774 
Si 2.7618998345 8.3199027357 5.4941452704 
Si 6.9053321285 9.7057421085 4.1190418841 
Si 4.1484957442 9.7009656254 6.8579863630 
Si 8.2872637287 8.3049255412 5.4935864380 
Si 9.6811776460 9.7027617789 6.8634953639 
Si -0.0049719817 2.7733598964 8.2322178032 
Si 2.7653432463 -0.0040987931 8.2370012479 
Si 4.1402837284 1.3761570183 9.6081504692 
Si 5.5327302232 2.7682133941 8.2339682377 
Si 8.3050824378 0.0094905618 8.2419193871 
Si 9.6736125353 1.3933840973 9.6154717159 
Si 1.3918802089 4.1498395657 9.6067128991 
Si 2.7726904550 5.5457994628 8.2396286997 
Si 6.9042078721 4.1603115550 9.6204896598 
Si 4.1560401601 6.9268704089 9.6094814306 
Si 8.2975004563 5.5368643334 8.2418579352 
Si 9.6781642835 6.9337199176 9.6209199664 
Si 0.0044712040 8.3183741145 8.2317954781 
Si 1.3779270047 9.6934537991 9.6151947276 
Si 5.5263645101 8.3148152647 8.2317563746 
Si 6.9054098554 9.6915368030 9.6089797367 

