&CONTROL
   calculation      = 'scf'
   tstress          = '.true.'
   tprnfor          = '.true.'
   outdir           = './'
   disk_io          = 'none'
   pseudo_dir       = './'
/
&SYSTEM
   ecutwfc          = 30
   input_dft        = 'PBE'
   ntyp             = 1
   nat              = 64
   ibrav            = 0
/
&ELECTRONS
   electron_maxstep = 1000
   mixing_beta      = 0.5
/
&IONS
/
&CELL
/

ATOMIC_SPECIES
Si 28.085 Si_ONCV_PBE-1.0.upf

K_POINTS gamma

CELL_PARAMETERS angstrom
10.93864701583012 0.00000000000000 0.00000000000000
0.00000000000000 10.85283191487038 0.00000000000000
0.00000000000000 0.00000000000000 10.86045729486586

ATOMIC_POSITIONS angstrom
Si 4.1392082788 4.0528518623 1.3418023784 
Si -0.0084788222 2.7043928200 2.6943197623 
Si 4.1433549035 1.3438584312 4.0517571907 
Si -0.0048158220 -0.0074767367 0.0029622908 
Si 1.3698424820 4.0623303432 4.0350327657 
Si 2.7597273417 2.7101033185 0.0080877931 
Si 1.3782107635 1.3429933138 1.3563696913 
Si 2.7658146390 0.0037074728 2.6885091556 
Si 4.1436992328 4.0562380925 6.7369114913 
Si 0.0044098607 2.7096610229 8.0767172177 
Si 4.1420463402 1.3552800151 9.4271388887 
Si 0.0005684719 0.0076293097 5.3950381356 
Si 1.3816326452 4.0552903505 9.4294015737 
Si 2.7629580806 2.6988786274 5.3976120449 
Si 1.3861570200 1.3553480409 6.7442256523 
Si 2.7602224912 0.0031820142 8.0818599008 
Si 4.1403110538 9.4542450066 1.3478961630 
Si 0.0016809795 8.1058443295 2.6871224425 
Si 4.1289933621 6.7602744317 4.0342076418 
Si -0.0008520109 5.4088118928 0.0010226321 
Si 1.3866115161 9.4517215803 4.0435113697 
Si 2.7625776367 8.0994364355 -0.0066149178 
Si 1.3806090298 6.7500152924 1.3530121303 
Si 2.7504991086 5.4050366097 2.6967383639 
Si 4.1392872515 9.4640994013 6.7445787626 
Si 0.0052085699 8.0997076706 8.0913848660 
Si 4.1279185725 6.7594330662 9.4396234108 
Si -0.0077633557 5.4083899520 5.3870124199 
Si 1.3754154840 9.4608166929 9.4305495189 
Si 2.7550101688 8.1042437536 5.3949466308 
Si 1.3757470459 6.7505749222 6.7326824781 
Si 2.7542480146 5.3986405564 8.0834622184 
Si 9.6556308294 4.0593696524 1.3478053641 
Si 5.5129374318 2.6964337806 2.6861621960 
Si 9.6562625135 1.3606121889 4.0378536346 
Si 5.5090968909 0.0073752727 0.0029683068 
Si 6.8885856525 4.0510875459 4.0520649666 
Si 8.2771870774 2.7106285031 -0.0051377793 
Si 6.8857875711 1.3599940559 1.3465434900 
Si 8.2835022733 0.0024089798 2.6866154395 
Si 9.6554447174 4.0500393877 6.7344973473 
Si 5.5185604238 2.7025167342 8.0919593402 
Si 9.6497791991 1.3550084452 9.4391411345 
Si 5.5099108203 -0.0011529568 5.3920466476 
Si 6.8926509966 4.0535530988 9.4352385201 
Si 8.2684848969 2.7112607740 5.3897543230 
Si 6.8996778736 1.3598334006 6.7447362655 
Si 8.2843857918 -0.0029414641 8.0786209634 
Si 9.6542607394 9.4581627910 1.3463901561 
Si 5.5196457599 8.0988472631 2.7007595944 
Si 9.6534102924 6.7501185388 4.0479334018 
Si 5.5214534364 5.4093292912 -0.0001191042 
Si 6.8879290466 9.4505420977 4.0370930742 
Si 8.2747822403 8.1130426415 0.0085934813 
Si 6.8960154886 6.7533805377 1.3477524339 
Si 8.2756518582 5.3978721426 2.6940627564 
Si 9.6618650706 9.4491884185 6.7352674839 
Si 5.5191049396 8.1021010070 8.0924522808 
Si 9.6507234151 6.7472477097 9.4353632921 
Si 5.5262777780 5.4102883212 5.3869439780 
Si 6.8954078041 9.4468734035 9.4267616827 
Si 8.2832159425 8.0977058982 5.3818822429 
Si 6.9053805351 6.7538201288 6.7346617647 
Si 8.2669069830 5.4054920283 8.0795243245 

