&CONTROL
   calculation      = 'scf'
   tstress          = '.true.'
   tprnfor          = '.true.'
   outdir           = './'
   disk_io          = 'none'
   pseudo_dir       = './'
/
&SYSTEM
   ecutwfc          = 30
   input_dft        = 'PBE'
   ntyp             = 1
   nat              = 64
   ibrav            = 0
/
&ELECTRONS
   electron_maxstep = 1000
   mixing_beta      = 0.5
/
&IONS
/
&CELL
/

ATOMIC_SPECIES
Si 28.085 Si_ONCV_PBE-1.0.upf

K_POINTS gamma

CELL_PARAMETERS angstrom
10.98024587908671 0.00000000000000 0.00000000000000
0.00000000000000 10.87493616290316 0.00000000000000
0.00000000000000 0.00000000000000 11.02310319353396

ATOMIC_POSITIONS angstrom
Si 4.1217917954 4.1053864829 1.3646771374 
Si -0.0037846973 2.7297946587 2.7402369188 
Si 4.1216542600 1.3689864675 4.1036447282 
Si -0.0008335507 0.0037842309 0.0022854395 
Si 1.3665870723 4.1065880808 4.1102154964 
Si 2.7411309001 2.7299826867 -0.0096036295 
Si 1.3726595342 1.3734385071 1.3616635051 
Si 2.7388637319 -0.0021023450 2.7325766317 
Si 4.1101659636 4.0957905891 6.8461600418 
Si -0.0000232590 2.7323416128 8.2047509215 
Si 4.1212296954 1.3563701600 9.5659884868 
Si 0.0091652506 0.0098345047 5.4727893500 
Si 1.3683633873 4.1019426198 9.5773722037 
Si 2.7401345165 2.7276429074 5.4764071401 
Si 1.3773258997 1.3608110847 6.8340334306 
Si 2.7463724786 0.0058973377 8.2153281121 
Si 4.1168487348 9.5531053945 1.3776864260 
Si 0.0093003988 8.1886767688 2.7328551731 
Si 4.1092140195 6.8261710589 4.1049713004 
Si -0.0009023191 5.4613187324 -0.0091480578 
Si 1.3804698275 9.5595059167 4.1114932771 
Si 2.7453471873 8.1943883076 0.0077267436 
Si 1.3798710526 6.8219707415 1.3631471538 
Si 2.7398226339 5.4677726273 2.7276641570 
Si 4.1171523531 9.5563740769 6.8341290353 
Si -0.0021741263 8.1897918989 8.2056114544 
Si 4.1259455751 6.8353820718 9.5831900798 
Si 0.0013932671 5.4573713982 5.4666464667 
Si 1.3691088560 9.5697292480 9.5718345404 
Si 2.7471895664 8.1878820032 5.4781632481 
Si 1.3779764702 6.8243597770 6.8314123838 
Si 2.7398637528 5.4732980645 8.2034449416 
Si 9.6033335281 4.0901069631 1.3605910349 
Si 5.4890464523 2.7252139932 2.7410059327 
Si 9.6058602413 1.3712319929 4.1084304704 
Si 5.4829497689 0.0035990817 -0.0023490355 
Si 6.8704594043 4.0948119099 4.0985195171 
Si 8.2269624639 2.7375432153 0.0056849599 
Si 6.8629556795 1.3602347754 1.3738588553 
Si 8.2307709427 -0.0010071827 2.7412071308 
Si 9.6005462566 4.0912675757 6.8323490477 
Si 5.4985001168 2.7255537286 8.2098591404 
Si 9.6056344648 1.3707713980 9.5759628910 
Si 5.4872851790 -0.0075443652 5.4761297315 
Si 6.8680822236 4.0949371220 9.5682340368 
Si 8.2283008129 2.7233336483 5.4650383390 
Si 6.8683217206 1.3654007570 6.8444386843 
Si 8.2276865750 0.0082116693 8.2120612871 
Si 9.6182645513 9.5616365990 1.3728320974 
Si 5.4878907901 8.1965486683 2.7329903289 
Si 9.6191227206 6.8266759122 4.1091720777 
Si 5.4930911663 5.4649072025 -0.0081481430 
Si 6.8569742796 9.5675217215 4.1061937633 
Si 8.2307902388 8.1870067723 0.0045915839 
Si 6.8629483058 6.8348305021 1.3617944561 
Si 8.2294115897 5.4593816802 2.7379676529 
Si 9.6032988034 9.5531060661 6.8477064059 
Si 5.4975367982 8.1885576072 8.2104425563 
Si 9.6132194103 6.8370286652 9.5779645902 
Si 5.4931093669 5.4581802394 5.4661065008 
Si 6.8656285865 9.5614884285 9.5847566390 
Si 8.2465859674 8.1908383921 5.4664024263 
Si 6.8644472837 6.8279826126 6.8357915643 
Si 8.2274896125 5.4600581295 8.2019695773 

