&CONTROL
   calculation      = 'scf'
   tstress          = '.true.'
   tprnfor          = '.true.'
   outdir           = './'
   disk_io          = 'none'
   pseudo_dir       = './'
/
&SYSTEM
   ecutwfc          = 30
   input_dft        = 'PBE'
   ntyp             = 1
   nat              = 64
   ibrav            = 0
/
&ELECTRONS
   electron_maxstep = 1000
   mixing_beta      = 0.5
/
&IONS
/
&CELL
/

ATOMIC_SPECIES
Si 28.085 Si_ONCV_PBE-1.0.upf

K_POINTS gamma

CELL_PARAMETERS angstrom
10.95914179305040 0.00000000000000 0.00000000000000
0.00000000000000 10.91409328792366 0.00000000000000
0.00000000000000 0.00000000000000 10.95605956986302

ATOMIC_POSITIONS angstrom
Si 4.1109640893 4.0922859305 1.3770787591 
Si -0.0095795550 2.7253516386 2.7654366807 
Si 4.1003699053 1.3617501005 4.1377744560 
Si -0.0073901401 -0.0071816917 -0.0074810103 
Si 1.3734758813 4.0928808102 4.1255763088 
Si 2.7410276236 2.7258433096 -0.0090324822 
Si 1.3607265292 1.3595317396 1.3765383721 
Si 2.7291076166 0.0031543667 2.7595409583 
Si 4.1024976430 4.0832422786 6.8961862183 
Si 0.0069114607 2.7186728211 8.2793593500 
Si 4.1041245574 1.3637019584 9.6548411731 
Si 0.0067028656 0.0043526378 5.5196686239 
Si 1.3738640463 4.0846229313 9.6578618599 
Si 2.7351712782 2.7284333460 5.5093886379 
Si 1.3584723311 1.3613957227 6.8938572631 
Si 2.7358654639 -0.0090006989 8.2785451112 
Si 4.1076814385 9.5322670518 1.3802721380 
Si 0.0072997447 8.1685708559 2.7587846276 
Si 4.1037348682 6.8068994422 4.1374266707 
Si 0.0000565585 5.4563072995 -0.0087545786 
Si 1.3654685976 9.5286951448 4.1332161972 
Si 2.7299575023 8.1814304731 0.0036603383 
Si 1.3675395733 6.8055033217 1.3756091680 
Si 2.7375519382 5.4446486361 2.7630768308 
Si 4.1102983933 9.5367096221 6.8820001454 
Si -0.0060082857 8.1787839621 8.2645319894 
Si 4.1091057060 6.8045153881 9.6478877284 
Si 0.0044953520 5.4497571096 5.5221918871 
Si 1.3778126039 9.5398338189 9.6474483311 
Si 2.7397458986 8.1713815945 5.5181089345 
Si 1.3661001445 6.8025197184 6.8907166563 
Si 2.7319824347 5.4564157244 8.2612883276 
Si 9.5822763259 4.0943006882 1.3735455110 
Si 5.4667018077 2.7195516880 2.7613580154 
Si 9.5758901714 1.3535453838 4.1332647687 
Si 5.4805719693 -0.0049475598 0.0037462989 
Si 6.8325801989 4.0862889069 4.1427952399 
Si 8.2070432319 2.7191829926 0.0022287106 
Si 6.8308419490 1.3579292007 1.3880738722 
Si 8.2116027030 -0.0093653993 2.7492966467 
Si 9.5690696031 4.0916361424 6.8833832132 
Si 5.4619670911 2.7249799375 8.2714899754 
Si 9.5740597268 1.3562577497 9.6547722974 
Si 5.4638194163 -0.0071542190 5.5205164332 
Si 6.8412392683 4.0872487742 9.6531695301 
Si 8.2070727772 2.7323792210 5.5065961413 
Si 6.8297575009 1.3631793508 6.8844152540 
Si 8.2116006677 0.0063048977 8.2601491018 
Si 9.5800547786 9.5312147485 1.3799076561 
Si 5.4707514548 8.1673318486 2.7584234674 
Si 9.5702981337 6.8045319251 4.1289467357 
Si 5.4618602493 5.4445470842 0.0003028651 
Si 6.8409989058 9.5272505677 4.1415547358 
Si 8.2138130218 8.1643110467 0.0023941989 
Si 6.8317685601 6.8055084258 1.3863293448 
Si 8.2079203158 5.4384614005 2.7543106725 
Si 9.5783712262 9.5334098575 6.8933799690 
Si 5.4799586112 8.1791445241 8.2621259160 
Si 9.5808625422 6.8187252570 9.6506637724 
Si 5.4787790316 5.4454719111 5.5106288642 
Si 6.8306671345 9.5353103535 9.6406352950 
Si 8.2085505262 8.1692496941 5.5188420858 
Si 6.8477753190 6.8032743816 6.9003047121 
Si 8.2051028690 5.4566413526 8.2674437716 

