&CONTROL
   calculation      = 'scf'
   tstress          = .true.
   tprnfor          = .true.
   outdir           = './'
   disk_io          = 'none'
   pseudo_dir       = '/home/ppiaggi/pseudos'
/
&SYSTEM
   ecutwfc          = 30
   occupations      = 'smearing'
   degauss          = 0.01
   smearing         = 'fermi-dirac'
   input_dft        = 'PBE'
   ntyp             = 1
   nat              = 64
   ibrav            = 0
/
&ELECTRONS
   electron_maxstep = 100
   mixing_beta      = 0.5
/
&IONS
/
&CELL
/

ATOMIC_SPECIES
Si 28.085 Si_ONCV_PBE_sr.upf

K_POINTS gamma

CELL_PARAMETERS angstrom
10.97260531228177 0.00000000000000 0.00000000000000
0.00000000000000 11.00951260717671 0.00000000000000
0.00000000000000 0.00000000000000 10.96762473350143

ATOMIC_POSITIONS angstrom
Si -0.0088651873 0.0003528474 0.0011363709 
Si -0.0010559447 2.7271984194 2.7352514024 
Si 2.7419754656 0.0058132250 2.7278454771 
Si 2.7492047598 2.7340563274 0.0052573751 
Si 1.3779386718 1.3593729388 1.3696949869 
Si 5.5101574269 0.0049015206 0.0083065753 
Si 5.4997455183 2.7448717733 2.7295352949 
Si 6.8835571046 1.3746401865 1.3687515887 
Si 8.2627795389 -0.0042951625 2.7397106982 
Si 8.2626831629 2.7294244906 -0.0090766549 
Si 0.0091031254 5.4717564668 0.0004515999 
Si 2.7490753100 5.4739088247 2.7372610263 
Si 1.3781472617 6.8464552908 1.3738873539 
Si 4.1239488407 4.1027260025 1.3575179254 
Si 5.5033781372 5.4737018519 0.0055670364 
Si 6.8860729707 6.8388986586 1.3574626216 
Si 9.6256012667 4.1106233848 1.3681754468 
Si 8.2480807154 5.4786874090 2.7364096274 
Si -0.0089256005 8.2063369400 2.7365885039 
Si 2.7505847451 8.2072142887 0.0094283098 
Si 4.1170689655 9.5666949452 1.3573006620 
Si 5.4936609141 8.2014757357 2.7287819029 
Si 8.2562850935 8.2164246540 0.0023543585 
Si 9.6243831748 9.5761346509 1.3653294581 
Si -0.0081706844 -0.0040146967 5.4713894254 
Si 2.7526033962 2.7449442339 5.4753825942 
Si 1.3662960872 1.3728298561 6.8281050277 
Si 4.1223044729 1.3776180944 4.1025820989 
Si 5.4986224672 -0.0034987602 5.4678712530 
Si 6.8808536412 1.3644033932 6.8355596327 
Si 9.6223288491 1.3700902784 4.0931260962 
Si 8.2433612908 2.7322003440 5.4588619501 
Si 1.3676060482 4.0956006364 4.0993975868 
Si -0.0079766431 5.4757479516 5.4697669888 
Si 1.3840662039 6.8345439800 6.8407825283 
Si 6.8785209122 4.1043091825 4.0898449311 
Si 4.1268025632 6.8307498545 4.1003698456 
Si 4.1267732993 4.0963468759 6.8315567817 
Si 5.5038132718 5.4761492110 5.4620406604 
Si 6.8810546324 6.8290976192 6.8317571148 
Si 9.6253563609 6.8428026856 4.0963262857 
Si 9.6287095291 4.1123511267 6.8228500086 
Si 1.3765857814 9.5668543656 4.1082640386 
Si 2.7482978556 8.2082325497 5.4566792644 
Si 6.8713199078 9.5653523935 4.0998271949 
Si 4.1252409334 9.5835001866 6.8344790212 
Si 8.2490526048 8.2021555126 5.4667417400 
Si 9.6323623867 9.5744695810 6.8255345758 
Si -0.0018278926 2.7331901782 8.1969110879 
Si 2.7559583117 -0.0026899448 8.2063080998 
Si 4.1280654325 1.3770864459 9.5741392415 
Si 5.5101593501 2.7348905188 8.2021173847 
Si 8.2627879239 -0.0029165236 8.1964144325 
Si 9.6213625074 1.3763383502 9.5660484101 
Si 1.3667348583 4.1091968999 9.5603436001 
Si 2.7530888940 5.4805214611 8.1943596250 
Si 6.8713699020 4.0940246871 9.5632408161 
Si 4.1258214758 6.8366873248 9.5642894851 
Si 8.2557557682 5.4738344432 8.2018040419 
Si 9.6292163895 6.8426396868 9.5702799888 
Si -0.0062195326 8.2057467030 8.2035918018 
Si 1.3835377316 9.5739440568 9.5704814531 
Si 5.5084733863 8.2031857420 8.2064280710 
Si 6.8710033364 9.5790979698 9.5732698196 

