&CONTROL
   calculation      = 'scf'
   tstress          = '.true.'
   tprnfor          = '.true.'
   outdir           = './'
   disk_io          = 'none'
   pseudo_dir       = './'
/
&SYSTEM
   ecutwfc          = 30
   input_dft        = 'PBE'
   ntyp             = 1
   nat              = 64
   ibrav            = 0
/
&ELECTRONS
   electron_maxstep = 1000
   mixing_beta      = 0.5
/
&IONS
/
&CELL
/

ATOMIC_SPECIES
Si 28.085 Si_ONCV_PBE-1.0.upf

K_POINTS gamma

CELL_PARAMETERS angstrom
11.00919647374130 0.00000000000000 0.00000000000000
0.00000000000000 10.94766378696501 0.00000000000000
0.00000000000000 0.00000000000000 10.85122023097884

ATOMIC_POSITIONS angstrom
Si 4.0965723953 4.0808683805 1.3512207475 
Si -0.0086000519 2.7243553504 2.6980604960 
Si 4.0892352948 1.3690675523 4.0500366526 
Si -0.0008669314 -0.0056560312 -0.0041210275 
Si 1.3610337902 4.0778242437 4.0424152343 
Si 2.7369361381 2.7128299515 -0.0016725337 
Si 1.3629420065 1.3536872377 1.3556750752 
Si 2.7385018067 0.0088144208 2.7024389566 
Si 4.1038744265 4.0833700255 6.7523527563 
Si -0.0024380236 2.7219398183 8.0981987327 
Si 4.0916470098 1.3670166974 9.4454725918 
Si 0.0089439298 -0.0029680764 5.3955357586 
Si 1.3730533673 4.0884765717 9.4377778418 
Si 2.7375250691 2.7253789565 5.3936406432 
Si 1.3693856632 1.3543008173 6.7455172217 
Si 2.7329501991 0.0014239838 8.0967343897 
Si 4.1072306085 9.5186568829 1.3499268600 
Si -0.0022431102 8.1592876453 2.7021354405 
Si 4.1001565788 6.8041483293 4.0487333579 
Si -0.0092751063 5.4403440694 0.0043213788 
Si 1.3618864265 9.5161043417 4.0411238691 
Si 2.7324085595 8.1548347356 -0.0019099090 
Si 1.3614043794 6.8055782701 1.3468900238 
Si 2.7323747789 5.4409414983 2.7026967594 
Si 4.1046571325 9.5308096219 6.7541202663 
Si -0.0044587150 8.1661669285 8.0859313277 
Si 4.0935445521 6.8077467048 9.4515217690 
Si 0.0007174725 5.4462067728 5.3960931404 
Si 1.3644827950 9.5272213389 9.4411418750 
Si 2.7227452045 8.1701279941 5.3950530282 
Si 1.3620203183 6.8080449249 6.7458042676 
Si 2.7268993833 5.4491045371 8.1031423302 
Si 9.5604903208 4.0860366271 1.3571136323 
Si 5.4722080170 2.7256237499 2.6924054372 
Si 9.5668500388 1.3677990667 4.0406351201 
Si 5.4569026450 0.0093840098 0.0072481335 
Si 6.8369261655 4.0767417687 4.0418122935 
Si 8.1877461604 2.7228976390 -0.0001484656 
Si 6.8374535715 1.3688935191 1.3415115691 
Si 8.1867038829 -0.0005349264 2.6941163388 
Si 9.5642646609 4.0847013127 6.7475754478 
Si 5.4673545365 2.7265059897 8.0946172941 
Si 9.5670478926 1.3540771368 9.4480533945 
Si 5.4596164064 0.0007263696 5.3928251464 
Si 6.8231373167 4.0861112474 9.4473581975 
Si 8.2041490229 2.7224191268 5.3883615116 
Si 6.8231195870 1.3563471811 6.7444900500 
Si 8.1963399552 0.0019385627 8.0887699733 
Si 9.5608965695 9.5194405987 1.3450634633 
Si 5.4538772098 8.1652103424 2.7057344186 
Si 9.5534022393 6.8049942242 4.0422358392 
Si 5.4676798147 5.4451728866 -0.0006640120 
Si 6.8347945063 9.5326650775 4.0447723015 
Si 8.2055308736 8.1718930875 0.0012537865 
Si 6.8285519662 6.8120908968 1.3575283032 
Si 8.1982191540 5.4412621929 2.7016060780 
Si 9.5521757323 9.5304597267 6.7548832576 
Si 5.4608835176 8.1550935769 8.0955875618 
Si 9.5628669441 6.8099754935 9.4418955872 
Si 5.4608927952 5.4380491078 5.3925144630 
Si 6.8268282480 9.5240149412 9.4411300789 
Si 8.2009507164 8.1669953881 5.3885729998 
Si 6.8382413067 6.7985098707 6.7471640558 
Si 8.1926057303 5.4450615810 8.0928530205 

