&CONTROL
   calculation      = 'scf'
   tstress          = .true.
   tprnfor          = .true.
   outdir           = './'
   disk_io          = 'none'
   pseudo_dir       = '/home/ppiaggi/pseudos'
/
&SYSTEM
   ecutwfc          = 30
   occupations      = 'smearing'
   degauss          = 0.01
   smearing         = 'fermi-dirac'
   input_dft        = 'PBE'
   ntyp             = 1
   nat              = 64
   ibrav            = 0
/
&ELECTRONS
   electron_maxstep = 100
   mixing_beta      = 0.5
/
&IONS
/
&CELL
/

ATOMIC_SPECIES
Si 28.085 Si_ONCV_PBE_sr.upf

K_POINTS gamma

CELL_PARAMETERS angstrom
10.96889121736465 0.00000000000000 0.00000000000000
0.00000000000000 10.94530625459495 0.00000000000000
0.00000000000000 0.00000000000000 11.01962693812511

ATOMIC_POSITIONS angstrom
Si 0.0000261937 0.0025688798 -0.0085867029 
Si 0.0028847288 2.7088483959 2.7208916441 
Si 2.7489184274 -0.0024865664 2.7298709641 
Si 2.7343957679 2.7168597344 -0.0060860191 
Si 1.3633909197 1.3649392322 1.3673830714 
Si 5.4787274414 -0.0053088668 -0.0077850766 
Si 5.4736206410 2.7149730660 2.7323074611 
Si 6.8495869591 1.3512693262 1.3649481967 
Si 8.2272093666 -0.0062001541 2.7223894599 
Si 8.2096252337 2.7163994476 -0.0048950309 
Si -0.0087020594 5.4218266241 0.0088576643 
Si 2.7368731195 5.4244312806 2.7347706012 
Si 1.3687271866 6.7721768486 1.3680903140 
Si 4.1160092873 4.0695414259 1.3624485512 
Si 5.4843841705 5.4317507901 0.0034071214 
Si 6.8474799486 6.7884483422 1.3700628975 
Si 9.5961638867 4.0758849526 1.3630719849 
Si 8.2100519700 5.4184303776 2.7255746360 
Si -0.0093914209 8.1273033460 2.7330315956 
Si 2.7322069679 8.1309015514 -0.0068849208 
Si 4.0998367833 9.4956050948 1.3659092032 
Si 5.4800909402 8.1311531528 2.7333324022 
Si 8.2194416910 8.1346169340 0.0077275966 
Si 9.5786265974 9.4927185204 1.3632287413 
Si -0.0015697319 -0.0065457088 5.4496232125 
Si 2.7420588503 2.7112245412 5.4521412830 
Si 1.3684714004 1.3624350476 6.8257095582 
Si 4.1183986907 1.3481735384 4.0827287170 
Si 5.4863493370 0.0041910578 5.4472418299 
Si 6.8443544024 1.3521913279 6.8134094414 
Si 9.5973416217 1.3623837804 4.0823229909 
Si 8.2254496812 2.7146098776 5.4605195458 
Si 1.3788224555 4.0764619723 4.1006923535 
Si 0.0011957734 5.4288999189 5.4487476856 
Si 1.3649636407 6.7863777442 6.8166405689 
Si 6.8527384479 4.0610366936 4.0923817997 
Si 4.1029903894 6.7819074517 4.0959653250 
Si 4.1085840361 4.0616056794 6.8198428825 
Si 5.4715751382 5.4137185122 5.4534937077 
Si 6.8510397497 6.7740514483 6.8195377209 
Si 9.5790653897 6.7717462409 4.1002137865 
Si 9.5785494054 4.0623619075 6.8239483337 
Si 1.3697396626 9.4988600686 4.0929399140 
Si 2.7481921547 8.1289121203 5.4588896509 
Si 6.8390151222 9.4837394006 4.0867196455 
Si 4.1157920123 9.4927792534 6.8217520102 
Si 8.2168200334 8.1380736116 5.4657256177 
Si 9.5839902070 9.4930408655 6.8102623001 
Si -0.0025740181 2.7125899133 8.1845576955 
Si 2.7484693273 -0.0064438184 8.1847550391 
Si 4.1135272622 1.3581684783 9.5398271044 
Si 5.4746267074 2.7163943386 8.1753946055 
Si 8.2199266525 -0.0066585955 8.1805179123 
Si 9.5863081104 1.3650950456 9.5408797709 
Si 1.3760468370 4.0717947553 9.5389506990 
Si 2.7326550915 5.4304285027 8.1876307799 
Si 6.8534829145 4.0588408943 9.5528374396 
Si 4.0992462151 6.7762091258 9.5518957936 
Si 8.2252456965 5.4235994433 8.1820517033 
Si 9.5847742838 6.7729859904 9.5490160030 
Si 0.0016825998 8.1288449618 8.1840306514 
Si 1.3606809101 9.4944215253 9.5481315724 
Si 5.4869666953 8.1431259447 8.1905736867 
Si 6.8419638622 9.4846208337 9.5396675966 

