&CONTROL
   calculation      = 'scf'
   tstress          = .true.
   tprnfor          = .true.
   outdir           = './'
   disk_io          = 'none'
   pseudo_dir       = '/home/ppiaggi/pseudos'
/
&SYSTEM
   ecutwfc          = 30
   occupations      = 'smearing'
   degauss          = 0.01
   smearing         = 'fermi-dirac'
   input_dft        = 'PBE'
   ntyp             = 1
   nat              = 64
   ibrav            = 0
/
&ELECTRONS
   electron_maxstep = 100
   mixing_beta      = 0.5
/
&IONS
/
&CELL
/

ATOMIC_SPECIES
Si 28.085 Si_ONCV_PBE_sr.upf

K_POINTS gamma

CELL_PARAMETERS angstrom
10.89085657400626 0.00000000000000 0.00000000000000
0.00000000000000 11.00538395304766 0.00000000000000
0.00000000000000 0.00000000000000 10.96440526666460

ATOMIC_POSITIONS angstrom
Si 0.0011400474 -0.0069963678 0.0074291301 
Si -0.0010230135 2.7507015401 2.7130593406 
Si 2.7376043838 0.0079753872 2.7213105537 
Si 2.7355637124 2.7425496566 -0.0094369494 
Si 1.3720136995 1.3738851859 1.3632526543 
Si 5.4940481736 -0.0098401941 -0.0062316832 
Si 5.4902730211 2.7455253649 2.7248397384 
Si 6.8639431670 1.3841579657 1.3597983881 
Si 8.2419498722 -0.0042103433 2.7181731459 
Si 8.2418077194 2.7491983154 0.0030223960 
Si -0.0030565401 5.4983049671 -0.0090551527 
Si 2.7472036491 5.4961456392 2.7122637265 
Si 1.3633505247 6.8803850926 1.3504856179 
Si 4.1183366060 4.1187200539 1.3625663083 
Si 5.4966496013 5.5069786569 0.0038624046 
Si 6.8644300143 6.8673975541 1.3543602101 
Si 9.6040713888 4.1200182175 1.3584967373 
Si 8.2275417578 5.5108796067 2.7092787310 
Si 0.0078868278 8.2613720113 2.7185780937 
Si 2.7554271016 8.2536539650 -0.0046812819 
Si 4.1183932793 9.6188854129 1.3512794180 
Si 5.4864240253 8.2493442232 2.7165302002 
Si 8.2353782584 8.2606048880 0.0020260225 
Si 9.6127298837 9.6190042377 1.3639702351 
Si 0.0028809450 -0.0048103156 5.4334510712 
Si 2.7527084072 2.7601727183 5.4461178581 
Si 1.3814716467 1.3748180290 6.7911410721 
Si 4.1252640778 1.3765692805 4.0706334022 
Si 5.5000234881 -0.0094910705 5.4285578736 
Si 6.8603800177 1.3664343740 6.7882163750 
Si 9.6049610501 1.3759307088 4.0849541659 
Si 8.2434383030 2.7533597373 5.4437814249 
Si 1.3645745963 4.1175893825 4.0704392670 
Si -0.0038115560 5.4927370705 5.4410546522 
Si 1.3637468235 6.8809118278 6.7891954178 
Si 6.8546823127 4.1221070920 4.0824064408 
Si 4.1280962210 6.8703439742 4.0849748049 
Si 4.1113096825 4.1326942958 6.7874639584 
Si 5.4968860535 5.5024587202 5.4401050898 
Si 6.8559082742 6.8736826676 6.7922908020 
Si 9.6191585705 6.8833681036 4.0685861537 
Si 9.6137843858 4.1325491702 6.8028751856 
Si 1.3763871746 9.6352825223 4.0709021417 
Si 2.7537499600 8.2542296357 5.4361618647 
Si 6.8714859129 9.6226606479 4.0734485265 
Si 4.1240549810 9.6175622658 6.7932570965 
Si 8.2453890285 8.2551004483 5.4358792639 
Si 9.6082103102 9.6178644540 6.7996778780 
Si 0.0053299175 2.7477518505 8.1584707296 
Si 2.7550432637 -0.0085329884 8.1573863746 
Si 4.1126276251 1.3768040773 9.5101689543 
Si 5.4982881695 2.7591002102 8.1605794074 
Si 8.2325515602 -0.0056471146 8.1565205583 
Si 9.6108188747 1.3685490740 9.5192613879 
Si 1.3766473751 4.1341494655 9.5131736696 
Si 2.7480274979 5.4966235162 8.1623238171 
Si 6.8727338665 4.1314634708 9.5192332873 
Si 4.1155702628 6.8792033561 9.5178547377 
Si 8.2404590900 5.5061250976 8.1609766835 
Si 9.6001830182 6.8717877415 9.5184482352 
Si -0.0040414955 8.2620418448 8.1489477397 
Si 1.3739050541 9.6357372038 9.5229829750 
Si 5.4932407561 8.2535097827 8.1650668530 
Si 6.8661522182 9.6337442361 9.5073568323 

