&CONTROL
   calculation      = 'scf'
   tstress          = .true.
   tprnfor          = .true.
   outdir           = './'
   disk_io          = 'none'
   pseudo_dir       = '/home/ppiaggi/pseudos'
/
&SYSTEM
   ecutwfc          = 30
   occupations      = 'smearing'
   degauss          = 0.01
   smearing         = 'fermi-dirac'
   input_dft        = 'PBE'
   ntyp             = 1
   nat              = 64
   ibrav            = 0
/
&ELECTRONS
   electron_maxstep = 100
   mixing_beta      = 0.5
/
&IONS
/
&CELL
/

ATOMIC_SPECIES
Si 28.085 Si_ONCV_PBE_sr.upf

K_POINTS gamma

CELL_PARAMETERS angstrom
11.03449659834575 0.00000000000000 0.00000000000000
0.00000000000000 11.06008351699852 0.00000000000000
0.00000000000000 0.00000000000000 11.08768689412060

ATOMIC_POSITIONS angstrom
Si -0.0011352566 -0.0016729067 0.0020624992 
Si -0.0004105175 2.7638424468 2.7723512997 
Si 2.7868419243 0.0069764035 2.7608937723 
Si 2.7799760004 2.7582443160 0.0059549964 
Si 1.3900769241 1.3805575933 1.3785395001 
Si 5.5570956382 -0.0024972706 -0.0005733427 
Si 5.5704209011 2.7638068862 2.7588861164 
Si 6.9564102175 1.3789847482 1.3856342232 
Si 8.3415425041 -0.0083139098 2.7562730479 
Si 8.3432626876 2.7558478670 0.0000131358 
Si -0.0047792656 5.5067332537 -0.0020108317 
Si 2.7819667296 5.5233845615 2.7587915688 
Si 1.4000470565 6.8884910145 1.3748942583 
Si 4.1684070048 4.1303295532 1.3794400699 
Si 5.5671991294 5.5038766537 0.0052890841 
Si 6.9545505409 6.8976853810 1.3740618821 
Si 9.7340990702 4.1320534034 1.3805299775 
Si 8.3545930963 5.5117213036 2.7569388889 
Si -0.0031935780 8.2741269152 2.7745815560 
Si 2.7827292933 8.2710124772 -0.0033256115 
Si 4.1759860557 9.6528520168 1.3847959290 
Si 5.5674269042 8.2702712182 2.7704421683 
Si 8.3453337603 8.2733273910 0.0055234155 
Si 9.7468335825 9.6512842183 1.3920965409 
Si -0.0032710624 0.0031114423 5.5381078394 
Si 2.7758211120 2.7563884236 5.5238760832 
Si 1.3923246429 1.3747719827 6.9199402701 
Si 4.1776528777 1.3836504319 4.1414542712 
Si 5.5755100751 0.0016464146 5.5347706040 
Si 6.9520598372 1.3705006587 6.9064236039 
Si 9.7409428436 1.3832003940 4.1374943905 
Si 8.3440283163 2.7498775931 5.5377485822 
Si 1.3909285986 4.1344267312 4.1466401024 
Si -0.0071576008 5.5109449522 5.5253845679 
Si 1.4007531004 6.8889138273 6.9071278167 
Si 6.9562653512 4.1252098394 4.1508372734 
Si 4.1813596397 6.8918587719 4.1429583786 
Si 4.1821310289 4.1253182734 6.9084435847 
Si 5.5711138178 5.5099595945 5.5264215601 
Si 6.9586127280 6.8965737505 6.9080883740 
Si 9.7445153666 6.8830840391 4.1458724906 
Si 9.7377070628 4.1364528658 6.9146095658 
Si 1.3937703656 9.6451392186 4.1545071953 
Si 2.7905959507 8.2711124441 5.5287040895 
Si 6.9605798567 9.6488025800 4.1470088739 
Si 4.1795118359 9.6491714662 6.9115214248 
Si 8.3428182101 8.2724600722 5.5250748594 
Si 9.7433059884 9.6539219662 6.9034169665 
Si -0.0059438141 2.7523069055 8.2960047641 
Si 2.7777390584 0.0077686454 8.2979586973 
Si 4.1704602580 1.3711639880 9.6663543338 
Si 5.5720676263 2.7553481372 8.2940176336 
Si 8.3501200221 0.0086731784 8.3009176532 
Si 9.7346583794 1.3742671052 9.6806961772 
Si 1.3869235221 4.1310371898 9.6759115013 
Si 2.7917627764 5.5068219100 8.2981264948 
Si 6.9509023247 4.1289931266 9.6728606596 
Si 4.1721717462 6.8823484150 9.6729410919 
Si 8.3537786203 5.5164257662 8.2986698348 
Si 9.7489719714 6.9002109265 9.6675914319 
Si -0.0053309080 8.2676828325 8.3016490598 
Si 1.3931222784 9.6503955166 9.6837750064 
Si 5.5644140754 8.2666462564 8.3010368067 
Si 6.9493353465 9.6442310190 9.6694491718 

