&CONTROL
   calculation      = 'scf'
   tstress          = '.true.'
   tprnfor          = '.true.'
   outdir           = './'
   disk_io          = 'none'
   pseudo_dir       = './'
/
&SYSTEM
   ecutwfc          = 30
   input_dft        = 'PBE'
   ntyp             = 1
   nat              = 64
   ibrav            = 0
/
&ELECTRONS
   electron_maxstep = 1000
   mixing_beta      = 0.5
/
&IONS
/
&CELL
/

ATOMIC_SPECIES
Si 28.085 Si_ONCV_PBE-1.0.upf

K_POINTS gamma

CELL_PARAMETERS angstrom
11.00816326992398 0.00000000000000 0.00000000000000
0.00000000000000 10.96722685267646 0.00000000000000
0.00000000000000 0.00000000000000 10.88468015864672

ATOMIC_POSITIONS angstrom
Si 4.1221611507 4.1058805573 1.3582302948 
Si -0.0015986064 2.7307468818 2.6904738172 
Si 4.1212083376 1.3638725861 4.0385250645 
Si -0.0005961511 -0.0040177709 0.0096645325 
Si 1.3767440733 4.1029608939 4.0440509240 
Si 2.7479850234 2.7423299042 0.0075041297 
Si 1.3685625133 1.3671247901 1.3563918961 
Si 2.7545440210 0.0018404953 2.6916566930 
Si 4.1357594122 4.1115912067 6.7545028664 
Si -0.0086621053 2.7339296240 8.1049348799 
Si 4.1192308025 1.3751137787 9.4402947451 
Si -0.0013119706 0.0063968953 5.4055629037 
Si 1.3704625509 4.0970298201 9.4372241487 
Si 2.7422281398 2.7431754544 5.3949737681 
Si 1.3783371349 1.3762425384 6.7384768039 
Si 2.7490377518 -0.0037057898 8.0907823203 
Si 4.1279091001 9.5727314773 1.3491858435 
Si 0.0006519522 8.2151008637 2.6988045161 
Si 4.1271704018 6.8369540062 4.0512724877 
Si -0.0073612031 5.4723311940 0.0081139937 
Si 1.3776622339 9.5793537476 4.0481444421 
Si 2.7550260656 8.2147692080 -0.0006530934 
Si 1.3777275726 6.8530435500 1.3442725036 
Si 2.7515542669 5.4759620751 2.7018373424 
Si 4.1233468079 9.5782133607 6.7365842832 
Si -0.0024995096 8.2208954586 8.0975954429 
Si 4.1327441986 6.8360883098 9.4355369145 
Si -0.0005864988 5.4647276567 5.4021161337 
Si 1.3757286127 9.5722850438 9.4509401134 
Si 2.7593773836 8.2113101617 5.3963955264 
Si 1.3774713040 6.8425130086 6.7555253510 
Si 2.7477870692 5.4653355203 8.0928338585 
Si 9.6281454384 4.1012017486 1.3433381255 
Si 5.5058640692 2.7395568644 2.7002614796 
Si 9.6246211278 1.3733964858 4.0523622255 
Si 5.4936105494 0.0089083727 -0.0092536758 
Si 6.8683383036 4.1011710858 4.0519037241 
Si 8.2567745415 2.7299429508 0.0084550035 
Si 6.8813459552 1.3617814295 1.3562135105 
Si 8.2494641226 -0.0048711114 2.7059108308 
Si 9.6262630412 4.1059341809 6.7552335331 
Si 5.4997708343 2.7384022059 8.1052892291 
Si 9.6304490759 1.3605971990 9.4435284194 
Si 5.5010418022 0.0001855866 5.3911599465 
Si 6.8830607993 4.1049530231 9.4363700557 
Si 8.2592514469 2.7302897882 5.3989811778 
Si 6.8863431792 1.3747125991 6.7559615408 
Si 8.2429740155 -0.0081309824 8.0986087867 
Si 9.6320935352 9.5737867796 1.3439019796 
Si 5.5034027136 8.2208091517 2.7045071523 
Si 9.6332083878 6.8422175795 4.0505659599 
Si 5.4989603173 5.4727866138 -0.0025118782 
Si 6.8799084425 9.5837021143 4.0395555459 
Si 8.2575614135 8.2114096702 -0.0026191514 
Si 6.8799995998 6.8378267619 1.3436675163 
Si 8.2574309386 5.4797305967 2.6943630620 
Si 9.6220096892 9.5904542328 6.7467069335 
Si 5.5001877831 8.2085326764 8.0983299510 
Si 9.6353888158 6.8417500156 9.4531188403 
Si 5.4984651876 5.4825341863 5.3907979989 
Si 6.8697319692 9.5744162613 9.4386705046 
Si 8.2598818165 8.2102260943 5.4045531269 
Si 6.8680627170 6.8442518730 6.7387693968 
Si 8.2443094508 5.4711322306 8.0886765490 

