&CONTROL
   calculation      = 'scf'
   tstress          = .true.
   tprnfor          = .true.
   outdir           = './'
   disk_io          = 'none'
   pseudo_dir       = '/home/ppiaggi/pseudos'
/
&SYSTEM
   ecutwfc          = 30
   occupations      = 'smearing'
   degauss          = 0.01
   smearing         = 'fermi-dirac'
   input_dft        = 'PBE'
   ntyp             = 1
   nat              = 64
   ibrav            = 0
/
&ELECTRONS
   electron_maxstep = 100
   mixing_beta      = 0.5
/
&IONS
/
&CELL
/

ATOMIC_SPECIES
Si 28.085 Si_ONCV_PBE_sr.upf

K_POINTS gamma

CELL_PARAMETERS angstrom
10.74476163400930 0.00000000000000 0.00000000000000
0.00000000000000 10.74476163400930 0.00000000000000
0.00000000000000 0.00000000000000 10.74476163400930

ATOMIC_POSITIONS angstrom
Si 4.0190673444 3.8944173647 4.9004493965 
Si 5.8605905514 8.9563605286 6.1545887192 
Si 0.2107112225 2.8489090787 8.6523160086 
Si 3.1892171692 0.1432749495 10.3819002889 
Si 0.9564621485 9.9500898083 10.2641806804 
Si 8.5916940635 8.0222109521 6.2559655452 
Si 2.1008157947 3.8899475439 2.5595096688 
Si 0.6734064459 7.2055231099 4.8389463809 
Si 4.3454824581 6.0198386635 3.9065052216 
Si 8.9759589738 7.0805292978 4.1305442464 
Si 10.2291849918 0.7011257820 1.0409944117 
Si 3.7253055614 9.2789397624 7.4381686888 
Si 8.2268879165 0.7157193172 7.7577823683 
Si 6.1477120718 9.0046474874 8.8811579419 
Si 0.2930354372 7.0520879137 10.1541005975 
Si 7.7487997476 2.4728101872 1.3580304229 
Si 4.1253437818 2.2930825594 6.6276483397 
Si 4.3487166314 1.4792420789 3.6887196480 
Si 4.7637115600 0.7235586953 8.6451707422 
Si 5.1923415911 3.1116722244 1.4249487984 
Si 1.0200453499 4.9253772435 9.8576311345 
Si 2.9025254392 5.9954265651 6.0417364878 
Si 1.7567255481 2.9479220571 6.5378758562 
Si 6.8146931502 8.1173450716 0.5677768432 
Si 8.1368038350 6.1409321272 7.6051207950 
Si 10.7218323127 3.0985743600 2.6500127961 
Si 4.9163086647 6.7061388234 8.8800619762 
Si 8.8144974407 1.2531400599 2.9092516600 
Si 6.2970212794 0.4114727957 6.7288102704 
Si 2.3874645456 6.1890256802 1.6384149778 
Si 9.0507317700 2.5444777473 10.1314721295 
Si 2.6139533760 7.9713559953 2.9672303938 
Si 6.2116648930 1.2561485931 10.3409842366 
Si 9.7573072951 9.2701290578 3.3170153640 
Si 2.9415289240 2.0871484579 1.1709211438 
Si 7.2197921533 3.9774636274 5.5392362204 
Si 7.9908684825 6.1358283654 0.9613370468 
Si 3.6482763652 8.7052447044 9.8657004504 
Si 7.3593236279 10.0447833926 4.3276676433 
Si 5.9870993748 5.1395310876 2.2953711936 
Si 10.4599824717 5.9678340172 1.3926715344 
Si 6.7810083225 6.1532886030 4.8227325356 
Si 4.4269922199 8.3573078332 1.0513308724 
Si 3.0232320914 10.3690925330 3.0946632668 
Si 1.9752202759 7.9885476139 6.9277172978 
Si 8.9211714342 4.8910369853 9.4063511458 
Si 4.0989976262 5.9536401871 0.0260388553 
Si 4.6309277957 5.0284087628 7.5665793350 
Si 1.1000272066 9.1308017337 1.8067209240 
Si 8.5636394909 2.0330163488 5.9053424836 
Si 3.0358464416 3.7253270509 9.8546118564 
Si 8.5496068322 9.7179169989 0.7848457412 
Si 0.4202996174 0.8513547412 7.5281668122 
Si 6.0005195821 10.4938607051 1.6741090759 
Si 1.9280507724 0.6328256301 5.6172109556 
Si 9.3391641513 4.5611513136 4.1495194954 
Si 9.1810979629 10.2324191650 5.6330272447 
Si 5.3803534301 8.9221492076 3.6231766020 
Si 10.6043383442 1.0887881859 4.4544665754 
Si 6.3402582002 2.9386278383 3.6119160918 
Si 5.5612307475 3.4764246476 9.9718157163 
Si 10.6909303782 8.8965766749 8.1800944796 
Si 6.7429288872 4.1653572741 7.9317937830 
Si 0.4478405904 4.6813529620 5.6145032757 

