&CONTROL
   calculation      = 'scf'
   tstress          = .true.
   tprnfor          = .true.
   outdir           = './'
   disk_io          = 'none'
   pseudo_dir       = '/home/ppiaggi/pseudos'
/
&SYSTEM
   ecutwfc          = 30
   occupations      = 'smearing'
   degauss          = 0.01
   smearing         = 'fermi-dirac'
   input_dft        = 'PBE'
   ntyp             = 1
   nat              = 64
   ibrav            = 0
/
&ELECTRONS
   electron_maxstep = 100
   mixing_beta      = 0.5
/
&IONS
/
&CELL
/

ATOMIC_SPECIES
Si 28.085 Si_ONCV_PBE_sr.upf

K_POINTS gamma

CELL_PARAMETERS angstrom
10.79834385163345 0.00000000000000 0.00000000000000
0.00000000000000 10.79834385163345 0.00000000000000
0.00000000000000 0.00000000000000 10.79834385163345

ATOMIC_POSITIONS angstrom
Si 3.2408529485 2.5181305928 7.9268806496 
Si 8.9383291232 7.1833822804 6.3528060664 
Si 1.2566896608 3.6877316104 8.3261386152 
Si 3.3610709106 10.6129470860 0.8195597436 
Si 10.0707298462 10.6935675212 1.7569445364 
Si 1.6968949462 4.9658127904 5.7115680134 
Si 2.0254561546 2.6513821560 1.8405021211 
Si 10.1466853969 6.8145540478 0.8962722582 
Si 3.9631109753 5.0051403587 6.4875046076 
Si 8.7555563552 6.6570170094 2.8627705352 
Si 10.2773021641 1.4890700205 10.7322255922 
Si 3.9720628024 9.5737576671 5.6988151694 
Si 9.1854384239 0.0757707910 7.4580489546 
Si 6.9658820386 8.0034948993 7.5783533035 
Si 0.8044938943 9.4464343948 8.9412122810 
Si 7.0575923729 3.7280634247 0.8137297178 
Si 7.0955809466 1.2013589469 6.3839484901 
Si 4.6064871004 0.9551685852 6.6294056441 
Si 5.6121800566 0.0064923639 10.1272591763 
Si 6.6996380726 3.6119920267 2.9088686651 
Si 1.9573294032 5.7725462612 9.6782640389 
Si 1.4012470899 8.8606998292 4.7297825905 
Si 2.0484026353 6.4346899078 7.6297750169 
Si 7.2240380450 8.8697704381 9.9935108893 
Si 7.2245887606 4.3783180948 8.3191412884 
Si 10.3759234385 3.4362705772 1.5608682087 
Si 4.2261262365 8.9409639191 10.5154272427 
Si 10.1885073826 0.4545757215 4.0873567197 
Si 5.7865625115 10.0050111255 7.4518938986 
Si 2.5263157375 4.9307505679 1.0448704276 
Si 9.5318924880 4.3174154354 8.6581984870 
Si 0.8092008924 8.7551892115 1.4880765728 
Si 7.4368734023 1.3707525669 10.2729504315 
Si 6.8921509467 8.6354571748 1.7170122608 
Si 4.9923227245 5.3502662265 4.0278686434 
Si 6.8763313730 3.5900281953 5.9510860784 
Si 7.8623713435 6.3724050605 9.4621675818 
Si 2.2137576747 8.6372712966 7.1775187797 
Si 5.8302958041 8.2565216924 4.7557418091 
Si 5.7665315836 6.5530829498 2.1196933014 
Si 0.1329772852 7.3652155925 9.4491123841 
Si 6.6351287664 6.0173231196 6.3044834776 
Si 3.6662753012 7.1636537062 0.9073880734 
Si 1.7787571910 2.8559783769 6.0266744854 
Si 1.0898660466 6.7396351382 2.7509752813 
Si 8.9975364425 4.7753947949 0.4084754319 
Si 4.5324968483 3.2524503698 1.7000480626 
Si 5.1063208406 6.7485869652 9.0835992430 
Si 1.7600868544 0.2338132999 2.2906526812 
Si 10.1553240720 2.6596428890 5.1049926443 
Si 3.6833906762 2.5042979144 10.1933990324 
Si 7.3011274218 0.2590501093 1.5739881965 
Si 9.4562500893 9.7806647337 9.5433063375 
Si 5.1815960956 1.1229197771 1.6311654272 
Si 1.4272279052 0.7935540921 9.4015024860 
Si 8.6708541460 4.3810824708 3.9916833932 
Si 8.0196384233 9.6894619215 5.2486106175 
Si 3.4952295346 7.4967934124 3.3862526484 
Si 10.2507598349 2.1858439558 7.2055404820 
Si 7.7926788323 1.7146798185 4.0583523681 
Si 8.2130259634 2.0816507360 8.3226399518 
Si 10.3278060183 7.7196172378 4.4454945919 
Si 4.9587290768 4.4084022807 9.0799709995 
Si 1.4767815051 4.1528918685 3.5362524429 

