&CONTROL
   calculation      = 'scf'
   tstress          = .true.
   tprnfor          = .true.
   outdir           = './'
   disk_io          = 'none'
   pseudo_dir       = '/home/ppiaggi/pseudos'
/
&SYSTEM
   ecutwfc          = 30
   occupations      = 'smearing'
   degauss          = 0.01
   smearing         = 'fermi-dirac'
   input_dft        = 'PBE'
   ntyp             = 1
   nat              = 64
   ibrav            = 0
/
&ELECTRONS
   electron_maxstep = 100
   mixing_beta      = 0.5
/
&IONS
/
&CELL
/

ATOMIC_SPECIES
Si 28.085 Si_ONCV_PBE_sr.upf

K_POINTS gamma

CELL_PARAMETERS angstrom
10.69948325210614 0.00000000000000 0.00000000000000
0.00000000000000 10.69948325210614 0.00000000000000
0.00000000000000 0.00000000000000 10.69948325210614

ATOMIC_POSITIONS angstrom
Si 3.7112120613 3.6035431614 6.7053768536 
Si 7.7908715280 6.9633092963 6.3867890403 
Si 2.1401748370 2.9962725904 8.7250648097 
Si 3.1212746533 0.4327619991 0.1105652501 
Si 10.3288852507 9.2067662452 1.2533267687 
Si 9.7491016522 5.5689526389 6.4137303391 
Si 1.7629752544 2.8368288910 2.2352076472 
Si 9.9878392220 6.8958597539 1.9111096000 
Si 3.4796431453 5.6154739921 4.6484439963 
Si 8.2404424152 6.7777160598 3.6709820043 
Si 0.1765821317 1.5104032528 0.0440542663 
Si 4.5914906469 9.5596566018 5.8074013227 
Si 8.7108986938 0.8055212961 8.1881112427 
Si 6.4357177772 7.9463992165 8.3202819593 
Si 0.9063350372 8.8842196230 8.7800066562 
Si 7.4703685071 3.2523112247 0.3085859364 
Si 6.1295841624 1.8916793385 6.2666980402 
Si 4.1175142384 1.1460323506 4.9020538478 
Si 4.2985494950 10.2137267125 8.2227668689 
Si 6.8002598711 3.1443106407 2.8469292032 
Si 2.2259739932 5.2834583273 10.3509261862 
Si 2.0850190008 8.8830533794 5.2050953120 
Si 2.5061720606 5.6138155722 7.5208486691 
Si 7.0278164809 8.6080338619 10.6038191723 
Si 7.2990804798 5.0796224719 7.2341346164 
Si 9.5424946306 2.8912357634 1.3689025868 
Si 4.5942083157 9.0653083771 10.4647258901 
Si 8.8575030134 0.9488601333 4.0954947018 
Si 7.0734818754 10.1761394278 6.9967023836 
Si 1.9825286507 5.2390447723 2.3242915448 
Si 9.8895537689 3.0181851321 9.3716880800 
Si 2.3087879936 9.8663465897 2.0181686295 
Si 6.0297686831 1.1658477936 10.5792852573 
Si 7.3752715000 8.8771365651 2.4957293649 
Si 4.1702733903 3.7503293721 2.5188295493 
Si 7.6498095408 3.3895213979 5.4485513539 
Si 6.7865859315 6.1203505083 10.4231690971 
Si 3.0279537603 8.6810792340 7.2429295916 
Si 6.4743536112 9.4221147446 4.7866492215 
Si 6.3270431258 5.9460131282 2.2309920508 
Si 0.2081135088 6.6786281454 9.8831233795 
Si 5.7553269377 6.4655693354 4.9888373565 
Si 3.7960589635 7.0905154527 1.2840021872 
Si 1.7762319142 0.4346418983 5.2086689394 
Si 0.8468469802 8.5451957967 3.2194638111 
Si 9.3271140328 5.2701374707 0.2297574935 
Si 5.1801762155 4.6205932414 0.2811289224 
Si 4.0990790287 7.1163333058 8.7142797305 
Si 0.9753499140 0.4593833834 3.2355986318 
Si 10.1936009845 2.4812636636 5.0714052687 
Si 4.1106558696 2.3029781741 9.3992606483 
Si 8.4770614874 10.6541923395 1.3050694697 
Si 10.1133976580 10.1571906430 10.0150908059 
Si 5.0047902860 9.8689893621 1.6412151350 
Si 1.6654815630 0.4872651668 8.7462818850 
Si 9.2080608826 4.4444369491 4.0819277571 
Si 8.9688953335 9.5526698392 5.2713144138 
Si 3.9871945323 8.6116609867 3.2793809173 
Si 10.6735691037 1.0758865384 7.0899376806 
Si 6.4361778550 0.8892415427 3.7106342892 
Si 7.0827904258 2.3382436709 8.7865226415 
Si 10.2246615843 7.4975130961 5.2305065847 
Si 4.9591462905 4.6606093088 8.3703876393 
Si 1.4543807585 4.3131970876 4.5027491328 

