&CONTROL
   calculation      = 'scf'
   tstress          = .true.
   tprnfor          = .true.
   outdir           = './'
   disk_io          = 'none'
   pseudo_dir       = '/home/ppiaggi/pseudos'
/
&SYSTEM
   ecutwfc          = 30
   occupations      = 'smearing'
   degauss          = 0.01
   smearing         = 'fermi-dirac'
   input_dft        = 'PBE'
   ntyp             = 1
   nat              = 64
   ibrav            = 0
/
&ELECTRONS
   electron_maxstep = 100
   mixing_beta      = 0.5
/
&IONS
/
&CELL
/

ATOMIC_SPECIES
Si 28.085 Si_ONCV_PBE_sr.upf

K_POINTS gamma

CELL_PARAMETERS angstrom
86.88733902599560 0.00000000000000 0.00000000000000
0.00000000000000 86.88733902599560 0.00000000000000
0.00000000000000 0.00000000000000 86.88733902599560

ATOMIC_POSITIONS angstrom
Si 19.0921025535 32.0360569976 80.7413631000 
Si 25.3472089774 36.8695996676 18.8611560064 
Si 32.4767495811 37.1504195473 22.2758284301 
Si 12.3207984486 49.0100200004 16.4334368667 
Si 24.2194982041 85.4201594192 60.4588171145 
Si 21.5942841428 32.3187015114 84.4565788294 
Si 28.0123043273 37.4136881846 20.3580510831 
Si 22.1717373980 39.2645622805 14.6555481355 
Si 23.9445866635 38.1982808560 13.2955875051 
Si 41.6650856831 34.0572302780 37.7765297124 
Si 25.9830505244 38.9406462806 18.2929128092 
Si 24.2499087728 81.8753297616 60.3297025287 
Si 10.0928333013 48.2497557839 16.5761927647 
Si 30.3268961516 37.6287343487 22.8584949256 
Si 22.8329500480 83.7765116268 59.9837171447 
Si 23.5875665874 31.1003672436 80.6977456558 
Si 19.5091617809 42.2316780209 16.5300555877 
Si 21.2679352974 31.9181508785 79.5094744073 
Si 11.3928416678 48.1887608719 18.4255897759 
Si 23.2725130961 85.2250104558 58.1772424790 
Si 22.9501610683 33.3559625647 80.8303357352 
Si 25.1346825461 84.0966914712 56.7684511640 
Si 30.3818958372 36.0631113868 21.3145937985 
Si 23.8821146667 82.8240526164 57.9750556411 
Si 20.3106105960 39.8549617492 16.0529572091 
Si 33.5875173232 38.7279460747 25.7927672519 
Si 41.7034898870 36.4153526592 35.4530753795 
Si 10.5527279867 50.4721601415 17.3295928814 
Si 44.2879537863 36.2809379457 35.3555877851 
Si 18.1902988618 43.6768751309 15.4956618166 
Si 34.2863521910 36.5749647010 25.9844407218 
Si 40.1586329991 34.6435460418 35.9799602033 
Si 18.6467180537 41.3518568259 14.8677270174 
Si 42.9386802986 34.3310122833 35.6079955050 
Si 23.7240665970 40.7856120375 15.7876901630 
Si 26.3838618193 82.7916436390 58.4966403372 
Si 25.4975240739 38.7357659352 15.1011064101 
Si 20.9649591462 41.7499746134 14.8433116752 
Si 26.0047723591 83.4943015497 60.8339966444 
Si 22.7319869600 31.6779942735 82.6302069631 
Si 20.1110303783 32.8813839190 82.7980733021 
Si 40.5233860483 36.8310216891 37.3277566063 
Si 25.6886762197 37.0526712909 16.6933168977 
Si 15.1336891622 46.0184020304 15.6332913616 
Si 20.6645896152 34.0618353070 80.7027851215 
Si 25.8057134654 36.8405792964 14.0071079244 
Si 44.5378417734 34.2317000548 37.2777094990 
Si 21.3980056439 30.2288003459 81.3645190955 
Si 40.5874220172 37.1614542394 39.7064712868 
Si 23.2657358837 36.8020882052 15.2304816579 
Si 10.4475943065 50.0564911116 15.0559249938 
Si 34.4617777285 37.9354466554 23.9220828427 
Si 24.0517187525 38.5124654739 16.9677940017 
Si 42.4516767633 37.7926038701 38.2609266274 
Si 12.8120594634 46.7679791041 16.7790747013 
Si 14.5031477429 48.0874502346 16.5808846810 
Si 22.2340356201 40.0955527910 17.7993058362 
Si 21.8624184710 34.4445740354 82.9556000477 
Si 26.2406714846 85.1833045330 58.6572081398 
Si 32.5408724373 36.6999086945 24.7311777437 
Si 41.2555856543 35.0901469644 39.8950168125 
Si 23.9878565583 83.5903989467 62.0973385538 
Si 44.6666956971 36.9389357642 37.5932843144 
Si 43.5031873402 35.0729432712 39.1679435595 

