&CONTROL
   calculation      = 'scf'
   tstress          = .true.
   tprnfor          = .true.
   outdir           = './'
   disk_io          = 'none'
   pseudo_dir       = '/home/ppiaggi/pseudos'
/
&SYSTEM
   ecutwfc          = 30
   occupations      = 'smearing'
   degauss          = 0.01
   smearing         = 'fermi-dirac'
   input_dft        = 'PBE'
   ntyp             = 1
   nat              = 64
   ibrav            = 0
/
&ELECTRONS
   electron_maxstep = 100
   mixing_beta      = 0.5
/
&IONS
/
&CELL
/

ATOMIC_SPECIES
Si 28.085 Si_ONCV_PBE_sr.upf

K_POINTS gamma

CELL_PARAMETERS angstrom
11.22809254888968 0.00000000000000 0.00000000000000
0.00000000000000 11.22809254888968 0.00000000000000
0.00000000000000 0.00000000000000 11.22809254888968

ATOMIC_POSITIONS angstrom
Si 10.2417158466 3.8268595553 6.7267053337 
Si 7.8188282116 5.8709899443 1.2610046180 
Si 8.5269615525 9.2701714545 4.3001797967 
Si 7.8963918750 5.8916047223 4.2210554286 
Si 10.0178613654 1.6354390483 6.2657135379 
Si 2.2891273684 5.8904931411 10.3845147276 
Si 10.9174336842 2.8552814790 0.5810290876 
Si 2.3777394748 9.7002073991 0.6776816311 
Si 6.2069681577 10.1108299717 2.3348144770 
Si 4.5554055685 0.1828652065 10.8890378382 
Si 10.4955605629 1.7188637759 9.5877917365 
Si 11.2134062038 6.3274006784 10.8212313873 
Si 7.0968394045 3.3655870573 6.7775012244 
Si 10.7190108327 2.7379815961 3.5363438887 
Si 7.0962443156 2.2200184588 10.3136766917 
Si 8.5600619693 5.6306750795 6.9754861803 
Si 4.2421866987 2.0462075861 1.1994185304 
Si 8.4222034490 2.4038672462 8.4605922974 
Si 8.2677385798 9.6300205926 6.6964793085 
Si 3.4532335477 1.7048848007 9.4911403159 
Si 5.6304392896 2.2150444138 8.5533026576 
Si 9.8641150941 7.8486275692 6.8720193074 
Si 4.1307478802 10.0703302419 6.0609131298 
Si 2.9571202784 4.3721743262 0.9438985826 
Si 0.9459555692 6.8952726871 1.6532804874 
Si 1.7999418322 1.9580558315 2.3319400853 
Si 10.3854242031 10.6201250216 10.9338042432 
Si 8.3656587749 0.1766190186 3.4888153730 
Si 6.0019656439 7.3379290078 0.5542871396 
Si 8.4452884073 2.5425454172 4.5123682897 
Si 4.0138297525 5.0930964645 6.3796449930 
Si 4.4224088122 2.6950341421 3.7139386286 
Si 1.7397368000 8.1020231619 7.2688762386 
Si 4.8817051660 4.1083590636 10.3955968549 
Si 9.9136309823 8.3937626906 0.7362249056 
Si 3.1144819955 4.2360561602 8.7229029956 
Si 3.7310390135 7.5580445341 11.0584922109 
Si 10.5363859074 8.3542847172 3.2608514100 
Si 5.6247017343 10.2234814243 7.8258794537 
Si 1.5717420793 5.2042994931 5.0883806656 
Si 2.9165082677 0.8423517136 4.7417582205 
Si 9.5075333310 4.9590442675 10.9652204461 
Si 1.8174127442 9.0672461379 2.8601432431 
Si 2.6869386874 7.4060049329 4.4791219077 
Si 1.1095668425 4.8306734854 7.4397341229 
Si 3.9312920441 7.8718809489 8.5356970085 
Si 5.9374265679 5.8230909015 7.5342522060 
Si 1.0008878891 2.3418657191 5.6619677734 
Si 9.0164390191 4.1544503836 2.1507860401 
Si 7.1000057266 7.7255339906 3.1617410370 
Si 10.6223032716 5.2286419977 3.9285187053 
Si 0.1164734952 10.9326252935 4.9234287579 
Si 4.5293339376 4.8387127997 4.0943014918 
Si 1.5701701463 4.2626105991 2.9483399100 
Si 6.5621239531 3.3092557169 2.0764111551 
Si 1.0262532730 3.3503842199 9.6336135822 
Si 3.3629933679 6.6327486552 2.1827187353 
Si 0.4350380599 6.5805267968 8.5767469149 
Si 7.7679649524 8.4955902619 0.7317695985 
Si 0.7173134293 7.8570823229 5.2402181611 
Si 10.0662207600 0.8305711989 1.6052242513 
Si 1.4477727094 11.0693273202 10.3003489459 
Si 7.1385629965 5.2252511138 9.4822027542 
Si 5.2742841939 8.5627342554 4.3887806750 

