&CONTROL
   calculation      = 'scf'
   tstress          = .true.
   tprnfor          = .true.
   outdir           = './'
   disk_io          = 'none'
   pseudo_dir       = '/home/ppiaggi/pseudos'
/
&SYSTEM
   ecutwfc          = 30
   occupations      = 'smearing'
   degauss          = 0.01
   smearing         = 'fermi-dirac'
   input_dft        = 'PBE'
   ntyp             = 1
   nat              = 64
   ibrav            = 0
/
&ELECTRONS
   electron_maxstep = 100
   mixing_beta      = 0.5
/
&IONS
/
&CELL
/

ATOMIC_SPECIES
Si 28.085 Si_ONCV_PBE_sr.upf

K_POINTS gamma

CELL_PARAMETERS angstrom
19.79529871904893 0.00000000000000 0.00000000000000
0.00000000000000 19.79529871904893 0.00000000000000
0.00000000000000 0.00000000000000 19.79529871904893

ATOMIC_POSITIONS angstrom
Si 4.6314466554 5.4124899617 15.7139238245 
Si 10.1140911557 12.0668775791 3.8905284196 
Si 10.4983574945 9.7930707964 4.3729002588 
Si 18.6564157978 12.3315011323 3.9410658173 
Si 2.8427236678 0.3641127451 13.0259993926 
Si 4.5029355761 7.8314556698 17.1357805408 
Si 9.4577780267 9.1163289191 7.8328413407 
Si 4.4434704988 11.8900659709 18.9981816302 
Si 5.4836738559 9.6619269424 18.9150413756 
Si 12.1212750599 6.8245084146 13.5263057724 
Si 3.1722164150 8.3595150585 1.3402446588 
Si 5.3933281125 17.4393414467 12.0989657583 
Si 17.2186238660 10.8526933415 5.8269243356 
Si 5.5598461653 10.7454424131 5.9346899419 
Si 4.3637746261 18.5061298900 13.7764391670 
Si 5.1550125112 4.4017815997 19.1084216488 
Si 1.4295749034 9.6746355242 4.4607122039 
Si 7.8972354475 5.1012880705 15.5769799479 
Si 2.3948748296 12.9945842535 2.7092439686 
Si 5.8604773670 1.9302811482 12.6920527032 
Si 6.3108006175 3.5712104560 15.1432847483 
Si 6.1619795618 18.9175751738 10.3704402741 
Si 6.4076986048 8.6736664491 5.2165560949 
Si 4.3854504782 19.5922187495 11.4564499525 
Si 3.0182485816 10.0568431518 0.0101150413 
Si 9.6620259189 10.9859354972 6.0744249555 
Si 10.2740173741 6.7179701169 8.6889484197 
Si 16.8505500816 10.9006969409 3.0294329254 
Si 8.5693254296 7.3302980922 10.7725619723 
Si 0.8392929523 13.4809943336 4.7166654164 
Si 6.9576317985 6.5075460915 8.6588595657 
Si 10.1120720352 9.0967909592 12.1238484488 
Si 4.1331198054 13.2466377921 0.8892028389 
Si 10.2551920450 6.3255085245 12.1364184635 
Si 7.3331684105 10.7828357323 4.6890707700 
Si 7.2483653508 18.2439213631 12.9591308735 
Si 8.4481782014 11.4121480739 2.4535678903 
Si 2.8184942222 11.8764666007 5.6753121428 
Si 6.8367617045 0.5542089782 14.1918831012 
Si 3.9871492727 3.3791168772 16.6666319612 
Si 7.0761858425 4.0421802031 17.5759685985 
Si 9.2920319905 7.2660029619 13.6435335314 
Si 6.3075739838 5.8432950477 6.2858783364 
Si 2.5011953790 12.3874624418 0.1887325350 
Si 3.2913841133 5.2658859793 17.9834746179 
Si 6.4640954108 10.9765525256 1.1011788157 
Si 10.0813299363 10.2588541753 9.9144357728 
Si 4.2000873010 1.6902750284 14.5905604174 
Si 12.2754012558 9.8140142224 10.8901856373 
Si 4.3473445282 7.2650527876 19.3957504097 
Si 18.4539494825 9.9493546798 4.2419741531 
Si 8.5884278928 6.2418337968 7.0968323391 
Si 7.3934450951 9.4347362990 2.8124566561 
Si 11.7825181130 8.4105671339 8.9890847389 
Si 1.8471369345 10.8118952309 2.4739174574 
Si 0.3853412235 11.4829360621 5.6404328264 
Si 3.6340605294 9.1537024431 5.4150039646 
Si 6.1549522307 5.9825747695 18.0331212271 
Si 7.5203329599 0.4521463976 11.9707911991 
Si 5.4837332417 7.9184758030 7.2624596034 
Si 14.0363712345 7.7937258305 12.0979364027 
Si 6.3440369241 17.7156046356 14.9978090980 
Si 12.2420857680 6.5484035881 10.8972921495 
Si 12.3382711245 9.4919447123 13.7096498292 

