&CONTROL
   calculation      = 'scf'
   tstress          = .true.
   tprnfor          = .true.
   outdir           = './'
   disk_io          = 'none'
   pseudo_dir       = '/home/ppiaggi/pseudos'
/
&SYSTEM
   ecutwfc          = 30
   occupations      = 'smearing'
   degauss          = 0.01
   smearing         = 'fermi-dirac'
   input_dft        = 'PBE'
   ntyp             = 1
   nat              = 64
   ibrav            = 0
/
&ELECTRONS
   electron_maxstep = 100
   mixing_beta      = 0.5
/
&IONS
/
&CELL
/

ATOMIC_SPECIES
Si 28.085 Si_ONCV_PBE_sr.upf

K_POINTS gamma

CELL_PARAMETERS angstrom
16.61295617147192 0.00000000000000 0.00000000000000
0.00000000000000 16.61295617147192 0.00000000000000
0.00000000000000 0.00000000000000 16.61295617147192

ATOMIC_POSITIONS angstrom
Si 2.2677515822 2.2338943775 12.4599829359 
Si 8.5892638257 8.9804823306 4.3750884596 
Si 11.0260190110 9.6729269568 5.1118564528 
Si 14.0077123847 9.5749105153 2.1514276631 
Si 5.3710517950 1.8389711834 11.7048742390 
Si 4.3103311564 7.0284599804 13.6091675661 
Si 11.1091004048 8.7943507696 8.8266463564 
Si 6.1858840693 9.8054817340 14.0227969489 
Si 4.6888739757 8.4957328824 15.5563555460 
Si 10.4811472745 6.5288419365 12.0904775647 
Si 0.9667461294 8.2343280171 0.2061850603 
Si 3.5328614206 14.9934919780 9.8669995107 
Si 12.2103566565 8.3084550275 3.6640871614 
Si 0.7280013363 11.0198556043 3.4900332195 
Si 2.7609570250 16.2406265978 12.1714657261 
Si 2.5544745928 4.3069919522 16.1876312676 
Si 16.2876911026 7.8157645863 5.3050817461 
Si 6.0652573946 5.4658785488 13.7524377001 
Si 1.4388564405 10.4574571990 1.3549211407 
Si 7.6885425680 1.8556838173 10.6357308317 
Si 4.4746332930 3.9492153281 12.1669470020 
Si 4.5169631053 0.2587451311 8.6891907571 
Si 4.1865147941 6.6064742807 3.8599539146 
Si 3.4064368241 1.2732269288 10.7130475297 
Si 3.6742044517 10.2575867233 14.2830056814 
Si 9.6503001104 8.8050661264 6.7625031651 
Si 11.0697276987 4.5634959955 8.1519775933 
Si 13.9954520230 7.4319056210 2.8918671196 
Si 5.0879670219 7.4513427798 9.5813895682 
Si 15.8104507107 8.1958025717 1.8841584242 
Si 3.6682237874 6.2506912113 8.1877951268 
Si 8.9974275459 8.2069997042 11.7040435912 
Si 3.6773110745 10.1629759379 0.5198625923 
Si 8.6352152625 4.0118129470 11.2281986876 
Si 7.1570276482 10.8724986830 3.6692039519 
Si 5.9724241955 14.9492018368 9.3722490630 
Si 7.5119634568 9.2365212111 2.1893882679 
Si 1.7785332488 8.8646734131 3.2142415341 
Si 6.9677894645 16.1971837174 11.0193406026 
Si 2.8507998920 2.1272558118 14.7427526305 
Si 4.6095471100 3.9566247066 14.5639307702 
Si 7.6051455280 7.1046303845 13.0038578950 
Si 5.5455708996 7.1035007034 7.4295299683 
Si 4.9003901337 11.3893775884 12.6457490118 
Si 1.6328741717 3.5963561390 13.9526902738 
Si 7.0607223413 8.8754053828 16.3368156140 
Si 7.4534526252 6.5529805618 10.8264641815 
Si 5.3094343406 16.4095637491 13.0159687401 
Si 11.9481211433 7.3499206823 10.5746782177 
Si 2.9980239096 6.7024141026 16.1910369236 
Si 13.7695490450 7.4130997547 5.2674534003 
Si 7.6617957085 7.7681684669 8.0024277619 
Si 5.9245456558 8.7804955642 3.8032705082 
Si 13.0083267803 5.8207146797 9.2294773177 
Si 4.0106998789 8.1399664260 2.0199028891 
Si 15.7006058444 9.6712988870 4.0159994119 
Si 2.3785599999 7.4901506454 5.2227479353 
Si 5.2145577479 6.1943234511 11.6528756862 
Si 6.8159802710 0.5308886113 9.0221974635 
Si 3.9429190177 5.6747034079 5.8094843213 
Si 10.8309496796 4.5648582579 10.4626072154 
Si 4.5015795079 14.2490654119 11.7369206315 
Si 12.6195836058 3.4074336015 9.0552904722 
Si 8.3142861751 9.3284739235 9.9220216216 

