&CONTROL
   calculation      = 'scf'
   tstress          = .true.
   tprnfor          = .true.
   outdir           = './'
   disk_io          = 'none'
   pseudo_dir       = '/home/ppiaggi/pseudos'
/
&SYSTEM
   ecutwfc          = 30
   occupations      = 'smearing'
   degauss          = 0.01
   smearing         = 'fermi-dirac'
   input_dft        = 'PBE'
   ntyp             = 1
   nat              = 64
   ibrav            = 0
/
&ELECTRONS
   electron_maxstep = 100
   mixing_beta      = 0.5
/
&IONS
/
&CELL
/

ATOMIC_SPECIES
Si 28.085 Si_ONCV_PBE_sr.upf

K_POINTS gamma

CELL_PARAMETERS angstrom
22.78867204205257 0.00000000000000 0.00000000000000
0.00000000000000 22.78867204205257 0.00000000000000
0.00000000000000 0.00000000000000 22.78867204205257

ATOMIC_POSITIONS angstrom
Si 5.0153081543 5.7624347672 17.5934245333 
Si 9.9770629294 11.9942250239 5.4211516147 
Si 10.3717171518 9.5833658312 5.0138041020 
Si 21.3407481865 15.0892913059 4.4545700901 
Si 5.0559859339 1.3921804849 16.1414215054 
Si 6.1155452405 8.6388665297 21.8677818048 
Si 11.2560315704 11.1140125662 7.0493794435 
Si 5.1009479839 13.0079107336 1.0519045917 
Si 6.2916333094 11.0152920390 22.6780102506 
Si 14.1116572753 8.5816441742 13.0786011943 
Si 3.6545737580 10.1490262486 3.3244798435 
Si 6.1519843271 20.0147665151 14.6142614372 
Si 21.8715191470 13.2025943589 6.0613765671 
Si 6.5192237771 11.8878702914 9.5931649602 
Si 5.1128208820 21.5727368679 15.9379642414 
Si 6.9059931190 4.0146575650 20.2729849580 
Si 3.8518552919 11.6937791717 5.4490905267 
Si 7.2132299955 7.3283583666 17.5156923729 
Si 1.8434577207 13.9329257205 3.5382375873 
Si 5.1756036735 1.2998407857 13.8700973517 
Si 7.3927591538 5.0431103342 18.0941372354 
Si 7.5081609890 21.7479361786 13.2579936206 
Si 6.8513914608 10.2371500434 5.3973830298 
Si 5.1914190119 21.9353730061 13.4905975962 
Si 4.1120335606 10.5757669213 0.9438019681 
Si 8.5988040443 11.8014100697 7.3703351005 
Si 10.5907618675 6.5175146267 9.6621234818 
Si 19.6569387867 13.6528073638 3.9996626188 
Si 9.8763825763 9.3899811602 10.9795366125 
Si 2.7355294033 14.8774250219 5.4106232483 
Si 9.0718740872 8.1010082922 9.0307633228 
Si 11.2203672987 9.5853484457 13.0487480339 
Si 4.7206962022 12.9053617094 3.7173337608 
Si 11.5890196463 7.6706214320 11.7461475400 
Si 7.3129076470 12.6133020886 5.6268421686 
Si 8.2468785819 21.7542714294 15.5284290162 
Si 9.8658542098 10.7362219611 3.2676448954 
Si 5.1160796621 13.7752736873 6.1542404057 
Si 6.8729495445 0.3013870244 17.0839154037 
Si 4.5148917050 3.9822520733 19.5122535079 
Si 7.3791543166 6.4366148409 19.7603082031 
Si 8.9738372201 9.4706530593 13.2737861704 
Si 8.6157588163 8.0621308177 5.5907449121 
Si 3.2937379249 14.0070572706 1.7969073003 
Si 4.7370812574 6.3407201090 19.6584200504 
Si 8.1270785330 11.7094805667 1.5511633765 
Si 11.9177690292 9.5027850868 10.1205404086 
Si 5.6470329320 3.6350894434 17.5957717665 
Si 13.1827682142 10.9394741271 12.9472472887 
Si 5.7571477953 9.0324724732 1.3474691103 
Si 21.8362878601 12.8923721664 3.9726808311 
Si 10.5175874416 8.5561664389 7.0823318632 
Si 7.6417937619 9.7961664507 2.9936566915 
Si 13.9581299918 11.4117693551 10.2955118325 
Si 1.9372581737 11.7349583020 3.6201172859 
Si 1.4284349832 13.0120354833 5.6281867002 
Si 5.5503405965 11.8321975656 7.6541452221 
Si 5.7134846997 5.7445684484 21.5546882396 
Si 7.4907504436 0.9147669210 14.5114617376 
Si 7.5816316677 10.0315278556 8.4168592867 
Si 15.2381697004 10.6323284053 12.0972298215 
Si 6.9124195245 20.6312228825 17.0293821116 
Si 14.2105373233 9.1202772266 10.9671167863 
Si 12.3585703125 7.4035381957 13.9637132164 

