&CONTROL
   calculation      = 'scf'
   tstress          = .true.
   tprnfor          = .true.
   outdir           = './'
   disk_io          = 'none'
   pseudo_dir       = '/home/ppiaggi/pseudos'
/
&SYSTEM
   ecutwfc          = 30
   occupations      = 'smearing'
   degauss          = 0.01
   smearing         = 'fermi-dirac'
   input_dft        = 'PBE'
   ntyp             = 1
   nat              = 64
   ibrav            = 0
/
&ELECTRONS
   electron_maxstep = 100
   mixing_beta      = 0.5
/
&IONS
/
&CELL
/

ATOMIC_SPECIES
Si 28.085 Si_ONCV_PBE_sr.upf

K_POINTS gamma

CELL_PARAMETERS angstrom
41.60862690649385 0.00000000000000 0.00000000000000
0.00000000000000 41.60862690649385 0.00000000000000
0.00000000000000 0.00000000000000 41.60862690649385

ATOMIC_POSITIONS angstrom
Si 8.7769237597 14.2196650280 37.1548810910 
Si 14.7929070809 18.6586397809 8.1583283034 
Si 15.9297379853 18.1987396277 10.0824360375 
Si 3.2800663111 25.3042032359 8.1206724961 
Si 11.5901662421 0.4105856086 30.0041889054 
Si 10.1959443717 16.4652826222 41.1710289773 
Si 14.0182376652 19.9485072150 10.1974422822 
Si 9.1550213524 17.7548587959 5.2442265094 
Si 10.5576897740 15.6749683627 4.1700165886 
Si 19.5770670026 15.8853831890 20.7694038153 
Si 11.3603617957 18.4551735954 9.9469167396 
Si 11.8313714522 38.3763439425 28.9570245921 
Si 3.1676231578 23.1951867639 8.0897156777 
Si 14.1003314861 19.0967786223 12.6638352508 
Si 9.8105652693 39.8121744398 28.6226576662 
Si 11.8252549841 13.6267420946 39.0130391514 
Si 8.6894624259 20.8795002421 9.1865606916 
Si 9.9501622125 14.7430599459 35.3499820731 
Si 4.3770611161 24.4044166791 9.7251843669 
Si 10.7993526791 0.1268996547 27.4306537226 
Si 12.1057803467 15.0809636050 36.8237596381 
Si 12.2513689322 40.2273453191 26.1826029586 
Si 13.6589055632 17.3391886131 10.4535433809 
Si 10.4880369326 38.9449674378 26.7440697700 
Si 8.1986054543 18.9080002820 7.1373774250 
Si 15.9529139905 18.5808316486 13.9407207933 
Si 20.0097135052 16.5004419119 16.2980991593 
Si 0.8516953059 24.4568019404 8.1886609925 
Si 22.6456200197 16.6818139166 16.5125916310 
Si 9.7345046993 22.5631101126 7.1152000269 
Si 18.1136499857 17.9693096590 14.6938369403 
Si 19.4274423803 15.9778375580 18.5098889397 
Si 9.7133259082 20.0463707055 6.2363842180 
Si 21.6757645352 14.8191205159 17.3651107877 
Si 11.5609153773 19.7216569811 7.3725493843 
Si 13.7004309729 39.3638414849 27.7006937112 
Si 13.1850249114 18.7547973177 5.7400349076 
Si 11.9169187892 22.1428629808 8.0156523218 
Si 13.1023485697 40.0039902098 29.7804593185 
Si 9.5177653617 13.1660097689 39.1637455981 
Si 9.0915265877 15.4745396069 39.5805392138 
Si 19.6605339082 18.0869788559 17.9067718927 
Si 14.0061711634 16.5482918329 6.5345100298 
Si 7.9019359444 23.6936165056 8.3971618219 
Si 9.9095105841 16.4921617952 37.2007754065 
Si 12.5756249617 16.7247540196 4.7408453411 
Si 23.4075988043 16.0129968477 18.5364352437 
Si 10.9117791890 13.0251645668 36.7910968660 
Si 18.8168773891 18.0605573778 20.1582563033 
Si 10.2057223990 15.9273662935 6.3494348573 
Si 2.1333200710 24.3009360240 6.0649566751 
Si 16.8751692058 17.3727251664 12.3516873317 
Si 11.9266135992 17.3190916463 7.7154460786 
Si 21.0296657766 19.1594828230 19.3468464700 
Si 5.6320189122 22.8264511123 8.2655537350 
Si 5.8873710555 25.1192528893 7.9884818884 
Si 11.2765620211 20.9386261009 10.1582053471 
Si 11.2816798822 15.7537334935 39.2861581785 
Si 13.2573407049 41.5961443184 27.5985029236 
Si 14.2596509185 17.0483027024 12.8669685673 
Si 21.4499961256 17.5254704358 21.0255465225 
Si 10.9305862883 39.9689141374 30.6638104678 
Si 22.6716254116 18.3119983102 18.2151334267 
Si 21.8533917634 15.1884386883 20.0097967225 

