&CONTROL
   calculation      = 'scf'
   tstress          = .true.
   tprnfor          = .true.
   outdir           = './'
   disk_io          = 'none'
   pseudo_dir       = '/home/ppiaggi/pseudos'
/
&SYSTEM
   ecutwfc          = 30
   occupations      = 'smearing'
   degauss          = 0.01
   smearing         = 'fermi-dirac'
   input_dft        = 'PBE'
   ntyp             = 1
   nat              = 64
   ibrav            = 0
/
&ELECTRONS
   electron_maxstep = 100
   mixing_beta      = 0.5
/
&IONS
/
&CELL
/

ATOMIC_SPECIES
Si 28.085 Si_ONCV_PBE_sr.upf

K_POINTS gamma

CELL_PARAMETERS angstrom
11.17652260650261 0.00000000000000 0.00000000000000
0.00000000000000 11.17652260650261 0.00000000000000
0.00000000000000 0.00000000000000 11.17652260650261

ATOMIC_POSITIONS angstrom
Si 9.1330519192 4.0873660824 6.6709198716 
Si 6.7762027146 5.4586583471 1.5580296044 
Si 8.8923766814 9.2949550257 4.6838012113 
Si 8.8516941391 5.5120597721 4.8261901093 
Si 9.8131768494 0.1474976865 6.8919244296 
Si 2.3050013163 6.0977319097 9.4816700124 
Si 10.3955630894 2.9815385827 0.2582939080 
Si 2.8496891455 10.5825798421 1.1074011541 
Si 6.0540205298 10.9692539948 2.3304279052 
Si 5.0402316938 11.0094447701 0.0141889307 
Si 10.3593846857 1.4512267544 9.1507778841 
Si 11.1146270243 6.1694740084 10.7531894597 
Si 6.8842126290 3.2942576852 5.8763473500 
Si 10.8052273490 2.6947490126 4.4657360787 
Si 6.3841638311 1.6315599466 10.7386264508 
Si 8.9430845645 6.4448523489 7.0036449496 
Si 3.8034488787 1.9160583296 0.7659997416 
Si 8.3070286629 2.1510000113 7.8545471452 
Si 7.8783419618 10.1467401666 7.1104366231 
Si 2.9775597406 1.9608538322 9.5450408955 
Si 5.9602495052 2.9243371400 8.1915304783 
Si 9.6560796476 8.6688350528 7.1400879376 
Si 3.4581837423 9.8633259063 6.1210684889 
Si 2.5534665903 4.0520035649 0.6716911262 
Si 1.5584096062 7.3472224311 1.6971437813 
Si 2.3038166049 1.2001126444 2.3415150156 
Si 10.5570750176 10.8091726615 0.2401544119 
Si 8.5807528781 0.0519535065 3.3153589599 
Si 4.9292823538 5.6787687833 10.5115306879 
Si 8.2493801593 2.1026503745 4.1705976463 
Si 3.7895452845 5.9817307816 6.3208153010 
Si 5.1156508683 1.5349500852 3.2022078450 
Si 2.5337176749 8.3870972709 7.5206485323 
Si 4.2481180071 3.7783911150 10.2942143824 
Si 10.2234111117 8.6719868321 11.0454667024 
Si 3.2478862929 4.5840060410 7.9979754598 
Si 3.4626878809 8.0393062404 10.7611471438 
Si 10.1979956993 7.7075535199 2.5290235354 
Si 5.8746596950 8.8837036999 6.9217545685 
Si 1.2691612011 6.4839031188 5.6045119671 
Si 2.8275819838 1.5949233055 4.8243012770 
Si 8.9925071474 4.8300460096 10.2065122095 
Si 1.6053398246 9.4506886917 3.5667636594 
Si 3.2549163256 7.3114575587 4.2075360535 
Si 0.3226147956 4.1649982084 7.4391940356 
Si 4.7557556639 6.8736284621 8.5939858809 
Si 6.5542257991 5.5207439302 7.1547850648 
Si 0.4006571001 1.9073518185 6.4752189608 
Si 9.0266178944 4.2049207472 2.6451587818 
Si 7.2525908142 7.4768142107 3.8440643618 
Si 11.0925645687 5.9161804765 3.6169797755 
Si 11.0408172690 10.9901317390 4.4402647837 
Si 4.7468479753 4.5216745744 3.3739462914 
Si 2.4592596813 3.4728696930 3.3826639790 
Si 5.7104430484 3.2472715842 1.8122619641 
Si 1.0718441651 3.2865905907 9.8280192714 
Si 3.5883902307 5.9394052905 1.9087265307 
Si 0.7393627353 7.6396226155 8.8000027221 
Si 8.3889749267 8.8431329228 1.6859784352 
Si 0.1919411286 8.6895339726 5.3574996410 
Si 10.4119143419 1.1820066778 1.9993569526 
Si 1.4029777063 11.1236911841 10.4038448926 
Si 6.8518565961 4.4286635533 9.7223564267 
Si 5.6284520785 9.4086314371 4.8736791539 

