&CONTROL
   calculation      = 'scf'
   tstress          = .true.
   tprnfor          = .true.
   outdir           = './'
   disk_io          = 'none'
   pseudo_dir       = '/home/ppiaggi/pseudos'
/
&SYSTEM
   ecutwfc          = 30
   occupations      = 'smearing'
   degauss          = 0.01
   smearing         = 'fermi-dirac'
   input_dft        = 'PBE'
   ntyp             = 1
   nat              = 64
   ibrav            = 0
/
&ELECTRONS
   electron_maxstep = 100
   mixing_beta      = 0.5
/
&IONS
/
&CELL
/

ATOMIC_SPECIES
Si 28.085 Si_ONCV_PBE_sr.upf

K_POINTS gamma

CELL_PARAMETERS angstrom
12.30795675579805 0.00000000000000 0.00000000000000
0.00000000000000 12.30795675579805 0.00000000000000
0.00000000000000 0.00000000000000 12.30795675579805

ATOMIC_POSITIONS angstrom
Si 0.8453572402 1.5847971278 1.4744932193 
Si 5.8353992252 4.8550089298 1.7741919663 
Si 8.7309322077 1.7859337571 5.2524820853 
Si 7.9330812190 4.6135145103 0.2608720666 
Si 8.0154583736 0.8629846959 9.0907553235 
Si 0.6248700413 6.6991347065 9.7570342545 
Si 8.2881411555 7.0309326047 5.7554713541 
Si 5.1896007343 9.6123665308 7.2393924683 
Si 3.7116366711 8.9397613100 0.6328468281 
Si 5.6526014515 3.4609112840 4.4895241540 
Si 1.8489628036 3.2592454126 2.7513575771 
Si 3.1890408273 1.9665530225 0.2648549214 
Si 9.3823062031 3.8843173044 4.1839791275 
Si 2.0957496446 3.5059460978 10.7050792395 
Si 2.3948699176 11.9672971287 1.6151116253 
Si 10.4967670714 6.4542679068 9.6729955258 
Si 0.9441962870 2.2194815338 4.8261467713 
Si 5.8552765754 7.4600495170 6.4416891750 
Si 3.3129081040 9.3355605834 2.7563176836 
Si 6.3644075146 11.3387297772 9.0718256860 
Si 9.9935316436 2.6556755212 9.3620103824 
Si 1.4476372577 1.1111229505 10.9712264964 
Si 2.6852884652 5.5515531265 2.9605559180 
Si 3.9653898155 4.4031222976 7.5409127929 
Si 1.3508844096 9.6406871393 0.9447501450 
Si 7.4025467430 5.1832867524 3.4352122703 
Si 12.0990907297 5.4716129474 7.6538998359 
Si 9.5702487028 1.9423063477 2.7836413476 
Si 0.6759468311 5.4005344971 4.4059531276 
Si 7.2275399059 2.4435971184 10.8248233508 
Si 1.4507757867 7.1993916088 6.8547318958 
Si 6.2998030495 4.3095572103 6.5369527603 
Si 2.0515763878 7.9464476600 11.2520817616 
Si 5.7121227304 2.2678887277 8.8331374806 
Si 6.0895339163 6.1467536073 11.0510189801 
Si 2.9074347767 12.2052714726 6.4642127359 
Si 7.6639800525 2.2676302606 1.2046141900 
Si 11.3583486603 7.6401764641 4.2754149383 
Si 5.2265492204 11.8017428024 6.7147658116 
Si 2.6416813744 2.2877291540 8.5933415592 
Si 5.9273027383 6.0242155898 8.3911587535 
Si 8.0305356206 6.4465631259 9.8228448993 
Si 3.5278419529 6.4581941450 5.9292104716 
Si 4.3222097898 7.4190763290 10.4251716870 
Si 3.1416428858 5.7790903231 9.4227009172 
Si 4.9456693393 3.7747272574 11.1059986229 
Si 6.9225487375 2.0013353083 6.8007615054 
Si 4.0672012338 12.2263796184 9.0566868992 
Si 7.5269309540 4.1463906276 8.7386616046 
Si 11.2399830401 7.7771886387 6.7411294549 
Si 10.4433751550 5.8695045734 5.6159606642 
Si 1.3737279774 4.1073005569 6.2593714116 
Si 4.0927648600 6.8426331743 1.6829038511 
Si 9.7493417815 6.2649961478 12.0180428344 
Si 1.4115503285 5.2851843264 11.9716418374 
Si 11.6075970925 3.5940341443 2.6925009279 
Si 0.0187201561 5.9885963630 2.3144866520 
Si 3.6274625549 8.7898750126 8.9716758419 
Si 4.6543400029 1.4899889369 5.9376660379 
Si 1.8411841750 7.6840666379 3.9903503518 
Si 9.3774568682 4.3801679582 10.6477118531 
Si 3.2921322730 10.5619500104 11.3328711898 
Si 0.0164074910 2.6509738818 10.4085313295 
Si 7.9453030201 8.3037845685 7.7330523058 

