&CONTROL
   calculation      = 'scf'
   tstress          = .true.
   tprnfor          = .true.
   outdir           = './'
   disk_io          = 'none'
   pseudo_dir       = '/home/ppiaggi/pseudos'
/
&SYSTEM
   ecutwfc          = 30
   occupations      = 'smearing'
   degauss          = 0.01
   smearing         = 'fermi-dirac'
   input_dft        = 'PBE'
   ntyp             = 1
   nat              = 64
   ibrav            = 0
/
&ELECTRONS
   electron_maxstep = 100
   mixing_beta      = 0.5
/
&IONS
/
&CELL
/

ATOMIC_SPECIES
Si 28.085 Si_ONCV_PBE_sr.upf

K_POINTS gamma

CELL_PARAMETERS angstrom
11.24205991236858 0.00000000000000 0.00000000000000
0.00000000000000 11.24205991236858 0.00000000000000
0.00000000000000 0.00000000000000 11.24205991236858

ATOMIC_POSITIONS angstrom
Si 10.3395248585 3.8456838548 7.6668937452 
Si 5.0227949800 5.7679524372 3.5468699024 
Si 9.8778359420 10.2227198560 5.6361505268 
Si 9.5038013667 6.6875192118 3.8222666440 
Si 6.6116802757 10.8795372064 0.0904523774 
Si 3.4635100281 5.1590037779 8.5903952408 
Si 8.4256653369 2.0426260758 9.5282416049 
Si 4.1593710526 9.5828442899 10.6790013417 
Si 6.1962299516 8.1576209025 0.1711277602 
Si 5.1879071139 10.4956321024 1.6681867863 
Si 10.7585276735 1.6050963460 10.1879931329 
Si 0.5441168240 4.4254930948 9.5799663226 
Si 7.9611996317 3.4615314256 4.7457568976 
Si 0.5963238260 3.0180658882 6.1917106435 
Si 5.3585728255 1.8495999071 0.4003275051 
Si 0.2608000511 8.6349137981 7.6671298285 
Si 1.3931273064 0.8785793484 0.0694884089 
Si 5.2408459741 0.6987603517 7.4697192564 
Si 7.4560151854 0.5132955925 7.7400683132 
Si 2.9250266004 0.8531779140 7.4875716476 
Si 7.0472426449 9.2744970706 9.2259088877 
Si 10.4620520695 10.6117513393 8.8134377095 
Si 3.3542034796 10.5449622613 2.7927637655 
Si 3.5937717763 3.4482208266 0.9676715490 
Si 1.7605065823 7.7133234527 9.1671016723 
Si 3.2732494061 2.6805342814 5.6892692599 
Si 9.6140297641 0.5429487739 1.6836446187 
Si 6.2223227727 10.9796365078 4.0201606247 
Si 4.4502705949 6.2708322612 0.6100818589 
Si 8.3994488532 0.8636386508 4.7698598740 
Si 3.0642145441 6.0558278654 5.0637498043 
Si 5.5938354133 2.2168217941 5.2184068225 
Si 3.7093401522 8.2370797819 6.2838505666 
Si 3.4938973160 2.0280900923 9.9647258231 
Si 7.9315880459 7.0667138927 1.9214479120 
Si 2.1877947954 3.0474751169 8.1583628784 
Si 4.0653199793 8.7821735409 8.4974009212 
Si 10.5261880213 8.6454588503 2.5176143491 
Si 7.9737682546 7.1527943454 7.6264560557 
Si 2.3110527403 10.2543999808 5.3553800805 
Si 5.5987257093 10.2685874604 6.0809201431 
Si 8.2562924623 5.2654660853 8.7046258116 
Si 2.4690711344 1.8423038102 2.8277715401 
Si 4.6530211454 8.3522322016 2.6101814705 
Si 1.3258885461 5.8804067625 7.2799195589 
Si 5.5674165725 5.8196771548 9.5939514451 
Si 6.5513104139 4.1434972640 7.1185847571 
Si 10.4269993267 1.3410203587 6.8859190852 
Si 7.0237354976 5.7855012927 5.3263081135 
Si 10.1186970756 7.8089821404 5.6440986631 
Si 1.0222955939 6.4578551699 3.4645330556 
Si 0.0533743775 1.3913060927 4.0952351008 
Si 3.4946055658 4.0531111023 3.1573325264 
Si 10.7222720303 4.1237224806 4.1387081464 
Si 7.3695525026 2.6978807798 0.3170890451 
Si 0.4529336002 3.3846357358 0.5656554866 
Si 2.3488260616 5.3863407135 11.1290209999 
Si 0.8993602962 10.9779951671 7.1939065585 
Si 8.5878770194 9.8424234533 2.6626256799 
Si 0.6710779034 10.3651679971 3.5790221937 
Si 9.2882573520 3.2785331743 1.4193775163 
Si 1.2621010981 9.9801386872 10.4327440193 
Si 6.0072621665 2.5798841190 8.6001983171 
Si 7.6330214187 8.6815908308 4.5906951652 

