&CONTROL
   calculation      = 'scf'
   tstress          = .true.
   tprnfor          = .true.
   outdir           = './'
   disk_io          = 'none'
   pseudo_dir       = '/home/ppiaggi/pseudos'
/
&SYSTEM
   ecutwfc          = 30
   occupations      = 'smearing'
   degauss          = 0.01
   smearing         = 'fermi-dirac'
   input_dft        = 'PBE'
   ntyp             = 1
   nat              = 64
   ibrav            = 0
/
&ELECTRONS
   electron_maxstep = 100
   mixing_beta      = 0.5
/
&IONS
/
&CELL
/

ATOMIC_SPECIES
Si 28.085 Si_ONCV_PBE_sr.upf

K_POINTS gamma

CELL_PARAMETERS angstrom
10.85572962419817 0.00000000000000 0.00000000000000
0.00000000000000 10.85572962419817 0.00000000000000
0.00000000000000 0.00000000000000 10.85572962419817

ATOMIC_POSITIONS angstrom
Si 4.2081258873 2.7969244590 4.1421990412 
Si 4.7335214896 6.6868471995 7.8448495900 
Si 1.0393004149 3.3551912107 10.1798627535 
Si 4.9119136945 0.9179007905 9.1806905432 
Si 1.4007147934 10.4816303256 1.7445591735 
Si 8.5142898687 8.0710504282 6.4157362079 
Si 2.6975402543 4.7541907988 2.2561897107 
Si 1.6499406341 9.3756160243 3.9643170556 
Si 6.7757990481 5.7722736902 0.6572134705 
Si 10.4624808186 0.4442870185 5.9489832570 
Si 10.5262690858 1.7305769938 0.3035989337 
Si 2.9627457290 8.4214299575 7.9492925647 
Si 0.8346525423 4.1326677106 6.9328271771 
Si 3.9424753276 8.0333701907 9.9953153499 
Si 10.6310594439 10.1125138069 0.1824848150 
Si 7.8045965446 1.3148568278 1.2325812530 
Si 3.9304580349 1.8650794838 7.2302416016 
Si 3.5508983043 0.8166114053 2.8580313611 
Si 2.0403018157 0.0889294857 7.7946852634 
Si 5.5506431141 0.5801985822 0.6843810194 
Si 0.8617755828 6.0172657963 1.4223719740 
Si 2.3728562370 6.3412984699 5.8043306597 
Si 3.2136759193 4.2281221412 5.8964632371 
Si 8.1073085651 7.3832856778 10.3988119643 
Si 10.0095037885 5.2332650029 5.5233518099 
Si 9.3925183953 2.8884274040 1.9896055583 
Si 4.4383433454 5.7625143892 0.0904208459 
Si 6.9734058944 0.9357562946 4.1827451914 
Si 8.1297582140 4.1242110973 6.5820459857 
Si 2.5079015135 7.1684725000 2.5727753537 
Si 10.3156353639 3.2827509269 8.5713910066 
Si 4.7148713461 7.5816741367 5.4738713942 
Si 7.8201962280 0.6718003144 8.3741641108 
Si 0.0217014720 8.6104390660 7.2891013676 
Si 3.2515189928 3.3655041538 0.0222851846 
Si 6.8819680838 3.2822949863 4.7578708912 
Si 8.4832424820 4.2351349426 10.6231130498 
Si 3.1390210667 10.3177739427 10.0022847283 
Si 8.1442506130 8.8672096388 4.2500724265 
Si 5.7264190882 2.3550854076 2.1898720584 
Si 9.5394832630 5.3148023881 1.3478799573 
Si 5.2760474333 6.0709365236 2.6756768149 
Si 6.3561056851 8.7646012824 0.6868626392 
Si 0.9320458062 1.4746423122 3.3435213013 
Si 1.5382460320 6.5454078983 8.2065625011 
Si 8.2199041928 6.0212607048 7.9532766175 
Si 4.3065547878 8.1890413535 3.3460832535 
Si 5.5613034406 5.1538336292 4.9857109445 
Si 10.1330419917 8.3960709731 2.3785012164 
Si 0.0196876256 10.7713480378 8.7339012790 
Si 1.8107139899 5.5726368224 10.4284481062 
Si 7.1043368494 9.2112168549 9.5855984024 
Si 0.0528928057 2.8446353907 5.1269331312 
Si 6.2041146146 9.3847239815 2.8697555491 
Si 2.8102987179 0.6827374620 5.7102331954 
Si 10.7741271046 6.5396869288 3.9509536525 
Si 6.3590584435 9.3582251455 7.3068179184 
Si 7.4659629147 6.5811015373 4.2450679352 
Si 9.2678620521 1.4436383483 4.2313245815 
Si 5.0881998879 10.0006129460 5.5397873845 
Si 4.6998470163 3.4353282068 9.1024315883 
Si 0.0172623470 7.8077338504 9.8560363388 
Si 6.5155437861 4.7739590825 8.2247567039 
Si 8.4935337137 4.7668594353 3.3707583270 

