&CONTROL
   calculation      = 'scf'
   tstress          = .true.
   tprnfor          = .true.
   outdir           = './'
   disk_io          = 'none'
   pseudo_dir       = '/home/ppiaggi/pseudos'
/
&SYSTEM
   ecutwfc          = 30
   occupations      = 'smearing'
   degauss          = 0.01
   smearing         = 'fermi-dirac'
   input_dft        = 'PBE'
   ntyp             = 1
   nat              = 64
   ibrav            = 0
/
&ELECTRONS
   electron_maxstep = 100
   mixing_beta      = 0.5
/
&IONS
/
&CELL
/

ATOMIC_SPECIES
Si 28.085 Si_ONCV_PBE_sr.upf

K_POINTS gamma

CELL_PARAMETERS angstrom
10.84927649090504 0.00000000000000 0.00000000000000
0.00000000000000 10.84927649090504 0.00000000000000
0.00000000000000 0.00000000000000 10.84927649090504

ATOMIC_POSITIONS angstrom
Si 4.2697327630 2.4725609616 3.5911647649 
Si 4.2235799408 4.7325954459 10.0358736846 
Si 0.3669236159 2.8139334463 9.0766023558 
Si 7.0606331953 1.0606209300 9.8247793119 
Si 0.7481086056 1.7814728984 0.3252211669 
Si 7.5385112769 7.7498443337 4.6628888445 
Si 4.2535022454 4.9556999677 2.1171495130 
Si 0.4429998275 8.6628109504 4.9857307650 
Si 8.0309924847 4.8748294607 0.2583733498 
Si 0.4335631268 1.1571187349 6.9421482468 
Si 9.8769643318 0.2214087798 10.3611458430 
Si 2.6484385827 10.0114194153 8.7242938003 
Si 0.9948385119 4.2828169904 7.3713998712 
Si 3.5729054325 7.1689415226 10.3686209945 
Si 9.8787327639 8.8338172465 0.7262006616 
Si 8.1895763592 1.5299758200 0.7805164795 
Si 4.6128411320 1.9385161756 7.6283541356 
Si 3.3092463153 2.7532751415 0.9333383032 
Si 2.9001526466 1.3497801868 9.0162261321 
Si 4.7736925053 9.8097096668 1.7707863610 
Si 0.9878689367 6.8591729802 3.7169404272 
Si 3.7425989661 6.9318414341 6.7818501866 
Si 2.3896507906 4.4755869351 4.7773812593 
Si 7.4265467436 7.7073911148 9.3475413376 
Si 9.6962913304 4.1144253700 5.7853007438 
Si 9.8953755540 3.6218682173 1.2476776457 
Si 5.8892151141 6.2317918685 0.6674876320 
Si 6.3706951555 0.5191801923 4.5591589119 
Si 7.2449190058 3.4456868164 6.8170669381 
Si 3.4563516552 7.3513938053 2.2861595422 
Si 9.1786289519 1.1896557151 8.0682380509 
Si 4.5436878437 8.5531247651 8.2120235122 
Si 7.6079032494 0.2651465531 6.6258375907 
Si 0.6679433017 9.6878939904 7.6661964120 
Si 1.3486410128 4.3373346048 10.3930210174 
Si 8.1944476843 2.8912670892 4.5381547127 
Si 7.2535984270 5.3709126283 8.7360978131 
Si 2.7995798535 0.2947444643 0.3858252254 
Si 9.6223752097 9.2916784129 2.8822187926 
Si 6.3632742503 2.5911761014 2.6221399365 
Si 1.9937715407 4.6147397554 2.1850659838 
Si 5.5607315698 7.3698158768 3.6374803262 
Si 5.9932596756 8.8842555329 0.2228669226 
Si 0.1791888204 2.1511294470 2.7126012039 
Si 1.4910052189 7.0852827515 7.7950641181 
Si 9.7682654306 6.3461757906 7.7569180620 
Si 3.6131779469 8.2335267782 4.7049840373 
Si 4.5467039425 4.3305863548 5.2999800586 
Si 1.6052155525 9.2116216017 2.3597067875 
Si 9.7039617689 8.5544809247 8.9993229593 
Si 1.3037684052 6.7384530807 10.1369455443 
Si 6.0284872764 9.9601565839 8.5289851249 
Si 0.7758719042 2.5194189867 5.1858782177 
Si 7.1320322839 9.6250115838 2.0678937977 
Si 2.5006171906 0.4782404474 2.8050912860 
Si 10.3606793241 6.4545492135 5.5927586340 
Si 5.8655202942 9.3986739777 6.0169653447 
Si 7.4874871296 5.3687536222 4.9320593942 
Si 9.2031700153 0.4928207901 3.9187261207 
Si 4.1814955973 10.8094921940 4.5015167059 
Si 5.0888748366 2.3674531709 10.1555086564 
Si 10.4651361582 6.6063088930 1.0285602331 
Si 4.9798613064 4.2967257629 7.5257742263 
Si 7.5338460880 4.6671092130 2.8339178136 

