&CONTROL
   calculation      = 'scf'
   tstress          = .true.
   tprnfor          = .true.
   outdir           = './'
   disk_io          = 'none'
   pseudo_dir       = '/home/ppiaggi/pseudos'
/
&SYSTEM
   ecutwfc          = 30
   occupations      = 'smearing'
   degauss          = 0.01
   smearing         = 'fermi-dirac'
   input_dft        = 'PBE'
   ntyp             = 1
   nat              = 64
   ibrav            = 0
/
&ELECTRONS
   electron_maxstep = 100
   mixing_beta      = 0.5
/
&IONS
/
&CELL
/

ATOMIC_SPECIES
Si 28.085 Si_ONCV_PBE_sr.upf

K_POINTS gamma

CELL_PARAMETERS angstrom
10.86988964815571 0.00000000000000 0.00000000000000
0.00000000000000 10.86988964815571 0.00000000000000
0.00000000000000 0.00000000000000 10.86988964815571

ATOMIC_POSITIONS angstrom
Si 4.0447402875 2.8588570667 4.3804133498 
Si 4.2779863796 6.4172241419 8.1320796726 
Si 0.9444347100 3.1815623506 9.8489135232 
Si 5.6204612307 0.6848856590 9.0514440691 
Si 1.6011347452 10.8198990257 1.7659657518 
Si 8.3757608587 8.1342645204 6.3022859288 
Si 3.3049573379 4.8200351667 2.2684698803 
Si 1.4923054100 9.1585450918 4.4954167822 
Si 7.4072428212 5.8401090908 0.8336835784 
Si 0.2627034930 0.6006287964 6.7390272249 
Si 10.2826438599 1.5024796267 10.8575740632 
Si 3.0374058741 9.1797631164 7.8458211287 
Si 1.0412452082 4.2194737636 6.9062169976 
Si 4.0753716366 7.8143419283 10.1170954406 
Si 10.4796388700 9.9115566972 0.0717147491 
Si 7.6921534987 1.6378641023 1.3381703748 
Si 3.7469161811 2.0748336662 7.2874566373 
Si 3.3953622101 1.0706884783 2.5320755742 
Si 2.1819455587 0.2908793340 7.6981536778 
Si 5.0305414496 0.1646255657 0.7838418734 
Si 0.6144900797 6.0425499156 2.2283817273 
Si 2.1426617776 6.1574229094 5.6120479361 
Si 3.3739485274 4.0120545294 6.0504523254 
Si 8.2583769204 7.6504131225 10.1562922626 
Si 9.7906726544 4.7605877402 4.9788768641 
Si 9.6436573969 2.9242503228 2.0990083007 
Si 4.6306925589 5.9415795107 0.3241422833 
Si 6.9658926918 0.4905385540 4.1157532766 
Si 8.1928749654 3.7467205230 6.9351091643 
Si 2.5620221202 7.3753723047 3.0769287928 
Si 9.7265946550 3.0053505695 8.6464428507 
Si 4.3859461236 7.8324294247 6.2402732083 
Si 7.9316606473 0.1643168608 8.0277396019 
Si 0.4056566727 8.7059337568 7.3556978045 
Si 3.1409307031 4.1426671234 10.6894494800 
Si 7.1730293089 2.9493923776 4.7853276090 
Si 8.3929135446 4.4027618429 9.8221953344 
Si 3.2304768540 10.8181381035 10.0248209473 
Si 8.3123785322 9.0368784170 3.8760939496 
Si 5.7464106421 2.0222234003 2.6644599602 
Si 9.6361354333 5.1884157269 0.9368812237 
Si 5.6041563962 6.3920820872 2.2793723797 
Si 6.2438494020 8.8658841830 0.5925948609 
Si 0.9317191131 1.6539950185 3.4804190966 
Si 1.5539811639 6.7139177799 7.9845317905 
Si 8.8071759090 6.3078404424 7.5886395396 
Si 4.6114854639 8.1739722273 3.6996865105 
Si 5.3290286193 4.9954643157 4.8258396878 
Si 10.1641294531 8.5769951258 2.7690826481 
Si 9.8775339426 10.7037107752 8.6708674928 
Si 1.5565899374 5.9969289888 10.2395012679 
Si 7.0103722802 9.2709506207 9.4540430419 
Si 10.7632016813 2.5446194269 5.4589455404 
Si 6.3019054826 9.7238771826 2.8375194733 
Si 2.5905012311 0.2517433833 4.5455269735 
Si 0.5758128383 7.1611159099 4.4714486756 
Si 6.3365369511 9.2326559995 6.7767240022 
Si 7.4236020051 6.6354263067 4.3687173485 
Si 9.2619394822 1.3742801482 3.8647131752 
Si 4.5018300171 10.1464658824 5.5455785609 
Si 4.9231686797 2.9677951007 9.1689367063 
Si 10.5352927050 7.1900080766 10.3057641152 
Si 6.6288174138 4.4410673340 8.7933602792 
Si 8.4497195879 4.8816348313 3.2769130226 

