&CONTROL
   calculation      = 'scf'
   tstress          = .true.
   tprnfor          = .true.
   outdir           = './'
   disk_io          = 'none'
   pseudo_dir       = '/home/ppiaggi/pseudos'
/
&SYSTEM
   ecutwfc          = 30
   occupations      = 'smearing'
   degauss          = 0.01
   smearing         = 'fermi-dirac'
   input_dft        = 'PBE'
   ntyp             = 1
   nat              = 64
   ibrav            = 0
/
&ELECTRONS
   electron_maxstep = 100
   mixing_beta      = 0.5
/
&IONS
/
&CELL
/

ATOMIC_SPECIES
Si 28.085 Si_ONCV_PBE_sr.upf

K_POINTS gamma

CELL_PARAMETERS angstrom
10.91881377905753 0.00000000000000 0.00000000000000
0.00000000000000 10.91881377905753 0.00000000000000
0.00000000000000 0.00000000000000 10.91881377905753

ATOMIC_POSITIONS angstrom
Si 4.1365270873 3.9388092074 4.5622843930 
Si 5.6312035055 8.5581989965 6.8348716989 
Si 0.7189187206 2.5077785547 10.0184920701 
Si 4.3317773153 1.0284943883 10.2190706792 
Si 1.4208543183 0.5718466665 0.1833847531 
Si 7.9259341658 8.4933630802 6.0987143551 
Si 2.9580595161 3.7399120956 2.5906414325 
Si 2.2471792262 7.7615950996 5.0677053640 
Si 5.2539257330 5.5872771177 1.5519892717 
Si 10.4848346066 9.2147145126 3.8535987847 
Si 9.6818650413 1.3662274929 0.5550742767 
Si 3.8191062519 9.2101504484 8.8488359816 
Si 0.3005425330 3.3037928356 7.6299251242 
Si 5.6103922465 7.2478321548 9.4880888531 
Si 0.0100501130 8.1449437326 10.3747838825 
Si 7.3043042597 1.5811643422 0.8406820562 
Si 2.6456394975 3.0883318833 7.5072631702 
Si 4.1162071749 0.1384789476 3.6602265926 
Si 2.7125499883 0.3251426205 8.0159597854 
Si 4.7056593367 1.6528463546 2.0830366987 
Si 0.2733241140 5.9421058091 9.8280897954 
Si 2.5599595658 5.4532268409 6.3929108736 
Si 1.9069053136 3.1853892190 5.0619620680 
Si 7.6342271369 7.2808069725 1.3347594716 
Si 8.8067876298 6.8895858748 7.2625834723 
Si 0.1510017352 3.0755022771 1.6056443227 
Si 4.6828936100 5.2829479400 10.1437527018 
Si 7.8856437429 1.1258170511 4.3279448117 
Si 8.4150970231 2.6783413447 7.3789671083 
Si 2.6025647771 6.2012092601 2.4929944808 
Si 9.1882363891 3.6465562378 9.8496107774 
Si 4.1299539614 9.1017484652 4.7734105762 
Si 6.3815116320 2.0127304568 9.6725731308 
Si 10.3648914372 9.9512321772 6.1438418125 
Si 3.0790836481 2.5753223367 0.3432580244 
Si 6.9560050190 3.8728158969 5.2755122279 
Si 7.9948318807 5.0471343189 0.4882555039 
Si 3.3586052808 10.1709842233 0.2149062766 
Si 8.0851741459 9.1533289415 3.8146295383 
Si 6.5350956666 3.5631474193 1.9281314876 
Si 10.2672990797 5.2760800062 1.3976845954 
Si 7.0023663023 5.9122756098 3.0786250579 
Si 5.8528117500 8.7105601239 0.3142489200 
Si 0.2585520509 10.2460073928 1.8155694364 
Si 1.7926836027 7.4755767726 7.7071538941 
Si 8.9328890101 5.7012149395 9.0369125490 
Si 3.7803117066 8.0757730473 1.3233820676 
Si 5.1167308379 5.8077498055 5.6803818428 
Si 0.1468296564 7.3901370548 2.1399455561 
Si 8.0733490706 10.9186827533 6.5631242616 
Si 2.3690004316 5.0279062878 9.1707116930 
Si 9.3342427670 8.9765424276 1.2420369050 
Si 0.8119830461 1.1547628265 6.8805669346 
Si 7.3506327866 10.5144136731 2.0843906316 
Si 2.2109178457 10.0301315256 5.6434544146 
Si 9.0523954269 5.8309195284 3.9798748660 
Si 8.0074321918 9.1135735405 8.3402157982 
Si 6.1148632807 7.7600773845 4.5361556716 
Si 10.1605349185 2.0187467232 3.4401251445 
Si 5.1475000551 1.9043612300 5.1699163798 
Si 5.6212127909 3.9001129314 8.5786936099 
Si 0.2221803903 9.3742056254 8.4821822149 
Si 7.1681138954 5.2063852178 7.3884446387 
Si 10.4816790694 4.4158085062 5.4476145706 

