&CONTROL
   calculation      = 'scf'
   tstress          = .true.
   tprnfor          = .true.
   outdir           = './'
   disk_io          = 'none'
   pseudo_dir       = '/home/ppiaggi/pseudos'
/
&SYSTEM
   ecutwfc          = 30
   occupations      = 'smearing'
   degauss          = 0.01
   smearing         = 'fermi-dirac'
   input_dft        = 'PBE'
   ntyp             = 1
   nat              = 64
   ibrav            = 0
/
&ELECTRONS
   electron_maxstep = 100
   mixing_beta      = 0.5
/
&IONS
/
&CELL
/

ATOMIC_SPECIES
Si 28.085 Si_ONCV_PBE_sr.upf

K_POINTS gamma

CELL_PARAMETERS angstrom
10.89520359668356 0.00000000000000 0.00000000000000
0.00000000000000 10.89520359668356 0.00000000000000
0.00000000000000 0.00000000000000 10.89520359668356

ATOMIC_POSITIONS angstrom
Si 4.0818989227 2.8495097583 4.1110544875 
Si 4.1675134326 5.9664096032 8.7227326851 
Si 0.9018428511 3.0395221090 9.6585870933 
Si 6.1224289187 0.7548937926 9.1239485576 
Si 1.2832043940 0.0579538759 1.3562131533 
Si 8.2928188464 8.0267797650 5.7812891989 
Si 3.8142473511 4.9625691246 2.3928155091 
Si 1.1256161692 9.2254046935 4.9842614750 
Si 7.4950829342 5.9341271150 0.8813086609 
Si 0.2941824818 0.5413521601 7.3258913176 
Si 9.9528774376 1.3161950705 10.5921535086 
Si 3.0100505833 9.3539354103 8.0730952755 
Si 0.9823791065 4.2733603355 7.0696797098 
Si 4.1904914169 8.0725287249 10.1921905846 
Si 10.5835136122 9.6226982926 0.1438373884 
Si 7.7971306636 1.7655895332 1.0066111289 
Si 4.0336658564 2.2872083006 7.2572515349 
Si 3.5556279034 1.6197572331 1.9177628419 
Si 2.4504729265 0.8337837828 8.1823414819 
Si 4.7515181358 10.7559302091 0.9604993587 
Si 0.6917146859 6.1784084748 2.6767663052 
Si 2.6238047206 6.1053670299 5.8954273518 
Si 3.3591111161 3.9630758323 6.3181721465 
Si 8.0997994195 7.5155114410 10.0301135359 
Si 9.9899973963 4.8239712397 5.2706527967 
Si 9.9347151332 2.7931052892 1.8521301354 
Si 4.9868436382 5.8754019676 0.3641384051 
Si 7.1817804596 0.3377131783 4.5627914191 
Si 8.1176675534 3.6601673819 7.1025505391 
Si 2.9078971543 7.4532671428 3.1986247671 
Si 9.8051275816 2.4020764322 8.4756185723 
Si 4.0726924757 7.7956489159 6.6521646128 
Si 7.4923482381 0.3527115156 7.3138085368 
Si 0.5085292698 9.1035854220 7.2231931285 
Si 3.2398631127 4.2543591004 10.4144527380 
Si 7.3981483078 2.7607138490 4.8216505613 
Si 8.4134614358 4.7966242786 9.7541707144 
Si 3.2319205093 10.8792965994 10.0462057516 
Si 8.2445095136 9.2127880477 3.7816053212 
Si 5.8271580060 1.9321771962 2.7880281244 
Si 10.1238667629 5.0241488154 0.8207269708 
Si 6.0643465883 6.5297896860 2.6462161544 
Si 5.9215431548 8.7604082992 0.5424035473 
Si 0.6635800017 1.6994992282 3.2947531485 
Si 1.5630259080 6.6169948956 7.8216121860 
Si 9.2164052553 6.2904874342 7.7549226448 
Si 5.0396962709 8.2984625619 4.1023274294 
Si 5.2224088352 5.0436512298 4.6730181938 
Si 10.6425111397 8.9307765978 2.6351248371 
Si 9.8625344094 10.4724914875 8.9476750586 
Si 1.5663925259 5.9451421658 10.0232931385 
Si 6.6440585813 9.5135610382 9.1272171186 
Si 0.0124187889 2.4696702753 5.7405193470 
Si 6.1960260190 9.6962953929 2.7064884207 
Si 2.5883190424 0.2227480795 3.9260866161 
Si 10.7661281197 7.0643628505 5.0154217573 
Si 6.3451377754 9.2589183397 6.2200499429 
Si 7.1323816065 6.5498041750 4.6512822627 
Si 9.3308266835 1.1290154727 3.6224808726 
Si 4.3044116658 10.3754152235 5.4633235771 
Si 4.7653768347 2.6319434376 9.5102924771 
Si 10.2934723972 7.2688004507 10.7030231004 
Si 5.9945954949 4.6870730065 8.4611715324 
Si 8.0826394738 4.8163554924 3.0514414617 

