&CONTROL
   calculation      = 'scf'
   tstress          = .true.
   tprnfor          = .true.
   outdir           = './'
   disk_io          = 'none'
   pseudo_dir       = '/home/ppiaggi/pseudos'
/
&SYSTEM
   ecutwfc          = 30
   occupations      = 'smearing'
   degauss          = 0.01
   smearing         = 'fermi-dirac'
   input_dft        = 'PBE'
   ntyp             = 1
   nat              = 64
   ibrav            = 0
/
&ELECTRONS
   electron_maxstep = 100
   mixing_beta      = 0.5
/
&IONS
/
&CELL
/

ATOMIC_SPECIES
Si 28.085 Si_ONCV_PBE_sr.upf

K_POINTS gamma

CELL_PARAMETERS angstrom
11.47968672771233 0.00000000000000 0.00000000000000
0.00000000000000 11.47968672771233 0.00000000000000
0.00000000000000 0.00000000000000 11.47968672771233

ATOMIC_POSITIONS angstrom
Si 2.4899784903 3.2959902548 3.6370173084 
Si 3.4554316238 5.8701722473 11.2833037269 
Si 5.5704146674 2.3548970166 8.6882631436 
Si 7.9342773194 2.9573968948 2.5921247428 
Si 4.1223669836 0.6201097177 1.1160608835 
Si 10.2523245415 8.8176047740 5.3387316299 
Si 3.6370632272 4.1359359733 1.9208385817 
Si 0.1506433371 10.1018373282 1.8263148412 
Si 9.0705252320 4.4440852042 1.1295472195 
Si 9.6739664445 11.1653958645 7.2996113589 
Si 7.9274009870 10.6522309084 11.3884461776 
Si 2.1441644073 11.4647516553 8.7629499855 
Si 0.3575692822 5.5624822039 7.3017924994 
Si 7.3352902253 6.8045613485 11.2545471116 
Si 10.9159537516 8.4133820449 3.0451131811 
Si 9.9364380018 0.2107326093 0.7941773555 
Si 7.1743679767 2.9885412849 6.9295521776 
Si 4.2336281074 1.8499055974 3.0311424023 
Si 2.7396387173 2.0849062644 7.6895074389 
Si 4.7580431565 9.8592256289 5.3430824312 
Si 1.8516964286 8.5944396640 2.0650234470 
Si 1.7566101834 7.0341665627 9.3652432293 
Si 1.5839901341 3.4687251010 6.1202801820 
Si 5.8290634891 9.5125850085 10.2023419855 
Si 10.5203178282 3.7997418678 6.3990069758 
Si 11.4285102843 4.4538199785 1.1235146441 
Si 5.3406602173 6.3726036963 2.7842946986 
Si 9.5587563085 1.3278094450 5.9240234577 
Si 9.3484943664 6.2316101839 4.4440163260 
Si 3.2433673709 6.7153527029 2.0887404798 
Si 9.3014850492 9.7885451977 9.5269001778 
Si 2.7680394622 11.4259273548 6.0597248345 
Si 8.2007438077 1.1409040736 8.3452041855 
Si 0.8421463744 10.3587527172 6.8938733112 
Si 3.7267081009 6.4126792827 9.0006483789 
Si 8.1435979271 4.9619797912 5.8407268508 
Si 8.2870710519 4.7607753219 10.3827682218 
Si 1.8334322470 2.3565845305 9.9728400885 
Si 8.1327037044 8.5571077228 3.6930496594 
Si 5.8913178302 3.5758535376 2.0324670555 
Si 2.1233861743 3.9396333303 0.1337039113 
Si 6.4099241578 8.3636520420 5.2886457567 
Si 4.1617537888 7.4984510127 4.7058565006 
Si 0.2291827618 2.0305269884 0.2418069733 
Si 0.2996611505 8.0554454128 7.0075336895 
Si 9.2173389455 6.6082127867 9.5115288773 
Si 3.0796785178 9.2423417032 3.7033124993 
Si 2.7270455009 5.0064406179 7.4223980882 
Si 3.8919581913 11.3710429725 10.4868545414 
Si 11.0316689938 8.1744897641 9.7686623803 
Si 2.5027898207 9.4193469929 9.9329826161 
Si 6.7015311601 0.3483786450 9.8261870905 
Si 9.1395755476 3.1985391942 4.5146278791 
Si 9.1925428222 9.7208035664 1.8049626239 
Si 4.5560351091 9.8749068810 0.7580415976 
Si 9.4295753938 6.6668854656 6.6112434240 
Si 7.7217309196 9.8505584654 7.7625412059 
Si 5.6521959557 4.4813367876 7.8539424716 
Si 8.0352756032 10.2932611044 5.4851779935 
Si 4.8180015602 10.6633662045 2.9903780348 
Si 3.5182025508 2.2222377568 5.3425428859 
Si 10.1235568955 6.4631784246 1.7938847262 
Si 6.0005011307 5.2728956265 9.8908292065 
Si 10.2805071724 2.3074629510 2.0810146506 

