&CONTROL
   calculation      = 'scf'
   tstress          = .true.
   tprnfor          = .true.
   outdir           = './'
   disk_io          = 'none'
   pseudo_dir       = '/home/ppiaggi/pseudos'
/
&SYSTEM
   ecutwfc          = 30
   occupations      = 'smearing'
   degauss          = 0.01
   smearing         = 'fermi-dirac'
   input_dft        = 'PBE'
   ntyp             = 1
   nat              = 64
   ibrav            = 0
/
&ELECTRONS
   electron_maxstep = 100
   mixing_beta      = 0.5
/
&IONS
/
&CELL
/

ATOMIC_SPECIES
Si 28.085 Si_ONCV_PBE_sr.upf

K_POINTS gamma

CELL_PARAMETERS angstrom
11.59496770021373 0.00000000000000 0.00000000000000
0.00000000000000 11.59496770021373 0.00000000000000
0.00000000000000 0.00000000000000 11.59496770021373

ATOMIC_POSITIONS angstrom
Si 3.7471225217 3.3275470205 4.7733235431 
Si 4.0728483544 4.9356299009 10.8841498003 
Si 3.5188060128 3.4016156742 7.9447675135 
Si 7.8397055111 2.9134791290 1.9956678657 
Si 3.9256386445 2.3666720472 1.0684055443 
Si 10.3307451819 8.1809222206 6.0131502493 
Si 3.2850630589 4.8573638690 1.6034912732 
Si 11.2269318304 8.1715302968 3.6073451861 
Si 8.4272225245 4.8630222132 0.8299724260 
Si 10.9768631621 11.4731509696 7.1511383543 
Si 8.6162436880 10.7519091937 10.8686821134 
Si 2.1617889680 11.2310596389 9.2998018188 
Si 0.9647546495 5.5744546464 8.2869234153 
Si 6.4162377065 7.6759265924 9.6980773643 
Si 9.2935753211 7.9460429599 2.2910612629 
Si 9.7865933478 0.6704952402 1.3535965293 
Si 5.8394924181 1.7344912183 8.3351584810 
Si 4.8510678015 3.6299321832 2.7503611234 
Si 1.8561572144 1.8075858947 8.8614540649 
Si 4.4869742208 9.3011700250 4.7018985420 
Si 1.7512111617 8.2613333216 2.4645103847 
Si 2.6552939832 6.9684828281 6.8613453265 
Si 1.6106337733 4.0635028104 6.3588774012 
Si 6.4199249062 10.2911599622 9.8427709663 
Si 11.0635239506 4.2923294980 6.0088601113 
Si 10.8271257492 4.4513196951 0.3579714378 
Si 5.7384654645 5.4948204082 2.2247960224 
Si 7.2408486194 1.4318509663 6.1869124353 
Si 8.8691763134 4.4762140907 6.3565931926 
Si 3.6302916272 7.0362322244 2.4065239512 
Si 9.7093592679 0.1255294393 9.1216915200 
Si 2.7425924950 10.2909628477 5.8228072596 
Si 7.5710269196 11.4321743537 8.2904482855 
Si 1.0557334041 9.9382555253 7.5689514204 
Si 4.2363953738 6.6246108710 8.9649855315 
Si 8.6819059901 3.3001017320 4.3164006509 
Si 7.8382909251 6.0722961796 10.7045901305 
Si 2.5467766805 1.2569640685 11.1151099619 
Si 9.2640545334 9.4897853646 3.9755433854 
Si 6.9403070566 1.8212911465 3.8582602871 
Si 1.4768858209 3.4745132361 11.5311721879 
Si 6.9080498564 9.1179231554 5.0617599596 
Si 6.0343342553 8.0908409166 3.5668091790 
Si 11.5432077644 2.5767728620 1.5064993684 
Si 0.2029409222 7.7796435785 7.9776856268 
Si 9.3000221232 7.3260600370 9.5198395208 
Si 4.5050739653 9.3741487517 2.3760755660 
Si 4.1136046658 4.9908451371 6.5039768270 
Si 2.3896300833 10.3827949919 11.3420930496 
Si 10.2496847627 9.6164487917 8.8203962843 
Si 4.2323835150 9.5208134981 9.4754307946 
Si 7.4612457654 0.9898739875 10.5035217956 
Si 10.7041147368 2.3390064543 4.2451843593 
Si 9.4147195437 10.1339669851 1.4495101021 
Si 3.1063498217 0.0541315705 1.4565482475 
Si 10.2727471535 5.9957462028 7.5148840860 
Si 6.7646432959 9.4391617356 7.4440852132 
Si 5.8365357013 4.0654623600 7.9882254524 
Si 9.5771070663 0.2790595661 5.0683574962 
Si 3.3992966807 11.0026387752 3.7994042311 
Si 2.6508647056 1.8346485493 6.5273638769 
Si 10.7902421569 6.3755045849 1.9220166309 
Si 6.0904770889 5.4242766247 9.6764063697 
Si 10.1996292872 4.2425754916 2.4378303640 

