&CONTROL
   calculation      = 'scf'
   tstress          = .true.
   tprnfor          = .true.
   outdir           = './'
   disk_io          = 'none'
   pseudo_dir       = '/home/ppiaggi/pseudos'
/
&SYSTEM
   ecutwfc          = 30
   occupations      = 'smearing'
   degauss          = 0.01
   smearing         = 'fermi-dirac'
   input_dft        = 'PBE'
   ntyp             = 1
   nat              = 64
   ibrav            = 0
/
&ELECTRONS
   electron_maxstep = 100
   mixing_beta      = 0.5
/
&IONS
/
&CELL
/

ATOMIC_SPECIES
Si 28.085 Si_ONCV_PBE_sr.upf

K_POINTS gamma

CELL_PARAMETERS angstrom
11.59079741998706 0.00000000000000 0.00000000000000
0.00000000000000 11.59079741998706 0.00000000000000
0.00000000000000 0.00000000000000 11.59079741998706

ATOMIC_POSITIONS angstrom
Si 3.6571979467 3.0158211715 4.9542545412 
Si 4.3173518138 5.0309508478 10.7885983305 
Si 3.2490396064 3.4869754958 8.1364152465 
Si 7.8964973307 2.6971669688 2.1315940087 
Si 3.9011378692 2.4625344567 1.1169877612 
Si 10.0789749401 8.0629991356 5.9756587915 
Si 3.3558951678 4.6576808076 1.4802375569 
Si 11.0206692765 7.9144167035 3.4671900046 
Si 8.3193064390 4.6716361277 0.9712323245 
Si 11.0139002508 11.5586213663 7.1579085375 
Si 8.5451067635 10.5041253895 10.9324633081 
Si 2.3418510739 11.1351631734 9.2089696858 
Si 0.9608840606 5.3417696714 8.0907822771 
Si 6.1731543887 7.7970251072 9.7853800415 
Si 9.1111201739 7.9965375032 2.3049343841 
Si 9.8516909935 0.7039508542 1.2874246418 
Si 5.9326105699 1.6880953270 8.1169774792 
Si 5.0854507772 3.6882265114 2.7845152182 
Si 1.8057766932 1.7523315263 9.0083098008 
Si 4.6012220334 9.3536807916 4.5760352306 
Si 1.8364575340 8.3112508348 2.3292518771 
Si 2.6344491640 6.7905150317 6.7180030030 
Si 1.9075786670 4.0407142518 6.4358018582 
Si 6.3593837309 10.0837619394 9.7935747352 
Si 11.0643086288 4.1146055853 5.7692382802 
Si 10.7328002318 4.5384926378 0.4397003774 
Si 5.8478818407 5.8137701239 2.1533847079 
Si 7.3556939047 1.2951672945 6.1825661162 
Si 8.8614543975 4.2169175542 6.5553493428 
Si 3.9213174475 7.2499278782 2.5438091282 
Si 9.6477393221 0.2166679353 9.0936180698 
Si 2.8031532204 10.1701017894 5.8969225046 
Si 7.2375836790 11.5229680735 7.9447150480 
Si 1.0827728863 9.9474541618 7.4599299459 
Si 4.0587727142 6.7833635097 9.1117692586 
Si 8.4793058066 3.3813717405 4.3385861547 
Si 7.8551297747 6.3815801079 10.8804322185 
Si 2.6161357041 1.0163784805 11.1652528835 
Si 9.3352630144 9.6810860463 3.9760260114 
Si 7.0428235099 1.7961911038 3.9990801074 
Si 1.4870993090 3.6298668464 0.1360446666 
Si 7.3087279935 9.1664314592 5.2278900867 
Si 6.1003989533 8.1554705175 3.3387639692 
Si 11.5055355142 2.6464456393 1.6151776205 
Si 0.1753536969 7.9245702421 8.0262563078 
Si 9.4945089802 7.4805383837 9.3083144104 
Si 4.1208182527 9.3909220237 2.1952043050 
Si 4.2528374354 5.1592493844 6.4937906177 
Si 2.3534998253 10.2202667607 11.2619085432 
Si 10.3260096055 9.6278958769 8.8412168652 
Si 4.1918930225 9.4888178987 9.8234789926 
Si 7.3728714665 0.9099019381 10.4122103659 
Si 10.7206183037 2.4608885634 3.9341832327 
Si 9.3551180504 10.0590503593 1.4615763731 
Si 2.9550042574 0.0278204638 1.5514166439 
Si 10.2601275130 6.1009437208 7.4691562206 
Si 6.7516626787 9.5409185331 7.3231237639 
Si 5.9807703331 3.9725719537 7.7457358287 
Si 9.5498202655 0.3775597942 5.1473804078 
Si 3.4330435154 11.0047667024 3.8820478259 
Si 2.6517658153 1.9302850391 6.6801938218 
Si 11.0079889441 6.5170417574 1.9110559062 
Si 6.0387243202 5.3793006734 9.6462672908 
Si 9.8039137265 4.1812410797 2.6177120525 

