&CONTROL
   calculation      = 'scf'
   tstress          = .true.
   tprnfor          = .true.
   outdir           = './'
   disk_io          = 'none'
   pseudo_dir       = '/home/ppiaggi/pseudos'
/
&SYSTEM
   ecutwfc          = 30
   occupations      = 'smearing'
   degauss          = 0.01
   smearing         = 'fermi-dirac'
   input_dft        = 'PBE'
   ntyp             = 1
   nat              = 64
   ibrav            = 0
/
&ELECTRONS
   electron_maxstep = 100
   mixing_beta      = 0.5
/
&IONS
/
&CELL
/

ATOMIC_SPECIES
Si 28.085 Si_ONCV_PBE_sr.upf

K_POINTS gamma

CELL_PARAMETERS angstrom
11.46936422580579 0.00000000000000 0.00000000000000
0.00000000000000 11.46936422580579 0.00000000000000
0.00000000000000 0.00000000000000 11.46936422580579

ATOMIC_POSITIONS angstrom
Si 2.4091399556 3.3782897633 3.5855182362 
Si 3.4068140722 5.8322749331 11.1932507514 
Si 5.4491637599 2.2258251072 8.5134452694 
Si 7.9675494097 2.8785236866 2.4982110382 
Si 4.0703512007 0.6360530911 1.1586351741 
Si 10.1867681632 8.7723317587 5.3658044207 
Si 3.6679714956 4.2667755325 1.7989927175 
Si 0.0045747280 10.2086517101 1.7523468132 
Si 9.0583891719 4.4720542134 1.1063887792 
Si 9.5873218419 11.0705859010 7.2923708765 
Si 8.0181866528 10.5853171006 11.4362521713 
Si 2.1421560952 11.3123715683 8.6910713132 
Si 0.3500610533 5.5156057868 7.4054588078 
Si 7.3346010756 6.8424391873 11.3088734122 
Si 10.8901383937 8.4513845396 3.1413556372 
Si 9.9276522866 0.2052775340 0.8484496594 
Si 7.0978619286 2.9554831205 7.0497594150 
Si 4.3251431270 1.8991202672 3.0343120609 
Si 2.7961048352 1.9843261741 7.5597905728 
Si 4.6538436364 9.7585365111 5.3098683313 
Si 1.8217364668 8.4978584035 2.0424873201 
Si 1.6913527343 7.0797747412 9.3945677067 
Si 1.5903076355 3.4275392133 6.0631532350 
Si 5.9134550931 9.4289643300 10.1651942891 
Si 10.5001341325 3.9049056218 6.4370201006 
Si 11.4262623550 4.5030673742 1.0976537114 
Si 5.2534505287 6.2842940466 2.8000617659 
Si 9.4848430725 1.3273265831 5.9096816723 
Si 9.4341943601 6.1613309927 4.3793817504 
Si 3.2213315139 6.6712130488 2.0086641650 
Si 9.3285844543 9.9305196276 9.5316380786 
Si 2.8075168526 11.4296802256 6.0375536140 
Si 8.2405432170 1.1269946390 8.2608898692 
Si 0.8196282941 10.3949141851 6.8216108219 
Si 3.8427301983 6.5951252865 8.9564609320 
Si 8.1019130117 4.8787349301 5.7880375953 
Si 8.2659249201 4.7248275315 10.3943063088 
Si 1.7893125741 2.3415280535 10.0245110675 
Si 8.1621157045 8.5730056779 3.7386457180 
Si 5.9316110967 3.5055997063 2.3306206881 
Si 2.1783878168 3.9619886475 0.1413404162 
Si 6.4241744127 8.3602375021 5.1804594948 
Si 4.2438482734 7.4664872948 4.6776081590 
Si 0.1508370497 2.0115429754 0.3257150338 
Si 0.2008400370 8.0675622658 6.9546554469 
Si 9.2166205208 6.6452578775 9.5348724393 
Si 3.1713939021 9.2350517891 3.6211764896 
Si 2.7942238595 4.9902171504 7.4549605838 
Si 3.8726996470 11.3982656370 10.5132780239 
Si 11.0813326953 8.1784824872 9.7551645180 
Si 2.4960203896 9.3909433876 9.8795612424 
Si 6.7347418572 0.2789727869 9.8058705772 
Si 9.1698140454 3.2216870642 4.4346411473 
Si 9.2323106110 9.6120727299 1.9363727622 
Si 4.5509290312 9.8364249635 0.9146049523 
Si 9.4463060087 6.6641823285 6.6303247653 
Si 7.6184104933 9.9143363547 7.7870101475 
Si 5.6372728025 4.5121281720 7.7284705125 
Si 8.1643751692 10.3706679492 5.4555521957 
Si 4.7645918173 10.7535841432 3.0071411370 
Si 3.5223220393 2.1327512165 5.4318450199 
Si 10.0901043615 6.4794338095 1.7833599741 
Si 5.9916188103 5.3281619673 9.8561408006 
Si 10.2530840271 2.3730114583 2.1824479717 

