&CONTROL
   calculation      = 'scf'
   tstress          = .true.
   tprnfor          = .true.
   outdir           = './'
   disk_io          = 'none'
   pseudo_dir       = '/home/ppiaggi/pseudos'
/
&SYSTEM
   ecutwfc          = 30
   occupations      = 'smearing'
   degauss          = 0.01
   smearing         = 'fermi-dirac'
   input_dft        = 'PBE'
   ntyp             = 1
   nat              = 64
   ibrav            = 0
/
&ELECTRONS
   electron_maxstep = 100
   mixing_beta      = 0.5
/
&IONS
/
&CELL
/

ATOMIC_SPECIES
Si 28.085 Si_ONCV_PBE_sr.upf

K_POINTS gamma

CELL_PARAMETERS angstrom
11.58646168876295 0.00000000000000 0.00000000000000
0.00000000000000 11.58646168876295 0.00000000000000
0.00000000000000 0.00000000000000 11.58646168876295

ATOMIC_POSITIONS angstrom
Si 3.6281730268 3.6153352272 4.7957987034 
Si 3.6967648800 4.8982230248 10.9447223352 
Si 3.7265768459 3.1270237993 7.9180720535 
Si 7.9045738256 3.0572153677 1.9817368208 
Si 3.7793763518 2.2605534349 0.9796388117 
Si 10.6032693092 8.2134225484 5.9145063389 
Si 3.2985961240 4.9122889893 1.5435368397 
Si 11.3381174689 8.4520225539 3.8231731770 
Si 8.7887019577 4.8764057174 0.9194633643 
Si 10.7580296780 11.3281994577 7.0952942360 
Si 8.7640459672 10.8763274519 11.0289906711 
Si 2.1087476138 11.1480183920 9.3278663659 
Si 0.9824601151 5.7468270653 8.2534421871 
Si 6.6200986828 7.7083107511 9.5277328301 
Si 9.3656266446 7.9568055949 2.2932851891 
Si 9.7547811333 0.8520185708 1.2888084795 
Si 5.8967211202 1.7480147156 8.4757400410 
Si 4.6368208626 3.2730595625 2.8116518986 
Si 2.0231584213 2.0223241961 8.6228185857 
Si 4.5254286199 9.1002271531 4.9069244575 
Si 1.6617766812 8.2999734172 2.5552666744 
Si 2.6636464370 7.0559581986 7.1609894738 
Si 1.7425574921 4.0750280947 6.3763427018 
Si 6.6035416290 10.3307093845 9.9679488555 
Si 10.9156055570 4.3814668335 6.1425626643 
Si 10.9905236183 4.4340809560 0.2171326093 
Si 5.5535301250 5.5964232061 2.2575177819 
Si 7.1896312071 1.4306847029 6.2617525957 
Si 8.7816226296 4.8151133351 6.1488077671 
Si 3.6651685989 6.9263636246 2.2952896470 
Si 9.8024130773 0.3334259253 9.1413822650 
Si 2.6801571449 10.4187201475 5.7990240752 
Si 7.7080674354 0.1128235183 8.4955992364 
Si 1.0671953854 9.9267705706 7.6776645599 
Si 4.4060996510 6.6236209672 8.8910451738 
Si 8.8040424330 3.3158020196 4.1398427614 
Si 7.8707297710 5.9858325970 10.5278182707 
Si 2.4051177174 1.3322345379 11.0111822795 
Si 9.2106461330 9.4058780125 4.0254380387 
Si 6.7866424831 1.8473802110 3.6777167369 
Si 1.5319967239 3.3622521445 11.5282860646 
Si 6.7364615175 9.2400293999 5.1166394141 
Si 5.6756630176 7.6489764808 3.3478733456 
Si 11.4836086684 2.4009581776 1.4633932842 
Si 0.1438134798 7.6740379974 7.8782030388 
Si 9.1777985141 7.2830412612 9.4777951802 
Si 4.5655293638 9.4225625173 2.6069770529 
Si 4.0138515770 4.9154984391 6.4308685905 
Si 2.4860839116 10.5378984924 11.3919713429 
Si 10.2918368055 9.3571453546 8.7841368918 
Si 4.0784345144 9.5087078600 9.2852281869 
Si 7.3796491788 1.1399490956 10.4111426015 
Si 10.7979218656 2.2387129546 4.4418207124 
Si 9.4208593074 10.0464703063 1.5418336298 
Si 3.4151791015 0.0519608778 1.4786990001 
Si 10.2533349933 5.9591605622 7.5656698212 
Si 6.7044365374 9.2403769937 7.7057501430 
Si 5.6128064630 4.0536974187 7.9701647852 
Si 9.6235992141 0.1782832033 5.0252917501 
Si 3.2926870286 11.0635414998 3.4915454705 
Si 2.5870946846 1.7455815586 6.2706278253 
Si 10.7047898866 6.1449147160 1.8306841197 
Si 5.9184689088 5.4273535572 9.7562294410 
Si 10.3429794474 4.0354835010 2.5362185314 

