&CONTROL
   calculation      = 'scf'
   tstress          = .true.
   tprnfor          = .true.
   outdir           = './'
   disk_io          = 'none'
   pseudo_dir       = '/home/ppiaggi/pseudos'
/
&SYSTEM
   ecutwfc          = 30
   occupations      = 'smearing'
   degauss          = 0.01
   smearing         = 'fermi-dirac'
   input_dft        = 'PBE'
   ntyp             = 1
   nat              = 64
   ibrav            = 0
/
&ELECTRONS
   electron_maxstep = 100
   mixing_beta      = 0.5
/
&IONS
/
&CELL
/

ATOMIC_SPECIES
Si 28.085 Si_ONCV_PBE_sr.upf

K_POINTS gamma

CELL_PARAMETERS angstrom
10.68224362551472 0.00000000000000 0.00000000000000
0.00000000000000 10.68224362551472 0.00000000000000
0.00000000000000 0.00000000000000 10.68224362551472

ATOMIC_POSITIONS angstrom
Si 4.5576967475 1.1582543118 5.2492545176 
Si 4.2193794096 3.8242325357 0.0523553852 
Si 1.0757446621 3.2073329663 8.5964394174 
Si 7.8438433073 2.1055449943 10.2186235699 
Si 10.4397032840 2.3966574976 0.0289703515 
Si 6.7383379145 7.8030157722 3.9849148443 
Si 4.9114071984 4.6601928751 2.5572863950 
Si 0.0117695892 8.3779875353 4.5190804368 
Si 8.1712113454 4.7868308733 9.8635030628 
Si 10.4550429858 0.2640095148 6.4223998770 
Si 9.0841052034 10.4705215569 10.2112955508 
Si 2.2058726264 9.9312818986 9.5988077480 
Si 0.8781519970 4.9269391807 6.9937824063 
Si 4.6970893446 6.4415210931 10.4368404427 
Si 9.7608680661 8.5191747493 0.5523489076 
Si 8.2553767430 0.9220987473 1.5516492978 
Si 4.7475843102 2.9896181590 7.1989883064 
Si 2.3394540830 2.2810328926 0.8898020519 
Si 2.9391659223 1.5594473357 8.6254417089 
Si 5.1795528779 10.0002678280 2.0627626086 
Si 1.7606580766 6.6655491064 3.8885075956 
Si 4.1004753558 7.2792440027 7.3674152416 
Si 2.6015963415 4.7471356560 5.2197394784 
Si 6.6904814630 8.1793832618 7.6781296619 
Si 9.4701614881 4.0839285605 5.5423646004 
Si 9.5046864995 4.3664739044 1.0590963854 
Si 7.1271181712 6.5673258763 0.5472962064 
Si 6.6356708710 0.7546716701 3.6876173220 
Si 7.2156312419 2.9629980079 6.1294500278 
Si 3.9601427213 7.8662012432 1.9108717865 
Si 8.5526529008 10.4614096030 7.9589338001 
Si 4.1289755818 8.6290095783 9.2696878219 
Si 7.2307786634 9.8648703900 5.6371054191 
Si 0.8715866901 9.2483340169 7.7714176955 
Si 1.4756024055 4.5249343063 10.6343230806 
Si 8.0780301343 2.9330984080 3.8924172968 
Si 7.2557644312 5.9543894193 8.1278628008 
Si 3.2247984346 0.3665013694 1.5670851399 
Si 8.9372884470 8.6433024202 3.1133612691 
Si 6.1025307739 2.3607010655 1.1352233946 
Si 2.4784621193 5.1050762754 2.4377520888 
Si 4.1014260755 6.8469549677 4.3230612663 
Si 6.1344065889 8.6346498029 10.0406146621 
Si 10.4759481366 1.6176869279 2.5784265551 
Si 1.7337388227 6.6193056738 8.2036105904 
Si 9.5729887652 5.9465913815 8.0488782914 
Si 1.9422882650 8.9587918035 5.7992725596 
Si 4.9036625718 3.8293386481 4.9027225344 
Si 2.2265534501 9.2277386512 2.9976298417 
Si 9.3077166092 8.2054586185 8.9599561680 
Si 2.2210520946 7.4082427767 10.3417364277 
Si 6.2460680815 0.3134789850 7.5289094007 
Si 10.4198877221 2.0713511324 5.0274377287 
Si 7.3305935478 9.3091587121 1.6800285017 
Si 2.8893012091 2.0924806103 3.0610716866 
Si 8.7476893049 6.5650185117 4.5074581557 
Si 5.3260491670 8.4942744394 5.7196257511 
Si 6.5886476346 5.4014658070 4.0943223835 
Si 9.1712723114 0.1294858843 4.3379736784 
Si 3.9656013478 9.7823180113 4.3884472795 
Si 5.2081278796 1.5450476713 9.1635490493 
Si 0.4543040709 5.9833596640 1.6313601998 
Si 5.0438456549 5.0663958712 8.4010504993 
Si 7.2056006152 4.4949492484 2.0955998255 

