&CONTROL
   calculation      = 'scf'
   tstress          = .true.
   tprnfor          = .true.
   outdir           = './'
   disk_io          = 'none'
   pseudo_dir       = '/home/ppiaggi/pseudos'
/
&SYSTEM
   ecutwfc          = 30
   occupations      = 'smearing'
   degauss          = 0.01
   smearing         = 'fermi-dirac'
   input_dft        = 'PBE'
   ntyp             = 1
   nat              = 64
   ibrav            = 0
/
&ELECTRONS
   electron_maxstep = 100
   mixing_beta      = 0.5
/
&IONS
/
&CELL
/

ATOMIC_SPECIES
Si 28.085 Si_ONCV_PBE_sr.upf

K_POINTS gamma

CELL_PARAMETERS angstrom
10.94851574391996 0.00000000000000 0.00000000000000
0.00000000000000 10.94851574391996 0.00000000000000
0.00000000000000 0.00000000000000 10.94851574391996

ATOMIC_POSITIONS angstrom
Si 0.1743912433 1.7589009513 6.6676351395 
Si 3.7906498634 10.4256255805 3.4537859310 
Si 9.2835311607 3.5741210676 10.0714191992 
Si 4.5511775611 10.7471615909 0.6302666367 
Si 5.3458865249 1.7421825678 10.1356212955 
Si 4.8837606238 2.3973745954 4.6198685489 
Si 2.0612551621 0.3198576029 7.0468369823 
Si 8.0498524067 1.9945896497 2.4847109055 
Si 4.8086100118 9.6084502624 9.2054353979 
Si 1.4102345189 2.8357093717 4.4785998502 
Si 3.4765369467 8.1689941550 5.0745494592 
Si 8.0920808319 6.6214871457 10.5957436181 
Si 7.3020906784 7.5307285327 8.4700016983 
Si 9.1958444981 2.5050751448 4.3239739624 
Si 2.4938310191 9.0963772326 8.6264669368 
Si 3.9535090351 10.2901376982 5.8071584417 
Si 5.9985384969 7.8866538310 10.5457198497 
Si 0.8295602791 2.4301216060 8.6955958652 
Si 5.5769768467 4.8475429337 4.3449075245 
Si 0.3255168907 3.2446364348 1.7719077880 
Si 5.8595142440 9.5567842166 7.0840838329 
Si 10.3838022504 10.1176438326 8.8089239517 
Si 9.3070595210 1.1382952849 8.2607646139 
Si 6.7766057167 6.9384247794 1.8992390261 
Si 10.7701863195 0.8808376526 3.8803182074 
Si 0.2654588076 5.5589008472 3.1139987449 
Si 6.5565624473 0.3714656216 1.7778418835 
Si 2.5030825149 2.8154436691 1.0703060969 
Si 5.6822687226 0.2359744547 4.6166387367 
Si 9.7265300047 8.2026389439 5.2598859337 
Si 6.7381545294 3.4909123479 9.7889365444 
Si 0.4236933262 7.3930947412 1.0488032120 
Si 3.5774165708 7.1486691273 10.1171511494 
Si 0.2770718982 5.4442698873 7.8989928082 
Si 7.4648951075 9.0759035081 4.7393825467 
Si 1.0988149371 7.3729823178 4.6760015891 
Si 0.7816878940 7.8229225208 7.3859125149 
Si 0.0305312500 0.6382656223 10.3383768585 
Si 6.2840867360 5.9390880564 6.8365378919 
Si 0.0465802413 10.4846161833 6.3251874641 
Si 7.1865181462 0.5166473197 7.5963867816 
Si 5.4891040593 7.3106414692 4.9755201343 
Si 4.2203681579 3.4975799940 2.4645437395 
Si 9.6412848611 1.9349311874 0.7540220896 
Si 0.7212061033 9.7790281377 4.1715706232 
Si 8.0385535384 0.4736634469 4.4303387928 
Si 2.4804190873 5.3984503489 4.8913917393 
Si 6.7281804316 4.0051422354 1.3705680464 
Si 4.2922451637 3.3710261005 6.4274575497 
Si 10.0034179679 4.4730599012 5.4637363483 
Si 4.2397360822 5.3090228724 8.1723444008 
Si 8.0833658133 2.3669048761 6.5881270182 
Si 9.5565652463 9.7793565932 0.9648488984 
Si 4.7819613244 1.2948043174 7.6985364335 
Si 4.6961687551 5.6137419625 0.6630716744 
Si 3.7499542304 3.8243931890 10.2459713857 
Si 7.3895364736 10.0126147211 10.5458183863 
Si 1.4840932061 5.9555217785 10.0876230025 
Si 2.6507013527 8.7133543578 1.8445949840 
Si 2.2643391806 4.2262146653 8.5370832543 
Si 2.3898748621 0.2432946323 0.9514928041 
Si 7.7044924260 4.3489584753 3.9641728895 
Si 10.4925757543 7.5106489548 9.5199972037 
Si 7.7967555682 4.8680604523 8.1387215089 

