&CONTROL
   calculation      = 'scf'
   tstress          = .true.
   tprnfor          = .true.
   outdir           = './'
   disk_io          = 'none'
   pseudo_dir       = '/home/ppiaggi/pseudos'
/
&SYSTEM
   ecutwfc          = 30
   occupations      = 'smearing'
   degauss          = 0.01
   smearing         = 'fermi-dirac'
   input_dft        = 'PBE'
   ntyp             = 1
   nat              = 64
   ibrav            = 0
/
&ELECTRONS
   electron_maxstep = 100
   mixing_beta      = 0.5
/
&IONS
/
&CELL
/

ATOMIC_SPECIES
Si 28.085 Si_ONCV_PBE_sr.upf

K_POINTS gamma

CELL_PARAMETERS angstrom
10.90243429431873 0.00000000000000 0.00000000000000
0.00000000000000 10.90243429431873 0.00000000000000
0.00000000000000 0.00000000000000 10.90243429431873

ATOMIC_POSITIONS angstrom
Si 0.9773181955 1.7757012784 6.5113371506 
Si 2.5900695104 0.7491651335 2.9208275621 
Si 9.7205995144 1.4064140240 7.2674209689 
Si 4.6016776621 8.9806185915 0.0239437081 
Si 6.4087670488 1.2167116672 9.0747065995 
Si 5.3694706948 2.8943891589 4.1399486673 
Si 2.6927268317 0.3246003567 9.8318697588 
Si 5.1653880273 1.8745754550 0.9992789689 
Si 4.5662665555 9.1626347321 8.2999251064 
Si 2.5826776600 3.7012347113 4.8243816874 
Si 3.6566764623 7.3018835638 6.9787899234 
Si 8.9208514467 5.1394402336 0.7649191511 
Si 7.4155632461 6.0825117025 8.4159815194 
Si 7.5004277947 1.6994823602 3.3522368871 
Si 1.3674160165 10.6947865307 7.7155001160 
Si 3.8677912000 10.7666117679 6.9491898143 
Si 5.6303223377 6.8264502090 10.0565798320 
Si 2.2777474752 3.1677458940 7.9237584159 
Si 6.8857376467 5.8356042731 6.0892057972 
Si 1.2867816125 3.3658431251 0.9590522571 
Si 6.2444237542 10.1558683011 5.7242359068 
Si 10.0502346153 10.8134813329 9.0301483505 
Si 6.9195460955 9.7656265680 10.4997419812 
Si 7.2440788571 7.4094360781 1.0596283037 
Si 0.4356623646 2.7399997868 4.4695728657 
Si 0.9695273160 5.7367737062 2.2976771251 
Si 5.8717458428 8.8578026692 2.7395636895 
Si 3.7873312349 3.2175591162 2.5539388432 
Si 4.5305719856 0.3800730327 4.3256716355 
Si 0.5249609332 5.4830522553 4.8596510623 
Si 7.1106330614 3.0923991705 10.8244164745 
Si 0.1154044475 5.9675891426 0.0827063027 
Si 1.9460300094 6.7976677825 9.4200957179 
Si 9.8518866282 7.0773915392 6.0120056600 
Si 7.8526418370 0.7564425084 5.3342122223 
Si 3.4419421165 9.2917413590 4.5293509130 
Si 10.3879157127 8.0212806907 3.7858594063 
Si 9.1206821649 1.6679961300 10.2700494955 
Si 5.4314837411 3.2962201797 6.4900337940 
Si 10.4618233147 9.8158322779 5.8368253457 
Si 8.2820342117 10.2154064948 7.3078580977 
Si 5.7512303341 7.6808848871 5.4009569251 
Si 4.8563803321 5.3053534787 4.7159569784 
Si 9.8919639766 2.7463450036 1.2997228020 
Si 1.1490184527 9.8755449106 3.6162066262 
Si 7.6848533732 10.2282059527 2.6942858799 
Si 2.5443228961 6.7483887795 3.8530074991 
Si 6.5926911153 5.2782173198 1.8914633257 
Si 2.9658873230 5.0204510658 6.6114433023 
Si 9.5335246443 4.3509979903 7.2471533436 
Si 5.4362808122 4.5076005566 8.9560445046 
Si 7.6828364229 2.4852426047 7.5132708623 
Si 0.0600181188 9.0232253047 1.5324025547 
Si 4.1029458053 2.1847715155 9.5238650875 
Si 3.6644935077 6.0176531209 0.8168180090 
Si 3.6024695590 3.8174110511 0.4840048485 
Si 9.2933767241 8.9717985222 0.0882886761 
Si 10.4176684559 7.2241928170 8.4687929111 
Si 3.8800455361 8.0104327685 2.3630699260 
Si 1.0694175994 5.2152230544 7.8339223573 
Si 2.3170071411 9.9707231620 1.0032245599 
Si 9.1462265685 3.7928478667 3.5988390484 
Si 8.2320247456 8.4534313812 8.6508962712 
Si 8.7482441070 4.3486648694 9.4547981663 

