&CONTROL
   calculation      = 'scf'
   tstress          = .true.
   tprnfor          = .true.
   outdir           = './'
   disk_io          = 'none'
   pseudo_dir       = '/home/ppiaggi/pseudos'
/
&SYSTEM
   ecutwfc          = 30
   occupations      = 'smearing'
   degauss          = 0.01
   smearing         = 'fermi-dirac'
   input_dft        = 'PBE'
   ntyp             = 1
   nat              = 64
   ibrav            = 0
/
&ELECTRONS
   electron_maxstep = 100
   mixing_beta      = 0.5
/
&IONS
/
&CELL
/

ATOMIC_SPECIES
Si 28.085 Si_ONCV_PBE_sr.upf

K_POINTS gamma

CELL_PARAMETERS angstrom
10.84868009137344 0.00000000000000 0.00000000000000
0.00000000000000 10.84868009137344 0.00000000000000
0.00000000000000 0.00000000000000 10.84868009137344

ATOMIC_POSITIONS angstrom
Si 0.2981260684 1.7189625118 6.1446490090 
Si 2.9159299323 0.3393868534 2.8435800848 
Si 9.6980473835 2.6387136099 8.1622539864 
Si 4.4529817763 10.5085956679 0.1342318036 
Si 5.7164082111 1.4161216070 10.3115836374 
Si 6.2775670375 2.5280245270 4.7380091484 
Si 2.4967260849 0.0067755974 9.5278749876 
Si 6.5782707523 2.0983408546 2.3038582502 
Si 4.7572547069 8.9967344590 8.8105385626 
Si 1.7069530229 3.5786107070 4.8852474346 
Si 3.2266252815 7.8828896254 6.4142604067 
Si 8.9110732810 5.6749554045 1.2980879677 
Si 6.9467678689 6.5116381592 8.5096287229 
Si 8.7183356305 2.1592344959 3.7631033607 
Si 1.8299553578 9.0332077215 8.2612807383 
Si 3.2757589536 10.2103871495 5.5143298470 
Si 6.4413278635 8.1403938960 10.1410532351 
Si 1.4815066020 2.5088657579 8.0492324372 
Si 6.6470622327 4.9570006047 4.7368157936 
Si 0.8337850722 3.6012410537 1.9276151760 
Si 5.3293056081 9.8342525621 6.6297802854 
Si 10.1977050425 10.0186475776 8.9334107133 
Si 7.1375093623 10.4263084294 9.5742856410 
Si 7.1229829797 7.0571857349 1.0946209725 
Si 1.0302774509 1.5304449979 3.4259589295 
Si 1.6219319171 5.8325650288 2.1766791735 
Si 6.5228665431 10.3224214688 1.0670056574 
Si 3.1660354031 2.1428638377 1.6931426532 
Si 5.2440458312 0.1290786806 3.3126444659 
Si 10.7549149493 6.1071125759 4.0756104394 
Si 7.7466627494 2.8423107892 0.1021772086 
Si 0.0927788885 7.1721383492 0.7046076687 
Si 2.7702972508 7.1384748948 9.5657694272 
Si 10.6559641382 6.2685951791 6.6750518274 
Si 6.9339555778 10.7974309266 4.9496668970 
Si 2.8579545859 8.4285565366 3.6941708474 
Si 10.0892399389 8.5217358499 6.0180015176 
Si 10.2173845482 1.1297164526 9.9575695087 
Si 5.6326672495 4.7349498206 7.3352157083 
Si 0.5191917923 10.4693776893 6.8126130909 
Si 7.0907407024 0.3002762768 7.3910321674 
Si 6.1625167851 7.7450896908 5.8792577480 
Si 4.6259205857 3.9178163874 3.3358606413 
Si 9.7749645254 2.3308606150 1.0452410354 
Si 0.3630923042 9.5567975687 3.8512271890 
Si 7.9467232590 10.5900692554 2.8908694813 
Si 2.5341431825 6.1131769881 4.5235307430 
Si 6.8048779820 4.4274656808 1.7062044640 
Si 3.1430904448 4.0924041961 6.8934032116 
Si 9.9222570550 4.4067880965 5.8139486938 
Si 4.0304365355 5.2238347402 9.1425407194 
Si 7.8418816146 2.3648820758 6.3880391469 
Si 10.6203262241 9.1276563304 1.6723999768 
Si 4.0542819343 1.8179350203 8.6079177645 
Si 3.7631250580 5.8871772844 0.8183343820 
Si 3.5703548615 3.2470424974 10.4437639556 
Si 8.6285411054 9.1784606992 0.9080074019 
Si 0.1367562915 7.3103939283 9.2414264385 
Si 2.9103320134 8.1449828877 1.3124082254 
Si 1.5107980382 4.8873846246 8.6848783011 
Si 1.3233762409 10.3373601013 0.7263093683 
Si 9.0206557986 4.6810210319 3.4020484385 
Si 8.8393201109 8.0441010115 9.0580295015 
Si 7.5255232545 3.8378399178 8.4912944536 

