&CONTROL
   calculation      = 'scf'
   tstress          = .true.
   tprnfor          = .true.
   outdir           = './'
   disk_io          = 'none'
   pseudo_dir       = '/home/ppiaggi/pseudos'
/
&SYSTEM
   ecutwfc          = 30
   occupations      = 'smearing'
   degauss          = 0.01
   smearing         = 'fermi-dirac'
   input_dft        = 'PBE'
   ntyp             = 1
   nat              = 64
   ibrav            = 0
/
&ELECTRONS
   electron_maxstep = 100
   mixing_beta      = 0.5
/
&IONS
/
&CELL
/

ATOMIC_SPECIES
Si 28.085 Si_ONCV_PBE_sr.upf

K_POINTS gamma

CELL_PARAMETERS angstrom
10.88754981272250 0.00000000000000 0.00000000000000
0.00000000000000 10.88754981272250 0.00000000000000
0.00000000000000 0.00000000000000 10.88754981272250

ATOMIC_POSITIONS angstrom
Si 0.7453899678 2.3567081449 6.1535233911 
Si 3.7259155218 10.3099544076 3.6929806836 
Si 8.7239541388 4.2437818287 10.1589985295 
Si 5.0879697785 0.0899337745 0.5668864111 
Si 4.6187054940 1.6640857760 9.6646275551 
Si 3.7093555585 1.6259793517 3.8741712876 
Si 2.1695511636 0.5883381505 6.8831089916 
Si 7.5495576907 2.1493438712 1.7716112180 
Si 5.1496368606 9.7577052185 8.4123960134 
Si 1.3951850708 2.5482636963 3.8407573972 
Si 2.5550466399 7.9337466610 4.2181525364 
Si 8.2449563848 6.4556420109 10.7145030960 
Si 7.7785010882 7.7915225978 8.5673040721 
Si 9.2695619226 2.9891005882 4.6013942898 
Si 2.8391899149 8.9640790500 8.3419426786 
Si 4.1473834626 9.1654333962 6.4691970104 
Si 5.8647746825 7.8818021608 0.2043233811 
Si 0.6083647096 1.8827622140 9.9528536613 
Si 5.4107856304 4.5903434267 4.5040487069 
Si 10.8353875616 3.4960575702 2.0089924665 
Si 6.8353670857 9.1779105283 6.6049974192 
Si 9.6837569801 8.7754086993 8.7602532299 
Si 9.7127940755 1.4636459840 7.8047509708 
Si 7.0141733162 6.5168844786 1.9657797813 
Si 10.8021587595 0.5835508949 4.0265969850 
Si 10.3173470539 5.5228185180 3.2641636467 
Si 7.2177160600 10.5578530293 2.2419642574 
Si 2.0727499582 2.7209184612 1.2998536846 
Si 5.7382504661 0.1728137232 4.5732717486 
Si 9.1871431705 8.3269178598 5.8042507931 
Si 6.2294531635 3.7498681314 9.9150847510 
Si 0.6602874347 6.8778829677 1.7301187656 
Si 3.4591814389 7.4560445254 10.3518061491 
Si 0.2276172939 5.7214618643 7.9553366723 
Si 7.0708103504 9.2343515865 3.9532584494 
Si 0.2677466250 6.8056549622 5.1855331124 
Si 0.8626020628 7.9936499601 7.3505768304 
Si 0.1738034014 10.4238381786 0.2296521770 
Si 6.6671326660 6.6462285703 6.7042265482 
Si 0.3349750676 10.3373910331 6.0760258115 
Si 7.8596568845 10.8698139941 8.3932121506 
Si 5.6349276184 6.8723303173 3.8732349583 
Si 4.1017101911 3.8927018974 1.9833631743 
Si 9.6056823604 2.1667966135 0.3469960113 
Si 1.1561380271 9.6257263396 3.6323696938 
Si 8.7117600830 0.7115993682 5.2031491680 
Si 3.0967566808 4.0674470719 4.6451513525 
Si 6.5727593842 4.3116003764 1.5390531540 
Si 4.3085409749 3.1913912638 6.5246146389 
Si 9.5094037574 5.2773478199 5.6244429080 
Si 4.5545233879 5.8045883072 7.2877665555 
Si 8.1906492864 3.0616552202 6.7803305214 
Si 8.7543304028 9.8441741391 0.5841312013 
Si 4.1708896827 1.2422041083 7.4182756151 
Si 4.5900168002 5.9491640811 0.8336096064 
Si 3.9272916431 4.0524549158 10.2901935047 
Si 6.8499019647 10.3021044842 10.6389652754 
Si 1.8245138225 5.6714880107 10.7077963653 
Si 2.1355820082 9.0818387887 1.2085506919 
Si 1.9670645122 4.2008086695 8.6113006609 
Si 2.8967523907 0.6308583876 0.4698805198 
Si 7.6070221787 5.1761262693 3.8563048184 
Si 10.6359603117 6.6705731317 10.0458768869 
Si 8.5939023563 5.1735785827 7.6985973601 

