&CONTROL
   calculation      = 'scf'
   tstress          = .true.
   tprnfor          = .true.
   outdir           = './'
   disk_io          = 'none'
   pseudo_dir       = '/home/ppiaggi/pseudos'
/
&SYSTEM
   ecutwfc          = 30
   occupations      = 'smearing'
   degauss          = 0.01
   smearing         = 'fermi-dirac'
   input_dft        = 'PBE'
   ntyp             = 1
   nat              = 64
   ibrav            = 0
/
&ELECTRONS
   electron_maxstep = 100
   mixing_beta      = 0.5
/
&IONS
/
&CELL
/

ATOMIC_SPECIES
Si 28.085 Si_ONCV_PBE_sr.upf

K_POINTS gamma

CELL_PARAMETERS angstrom
10.79101816811473 0.00000000000000 0.00000000000000
0.00000000000000 10.79101816811473 0.00000000000000
0.00000000000000 0.00000000000000 10.79101816811473

ATOMIC_POSITIONS angstrom
Si 1.1641458310 2.8351565764 5.8391710050 
Si 3.0506532092 9.2332483674 4.9157835804 
Si 7.0630127485 3.5827475240 9.2221552007 
Si 5.7784391548 1.1659263490 0.5459186882 
Si 4.0755409507 2.1972671194 10.0685379197 
Si 2.7467026004 0.0349864233 3.0159169217 
Si 2.4134759594 1.1222335164 6.1708329484 
Si 7.1322910852 2.4162816241 1.9332324869 
Si 5.7358793791 10.0931846052 7.9237798947 
Si 0.1951393770 1.7015816998 3.8132976272 
Si 1.7398574413 5.2410896141 4.3907789645 
Si 9.2690961298 7.3179181797 10.7643211892 
Si 7.8316030175 7.3306515811 9.0072952380 
Si 9.3208066888 3.3308635780 4.9647963849 
Si 4.6170342424 8.0800662109 8.1543515799 
Si 3.5540110427 6.3128103745 5.4274828709 
Si 6.3579276214 6.5300659432 10.5583530254 
Si 10.7825580099 0.5895381419 0.9150427303 
Si 5.5729889599 4.0552214635 4.8910074027 
Si 10.3713446805 3.9219308071 1.8293797280 
Si 6.4606689054 10.5215340714 5.8388580655 
Si 9.8898602409 8.9736812164 8.3483093405 
Si 10.3829666071 2.7221314521 7.7258726215 
Si 6.0555956654 8.0669443328 1.5526116940 
Si 9.5546804256 0.1851145212 2.6787407680 
Si 9.4671221042 6.1987493124 2.1946880660 
Si 6.8302828597 10.3514136700 2.2161298191 
Si 1.4526976568 2.1478766292 1.9300923006 
Si 5.1421575595 10.7803026871 3.8450448026 
Si 10.1552221687 8.2279031598 5.9803930598 
Si 5.4421047005 4.5354649361 10.3979229583 
Si 1.6478316383 7.0754979565 1.9491924027 
Si 3.0511711781 8.8345418281 9.8126720879 
Si 0.7853228218 7.3473884503 8.3689201852 
Si 7.6954635323 8.3699992870 5.4763553922 
Si 1.1597107225 7.6226241597 4.9899718303 
Si 2.4833370110 8.8263622364 7.3371154010 
Si 1.1934218633 9.8695623357 9.0802425208 
Si 6.2873651536 6.6260844229 6.2844515787 
Si 0.3849749687 10.5962294992 5.3197885096 
Si 9.6886293341 1.2351507305 9.4969268963 
Si 6.3227596932 7.1074393703 4.0741920734 
Si 2.6756113727 3.8265382065 2.6982725109 
Si 8.5173398491 2.7830035856 0.0660402758 
Si 0.7235366891 8.9726776517 3.0853031685 
Si 8.7546990847 1.1556317177 5.8236427299 
Si 3.8148946979 2.6610974533 4.4385076378 
Si 5.3686934039 4.3831497146 2.7247212964 
Si 5.1209747908 3.1415675372 7.0288160119 
Si 9.8329052470 5.6173076715 5.8259412167 
Si 4.2004793591 5.4656507022 7.5587197501 
Si 7.6651731443 2.5995239036 7.0219205513 
Si 7.9298876110 9.3893836093 0.5639968810 
Si 4.1886631942 1.1363589592 7.9423404460 
Si 4.0088848315 6.6341345224 1.5889234702 
Si 2.2746279286 4.2273813674 9.2276262469 
Si 7.9834002701 10.5440549263 9.2224249762 
Si 3.4219073982 4.5071816774 0.6559568587 
Si 1.6898842361 9.5519395070 0.9636746119 
Si 0.8320619588 4.8406025568 7.5445187702 
Si 3.4877434001 0.0752226769 0.3869777816 
Si 7.8908025432 4.5004912462 3.5605288176 
Si 0.6377912587 5.7400878762 10.6179194457 
Si 7.8598539031 5.1970298869 7.7089846781 

