&CONTROL
   calculation      = 'scf'
   tstress          = .true.
   tprnfor          = .true.
   outdir           = './'
   disk_io          = 'none'
   pseudo_dir       = '/home/ppiaggi/pseudos'
/
&SYSTEM
   ecutwfc          = 30
   occupations      = 'smearing'
   degauss          = 0.01
   smearing         = 'fermi-dirac'
   input_dft        = 'PBE'
   ntyp             = 1
   nat              = 64
   ibrav            = 0
/
&ELECTRONS
   electron_maxstep = 100
   mixing_beta      = 0.5
/
&IONS
/
&CELL
/

ATOMIC_SPECIES
Si 28.085 Si_ONCV_PBE_sr.upf

K_POINTS gamma

CELL_PARAMETERS angstrom
10.91540323549306 0.00000000000000 0.00000000000000
0.00000000000000 10.91540323549306 0.00000000000000
0.00000000000000 0.00000000000000 10.91540323549306

ATOMIC_POSITIONS angstrom
Si 7.0868692123 8.1937456774 5.5056857304 
Si 6.7249908488 3.3586040831 3.6803137627 
Si 0.2369690381 9.9230948428 4.1666386385 
Si 8.5845498594 5.7581699226 3.1367812586 
Si 3.6476439608 2.4821736112 4.6285894188 
Si 2.0846127945 8.7534984707 10.6252718175 
Si 7.7280727445 10.5220666799 5.0763174287 
Si 2.5972765383 0.5774804997 10.2075720819 
Si 6.6909457061 10.2410932852 8.5081092905 
Si 1.0322751417 9.4602817456 8.7693803824 
Si 9.8962756970 10.8303504135 6.4731834116 
Si 10.5845027864 9.0418834242 1.4586580806 
Si 7.8669712507 4.0430653584 1.2130069308 
Si 8.9248921323 1.9271908490 6.6085780733 
Si 10.0009544140 3.7107895685 8.2552648900 
Si 3.4382865268 9.7667098606 5.7312743690 
Si 6.4036086313 1.0115598894 2.7789525097 
Si 7.6660841695 5.1541115076 9.3979438777 
Si 9.0672289905 7.5187153105 7.4945813539 
Si 5.1901650844 1.5830063542 9.3574040701 
Si 4.2941523791 1.0760022470 6.4853213399 
Si 9.7812273469 10.4185340802 9.2252731139 
Si 3.9443682824 9.4713499645 3.4718732225 
Si 3.8912539302 4.6803175147 9.3258694701 
Si 3.8555278154 5.6578464515 3.1033037169 
Si 0.7347911081 3.3364785608 2.3091208083 
Si 10.4314142560 1.1122468435 10.6120641796 
Si 9.0238184318 0.1851437951 3.0203029907 
Si 5.8180081631 8.1833432981 1.0772673423 
Si 6.5790191613 1.1182175691 7.1596749518 
Si 2.3855941233 5.6743942028 10.8299902052 
Si 1.2031066600 4.3778844373 4.4049109757 
Si 4.5738050099 7.9617715278 7.1695097302 
Si 7.2923407628 1.3326070040 0.0834204235 
Si 10.1144855231 7.6819115042 10.4573383387 
Si 6.0261212412 3.6605241366 8.9669055193 
Si 4.8751574625 9.8382930750 10.4160890299 
Si 8.6489289077 10.3449315162 0.5852173375 
Si 4.3225215121 4.8194343290 5.3649643519 
Si 0.4586172162 1.9343295228 5.8076385301 
Si 1.3219972321 9.5984489197 6.5331417215 
Si 0.4634767537 4.8159741461 9.7488085993 
Si 0.8834752732 0.4307261778 1.3323122881 
Si 10.8505111633 7.7225277197 3.3649241016 
Si 2.1041404509 7.6223024872 2.3674963848 
Si 2.9281114949 6.0351810259 7.1642812520 
Si 4.3392002482 6.8147918712 0.0333404443 
Si 1.5670371193 3.8790723402 7.6086254869 
Si 9.4749629629 2.5361066185 0.9502764495 
Si 6.1744069942 9.5869440847 3.1387460312 
Si 1.3801654159 6.8551897786 8.8221672724 
Si 1.4500130812 1.5538076506 3.8124338035 
Si 4.8965516528 2.9172070071 2.3278734710 
Si 2.5333668523 9.8548080801 1.7010673556 
Si 5.9299674541 2.9166503215 5.9810952029 
Si 1.1326695629 2.2839389730 9.3455717730 
Si 6.2472236492 7.1920936994 3.6852911866 
Si 9.2502038949 5.1425957571 6.5424743913 
Si 5.8564849596 6.7633694066 9.1386048122 
Si 9.3910562583 7.4087862845 5.0788388868 
Si 7.3296168648 8.7019886828 9.9336936993 
Si 0.4993283956 6.3003707475 6.7940307743 
Si 8.1476608449 6.7654979102 0.8130283523 
Si 5.2364136480 4.7960535352 1.2359074467 

