&CONTROL
   calculation      = 'scf'
   tstress          = .true.
   tprnfor          = .true.
   outdir           = './'
   disk_io          = 'none'
   pseudo_dir       = '/home/ppiaggi/pseudos'
/
&SYSTEM
   ecutwfc          = 30
   occupations      = 'smearing'
   degauss          = 0.01
   smearing         = 'fermi-dirac'
   input_dft        = 'PBE'
   ntyp             = 1
   nat              = 64
   ibrav            = 0
/
&ELECTRONS
   electron_maxstep = 100
   mixing_beta      = 0.5
/
&IONS
/
&CELL
/

ATOMIC_SPECIES
Si 28.085 Si_ONCV_PBE_sr.upf

K_POINTS gamma

CELL_PARAMETERS angstrom
11.03396486866883 0.00000000000000 0.00000000000000
0.00000000000000 11.03396486866883 0.00000000000000
0.00000000000000 0.00000000000000 11.03396486866883

ATOMIC_POSITIONS angstrom
Si 6.9777469754 8.8479488508 7.8836465251 
Si 7.4122865798 1.3747216830 4.9789332054 
Si 10.2352271858 10.2993234877 4.4743941279 
Si 8.2907777608 6.1908156349 3.9716977224 
Si 2.5904439322 2.1465364916 3.5551545146 
Si 3.7363653197 7.3343316180 0.4278077825 
Si 8.1943409078 9.1486795633 5.4932594099 
Si 3.0414903481 1.5709607482 9.0827405892 
Si 6.6812643393 10.9995278643 9.5603898944 
Si 1.9386455595 10.2822098082 7.6759542043 
Si 9.4609738710 8.3988885486 7.5992019447 
Si 10.4970411042 8.8860270635 1.2954316114 
Si 7.4544032237 3.7110754722 2.2787454586 
Si 9.8802314341 1.4970662855 6.8438167098 
Si 8.5556922233 2.9935367368 8.6903176287 
Si 4.2131319077 10.8540891734 6.6916252324 
Si 7.1832987069 0.1584885612 2.9373186858 
Si 8.7249091085 5.6963616012 0.6210621602 
Si 7.2050135498 5.8403438088 8.0748099664 
Si 5.0007473540 2.5468487370 10.7697124440 
Si 5.1626818224 1.7990217680 5.8072639821 
Si 0.0751587344 9.6995723273 9.3662252146 
Si 3.9377793144 9.1211277530 3.9017754870 
Si 3.8501475654 3.3770442537 7.6948884880 
Si 3.8565141631 6.2622274555 4.1715117922 
Si 10.9108147868 5.6072954368 3.9214931823 
Si 10.5418721035 0.1949304370 11.0039966201 
Si 9.7107718016 0.2029708872 2.4131722526 
Si 6.1769349071 10.3261249884 0.7448158000 
Si 7.4169208451 1.0162314746 7.6271840796 
Si 1.8849763544 6.0648739599 8.9596567111 
Si 1.6050667336 4.1725158830 4.5760610802 
Si 4.6481680406 8.4548859203 7.7460198812 
Si 7.4460284444 2.9053422556 11.0073730133 
Si 0.1037139735 6.7631142907 10.0445382049 
Si 6.1289702618 3.9909850930 9.3662914184 
Si 4.0660270881 0.3397644666 10.7915596945 
Si 8.7539174022 9.8331715739 9.6891452305 
Si 4.3392611601 5.1849924994 6.2390892312 
Si 10.8805927570 1.4477003266 4.5539159127 
Si 1.5637776370 0.1093606050 5.4863080120 
Si 10.2554083075 3.7178503266 10.1935519005 
Si 1.0530308508 1.0288918459 1.8429038463 
Si 0.5693139683 6.3485792646 1.3123687475 
Si 2.1772771177 7.3269719635 2.3384392086 
Si 2.4914471994 8.4311849637 5.9323891437 
Si 6.1609908279 6.1206506523 0.3239616221 
Si 1.5094243261 4.2073170082 7.0822496566 
Si 9.6333795720 2.2069474492 1.0803983939 
Si 6.6285330212 8.9390011289 3.6204976546 
Si 1.4035203313 8.2920466667 8.4344951532 
Si 0.1937685605 3.1845898385 2.7224763558 
Si 5.3560079209 2.0517768013 3.4591148844 
Si 2.9926981555 10.1138425383 1.6010614043 
Si 7.2074079201 4.2069197855 6.5456789790 
Si 1.0618734703 1.9521180306 7.9040262582 
Si 5.8772303533 6.7081651457 2.6819596368 
Si 8.7682394886 6.4469911973 6.3659577593 
Si 4.5098131551 5.5687537975 8.6239593639 
Si 10.2361209369 7.4772435310 4.7888731606 
Si 5.0581901751 8.4321559526 10.1230779669 
Si 1.0903124113 6.4286196457 6.4497165866 
Si 8.3163655253 7.9777000416 0.4905093913 
Si 4.9715845848 4.2971996860 2.3823654227 

