&CONTROL
   calculation      = 'scf'
   tstress          = .true.
   tprnfor          = .true.
   outdir           = './'
   disk_io          = 'none'
   pseudo_dir       = '/home/ppiaggi/pseudos'
/
&SYSTEM
   ecutwfc          = 30
   occupations      = 'smearing'
   degauss          = 0.01
   smearing         = 'fermi-dirac'
   input_dft        = 'PBE'
   ntyp             = 1
   nat              = 64
   ibrav            = 0
/
&ELECTRONS
   electron_maxstep = 100
   mixing_beta      = 0.5
/
&IONS
/
&CELL
/

ATOMIC_SPECIES
Si 28.085 Si_ONCV_PBE_sr.upf

K_POINTS gamma

CELL_PARAMETERS angstrom
11.00344697751766 0.00000000000000 0.00000000000000
0.00000000000000 11.00344697751766 0.00000000000000
0.00000000000000 0.00000000000000 11.00344697751766

ATOMIC_POSITIONS angstrom
Si 6.7292350232 8.1911419852 9.3827272653 
Si 7.4044945573 1.5214796239 4.5534794386 
Si 10.3294308329 10.3355927632 4.1883520575 
Si 8.9722326724 5.9951400581 3.7116277172 
Si 3.3340884480 1.7403051740 3.3640508341 
Si 4.5021263515 6.2226583313 0.9070735530 
Si 7.6714381810 9.3187752315 5.7183373460 
Si 3.6837449826 2.8230003428 9.7839789628 
Si 6.0552738959 10.3257556816 9.1480787585 
Si 1.7897216543 10.2822480523 6.8977198033 
Si 10.0893466233 7.7453483344 8.0960611999 
Si 9.8738771246 8.8423039705 2.0207830374 
Si 7.4031851472 3.8770975529 2.6181161600 
Si 9.3775996590 2.4277235170 6.0906939917 
Si 8.3607711238 2.6912120583 8.6311148126 
Si 4.2143201924 10.8219781300 6.4524103042 
Si 6.2615885267 0.1095287514 3.0718432962 
Si 8.4455856931 5.7524480316 1.3776645719 
Si 6.4734488948 5.8788886408 7.8552617662 
Si 4.9230522122 3.3127197539 0.9544786032 
Si 5.6159172615 1.7551708308 6.5493616755 
Si 0.0118470813 10.3859775469 8.7138717373 
Si 3.7312358597 8.8317406614 3.3428581952 
Si 3.5423726958 3.1215238593 6.8849007876 
Si 3.8427998086 5.8202952857 4.9285869460 
Si 0.8560714759 5.1908761116 3.8995885985 
Si 10.7018755062 0.1594146388 0.5924244849 
Si 8.5885094659 10.8552965674 2.1441206746 
Si 6.5579883779 10.7526564140 0.4342158239 
Si 7.3959338756 0.4756206946 7.6079813023 
Si 2.1792436773 4.7721839507 8.6644222466 
Si 2.6653539579 3.3901180000 4.7365327825 
Si 3.9756884378 8.7291555252 7.9630625363 
Si 7.3396842546 2.9508714001 0.1693815610 
Si 10.1669099211 6.8009114768 10.2422175122 
Si 6.3048760871 4.5026105032 9.7662634132 
Si 4.0611192001 0.4343313601 0.2888206770 
Si 8.6604830126 10.0109910774 9.1786243273 
Si 5.6266676292 5.1962127834 6.0552959028 
Si 10.4619893586 1.7133357254 4.1031193572 
Si 2.0890044087 0.3012776793 4.9202793436 
Si 10.0494041108 4.6351800324 10.5283071336 
Si 1.9063471889 1.4106969198 1.2754315461 
Si 0.3669374481 5.5976845498 1.3751777929 
Si 2.4141892772 6.8109466205 2.5605021117 
Si 3.2825923161 8.2682981554 5.5392122326 
Si 6.5676934182 6.4901521273 0.4131343199 
Si 0.7154210152 3.3444426916 6.4606408825 
Si 9.0301658207 2.0322706361 1.6688377858 
Si 5.9529638459 8.8194057973 4.1219352516 
Si 1.7015290268 7.5361177901 7.7201064270 
Si 10.8813967436 3.6101539292 2.8623046554 
Si 5.4686031134 2.1720474230 2.6790312425 
Si 2.5789658957 10.3430751072 1.8455421409 
Si 7.3446358058 3.5963996205 4.9299293666 
Si 1.8827557985 1.7199708039 8.0948398173 
Si 6.2661879675 6.7492282864 3.0020704389 
Si 8.5240292666 6.6540594735 6.3745609168 
Si 4.0755667260 6.2050418127 7.7092460248 
Si 10.3152914035 8.4104516869 5.6699111758 
Si 4.7007495729 8.5026825795 10.3885083397 
Si 1.0975157115 6.8259113084 5.4481367020 
Si 8.4152932036 8.3083617059 10.9870518415 
Si 4.0613612760 4.7514754635 2.6360957924 

