&CONTROL
   calculation      = 'scf'
   tstress          = .true.
   tprnfor          = .true.
   outdir           = './'
   disk_io          = 'none'
   pseudo_dir       = '/home/ppiaggi/pseudos'
/
&SYSTEM
   ecutwfc          = 30
   occupations      = 'smearing'
   degauss          = 0.01
   smearing         = 'fermi-dirac'
   input_dft        = 'PBE'
   ntyp             = 1
   nat              = 64
   ibrav            = 0
/
&ELECTRONS
   electron_maxstep = 100
   mixing_beta      = 0.5
/
&IONS
/
&CELL
/

ATOMIC_SPECIES
Si 28.085 Si_ONCV_PBE_sr.upf

K_POINTS gamma

CELL_PARAMETERS angstrom
10.87011567749635 0.00000000000000 0.00000000000000
0.00000000000000 10.87011567749635 0.00000000000000
0.00000000000000 0.00000000000000 10.87011567749635

ATOMIC_POSITIONS angstrom
Si 7.0157248399 8.2556245846 5.4960717980 
Si 6.6018560556 3.5116017397 3.1334521555 
Si 0.1758078159 10.4077118267 4.3285235432 
Si 7.9388694138 5.3732394909 2.9282569819 
Si 3.7945399807 2.1479674682 4.7687414879 
Si 1.9823938662 7.9596095945 10.8598216779 
Si 8.2137746393 10.8051884766 5.6062947710 
Si 3.2129127011 0.0050675827 10.4510727181 
Si 7.1449705153 9.2965251217 7.7847094332 
Si 0.7426810875 9.7257207691 9.0052386319 
Si 10.3032174047 0.4564285482 6.4638381968 
Si 0.0908865590 8.7689766676 1.2802930946 
Si 7.4998145715 4.6423437829 0.3562397790 
Si 8.1751205079 2.9698569146 6.4858827914 
Si 10.1456224676 3.1146359853 8.4017406796 
Si 3.4052811383 9.2261519928 6.4182380615 
Si 6.0571871693 1.1808206660 2.9814879384 
Si 7.9690231147 5.2894091588 8.2110679805 
Si 8.6882008380 7.3712428432 7.6485938447 
Si 5.5582053793 0.6169399373 9.1506155589 
Si 3.7828872167 0.8664558336 6.5581799308 
Si 9.0122824668 10.7895789904 8.3578362823 
Si 3.4270213696 8.8251860358 3.9095240643 
Si 3.7088073784 4.2023432405 9.9739724709 
Si 3.6972741856 5.3776636280 2.9443447531 
Si 0.8931984922 3.3853888266 2.2249713677 
Si 10.4143643375 1.4030601811 10.1519271347 
Si 8.5100939926 0.2193480643 3.1606165746 
Si 6.4991660728 8.0847681064 1.2993157970 
Si 5.9278980135 1.6721064142 6.9085020188 
Si 1.1625914821 5.3595431451 1.5937328802 
Si 0.7731913281 3.9489391038 4.3812436043 
Si 5.1921216235 8.0221779803 7.1653085017 
Si 7.0407369760 1.9058682519 0.3926655367 
Si 10.1061639477 7.9501525939 9.4350647460 
Si 5.2260363844 3.3361145922 8.3000616175 
Si 4.9057810363 9.3462341607 9.7117744107 
Si 8.5408020694 0.1111523679 0.6581518069 
Si 4.5645789753 4.9654144909 5.1582612131 
Si 0.5444667021 2.8038919884 6.4218034595 
Si 1.2176703582 9.5574731186 6.8165191000 
Si 0.2062919683 4.4684219320 10.4504857319 
Si 1.5465783184 1.2466826969 0.8052875187 
Si 10.1632429251 8.1482821923 3.4881005496 
Si 2.4338189002 7.2437581266 2.7224313415 
Si 3.9270575609 6.0309358400 7.1708957412 
Si 4.2698249186 7.3158596038 10.2085495672 
Si 2.6025230955 3.9030128650 7.6443001490 
Si 9.0373380835 2.9654871281 1.4508886901 
Si 5.8391000385 9.5331023193 3.4539466462 
Si 1.0653191649 6.3442560542 9.1224076088 
Si 1.6289303147 1.1001209273 3.6703271689 
Si 4.1886577648 2.4373299476 2.0437774095 
Si 2.5631624066 9.7203726722 1.7560563176 
Si 6.2836877697 3.5366464863 5.4592873266 
Si 1.8610942454 2.7157679606 9.7447869520 
Si 5.9443118881 7.1360570204 3.3840626725 
Si 9.0839926199 5.0223630269 6.3618547715 
Si 6.6336185336 6.9830275319 9.0285332898 
Si 8.9815852602 6.6942955193 4.7489904878 
Si 7.9189988423 8.3204104741 10.4442897659 
Si 1.0302652159 5.1395320038 6.3868777778 
Si 8.9282782129 7.0719776885 1.2741732195 
Si 4.8009279005 5.6264370954 0.8040733268 

