&CONTROL
   calculation      = 'scf'
   tstress          = .true.
   tprnfor          = .true.
   outdir           = './'
   disk_io          = 'none'
   pseudo_dir       = '/home/ppiaggi/pseudos'
/
&SYSTEM
   ecutwfc          = 30
   occupations      = 'smearing'
   degauss          = 0.01
   smearing         = 'fermi-dirac'
   input_dft        = 'PBE'
   ntyp             = 1
   nat              = 64
   ibrav            = 0
/
&ELECTRONS
   electron_maxstep = 100
   mixing_beta      = 0.5
/
&IONS
/
&CELL
/

ATOMIC_SPECIES
Si 28.085 Si_ONCV_PBE_sr.upf

K_POINTS gamma

CELL_PARAMETERS angstrom
10.97614787130991 0.00000000000000 0.00000000000000
0.00000000000000 10.97614787130991 0.00000000000000
0.00000000000000 0.00000000000000 10.97614787130991

ATOMIC_POSITIONS angstrom
Si 6.5853923668 0.2549901840 7.6990213537 
Si 8.9651090345 0.0133170309 5.0361639755 
Si 10.8010124559 8.9374381657 3.4671565657 
Si 0.0707162474 6.2505210714 3.5230800391 
Si 2.6573583281 1.6542591503 2.3498176409 
Si 6.1313640101 8.1471006382 0.1820844147 
Si 5.5272148790 9.4771024281 5.6753379945 
Si 4.4571502230 3.9863612885 10.6093469617 
Si 4.6735340021 9.5977193170 9.8610919852 
Si 0.4949990239 9.2605430306 7.7118744228 
Si 9.9450924449 7.7587645265 9.6679995919 
Si 9.1033426408 7.6062399757 2.5333607856 
Si 7.9802522144 2.4631353915 1.7050896911 
Si 8.6953372721 2.9158685628 5.7755941291 
Si 8.3650320542 2.9045850827 8.6771827235 
Si 3.5422773218 0.5289932514 6.1650059033 
Si 5.0051892862 0.0529516814 2.5658501833 
Si 8.6668870968 5.0819784167 2.8634903851 
Si 6.7795165180 8.1364647509 8.6396003932 
Si 6.2896729908 4.0196080404 1.4269321517 
Si 5.6233988628 1.0293332688 5.6679400708 
Si 10.9075908517 0.5278747820 8.7857148737 
Si 4.0631284667 9.0289243582 2.8115293011 
Si 3.0279789371 2.7709175540 6.6354326249 
Si 4.2205374033 5.0294795014 4.2203837373 
Si 0.2784725548 5.9158253943 6.3502503509 
Si 0.4364555440 0.1717339072 0.2978509439 
Si 6.8213027130 9.3347747186 3.1226482125 
Si 6.1157888563 10.6535588854 0.8291151603 
Si 9.0386492252 1.1437475366 7.3538105270 
Si 3.6600404123 4.5671422008 8.2453371617 
Si 2.8596267811 3.1483982554 4.4455594108 
Si 2.9941175209 9.7067783223 7.6780898397 
Si 8.0343316950 1.0163803167 10.4136422452 
Si 10.7746916533 5.4339725028 10.6112348592 
Si 6.6860875474 5.6044869600 9.8199204545 
Si 4.1227948065 1.2921450559 10.2321187117 
Si 8.4409869975 10.1464718299 9.1106417791 
Si 7.8797546045 5.0442424203 5.3270099418 
Si 10.8419644636 1.0666302193 4.0345904822 
Si 1.9276530415 10.6581469152 3.7288608594 
Si 8.4044474012 4.3618114026 10.9659290776 
Si 2.3249676421 3.3187809988 0.2172025998 
Si 1.0768577939 4.9526354902 1.5834190919 
Si 2.0763359405 7.1737029165 2.0876633251 
Si 3.2847000597 6.7410231675 5.5681888390 
Si 8.4302742772 7.2402842295 0.2581469242 
Si 10.9271942518 3.8162858772 5.3200949686 
Si 9.1530316622 0.4193261676 2.2518994257 
Si 5.6424863839 6.7728539963 4.7166922156 
Si 1.7435062086 5.7265746528 8.7726532577 
Si 10.1820016205 3.2253300758 2.9327059736 
Si 4.7549879955 2.5667172990 3.1643905029 
Si 1.9226698703 9.4245705844 1.6405718939 
Si 6.7718441907 2.5670575596 4.5190776493 
Si 2.0834594605 2.1248395380 9.2012279275 
Si 5.8052407045 7.3842583612 2.3773677720 
Si 7.8497677685 7.1865011050 6.6579995850 
Si 3.3398552027 7.2681416928 7.9263812807 
Si 9.9853310030 8.5461055656 5.8776942566 
Si 3.1162930229 7.9333291823 10.2558491434 
Si 1.6068751199 8.2405076566 5.6251660226 
Si 8.7197921296 9.4765975253 0.8933223325 
Si 4.2633224277 5.5154264962 1.7865985652 

