&CONTROL
   calculation      = 'scf'
   tstress          = .true.
   tprnfor          = .true.
   outdir           = './'
   disk_io          = 'none'
   pseudo_dir       = '/home/ppiaggi/pseudos'
/
&SYSTEM
   ecutwfc          = 30
   occupations      = 'smearing'
   degauss          = 0.01
   smearing         = 'fermi-dirac'
   input_dft        = 'PBE'
   ntyp             = 1
   nat              = 64
   ibrav            = 0
/
&ELECTRONS
   electron_maxstep = 100
   mixing_beta      = 0.5
/
&IONS
/
&CELL
/

ATOMIC_SPECIES
Si 28.085 Si_ONCV_PBE_sr.upf

K_POINTS gamma

CELL_PARAMETERS angstrom
10.86419855217245 0.00000000000000 0.00000000000000
0.00000000000000 10.86419855217245 0.00000000000000
0.00000000000000 0.00000000000000 10.86419855217245

ATOMIC_POSITIONS angstrom
Si 6.9978367072 8.0943711313 5.3892074202 
Si 6.4983334504 3.4643647701 2.7005572909 
Si 10.6058370464 10.4466656734 4.2280310147 
Si 8.1869449672 5.3538661823 2.6354807416 
Si 4.0065860557 2.3737513343 4.8538305797 
Si 1.9351419103 7.4890940374 10.8408405253 
Si 8.3356649811 0.1740651028 5.6610948532 
Si 3.5645218166 10.6888721159 10.4943269125 
Si 7.3902081021 9.2695514887 7.6767513390 
Si 0.7209112776 9.9774300737 9.4624996550 
Si 10.6933047089 0.7742979493 6.5717102474 
Si 0.2581529132 8.5791425349 1.1905314699 
Si 7.5116915703 4.7578019287 10.7350666882 
Si 8.4152886923 2.7122471685 6.7122277915 
Si 10.0657234154 3.0667351031 8.7511879832 
Si 3.2905375933 9.1777381467 6.3103936796 
Si 5.7427393053 0.7098189309 2.8170975488 
Si 7.7685972735 5.0185644224 8.2137904018 
Si 8.7561855145 7.4021043996 7.4024085971 
Si 5.7754622713 0.7903574076 9.2616858089 
Si 3.6833435561 0.5192152587 6.5458751833 
Si 8.7314477344 0.1656942378 8.1915296589 
Si 3.4937524272 8.8957687375 4.1025495215 
Si 3.7362956599 4.0016211169 10.0784997129 
Si 3.5912477450 4.7684379791 2.7956733492 
Si 0.8270512382 2.9540516357 2.1976644041 
Si 10.3245629459 1.2527507351 9.9775387157 
Si 8.3147079421 0.1979761174 3.2852467286 
Si 6.7373023617 8.1999711412 1.4955438443 
Si 5.9099175926 1.8309651104 6.9160401563 
Si 0.7682487636 5.6556627539 2.0979745182 
Si 0.4747187607 3.8194502356 4.4704112844 
Si 5.3100508696 8.0021775424 6.9131394153 
Si 6.7979354539 2.2586342864 0.3824208755 
Si 10.2401263947 7.9857291458 9.1652334542 
Si 4.9465565144 3.3656961189 8.3376965863 
Si 5.0298740531 9.3110744556 9.3545203856 
Si 8.7223761286 0.4920949598 0.6973261890 
Si 4.3720794234 5.2093397490 4.9028824362 
Si 0.5330529884 2.8058856959 6.8985705251 
Si 1.0682516560 9.7299327665 7.0754070849 
Si 0.0311024622 4.3761860904 10.5609896348 
Si 1.6711744781 1.4246658129 0.6036572419 
Si 9.9802873580 8.3176630041 3.2270580811 
Si 2.3350965158 7.2177715427 2.7676980380 
Si 4.0761386548 5.9158711734 7.1166475826 
Si 4.2422413865 7.1461656101 10.0069372370 
Si 3.0095894187 3.8691974008 7.6879957845 
Si 8.8307139166 2.9863617622 1.4366164313 
Si 5.6954474490 9.5659702820 3.6891450382 
Si 0.8826618114 6.0210148870 9.0884887556 
Si 1.6078905215 1.2219181396 3.3725296998 
Si 4.2510522515 2.3775646680 1.9927221626 
Si 2.4912367774 9.7346804213 1.8147014052 
Si 6.1190099579 3.7487025746 5.3653170476 
Si 1.9693967283 2.6909316110 9.7507485710 
Si 5.8611482053 7.1828322802 3.6028615733 
Si 9.5588107751 5.1601901147 6.2352568825 
Si 6.6072144483 6.7672332288 9.2965598863 
Si 8.7249183511 6.8220865672 4.6982661207 
Si 8.2584857146 8.5876600666 10.4882429613 
Si 1.2654509832 5.1702503626 6.5125438221 
Si 9.2889114905 7.0893458516 1.5910618780 
Si 4.5954473456 5.7745062219 0.8806704038 

