&CONTROL
   calculation      = 'scf'
   tstress          = .true.
   tprnfor          = .true.
   outdir           = './'
   disk_io          = 'none'
   pseudo_dir       = '/home/ppiaggi/pseudos'
/
&SYSTEM
   ecutwfc          = 30
   occupations      = 'smearing'
   degauss          = 0.01
   smearing         = 'fermi-dirac'
   input_dft        = 'PBE'
   ntyp             = 1
   nat              = 64
   ibrav            = 0
/
&ELECTRONS
   electron_maxstep = 100
   mixing_beta      = 0.5
/
&IONS
/
&CELL
/

ATOMIC_SPECIES
Si 28.085 Si_ONCV_PBE_sr.upf

K_POINTS gamma

CELL_PARAMETERS angstrom
10.79288397692526 0.00000000000000 0.00000000000000
0.00000000000000 10.79288397692526 0.00000000000000
0.00000000000000 0.00000000000000 10.79288397692526

ATOMIC_POSITIONS angstrom
Si 6.8643605524 0.1412971992 7.3118335221 
Si 9.2500951768 9.8917429222 4.9725838489 
Si 0.1261644965 8.1908599576 4.0333547066 
Si 9.5187408519 5.6429082870 4.8155365942 
Si 1.7210332790 0.7699902458 1.8736554513 
Si 5.5182073055 8.5959492719 10.7028497388 
Si 4.6245888909 9.1343954606 5.2034004657 
Si 4.6025498218 3.8010055003 0.2980260638 
Si 4.1570627427 10.4048366264 9.5260044628 
Si 0.3491789374 9.5456798903 7.7555397753 
Si 10.2242500917 7.2182376322 8.3822285834 
Si 9.3278686988 7.2269043181 2.4267259978 
Si 7.7675630480 1.3784239700 0.5716375448 
Si 9.3352078599 2.7326718799 5.8893853783 
Si 8.0574922903 4.0678703496 8.1622804008 
Si 2.7996309321 10.7912542514 6.0470909990 
Si 4.9104492159 0.0175409188 2.5524954748 
Si 8.6597028375 4.9391367015 2.8312109106 
Si 5.2904882465 9.1304992295 7.7266256391 
Si 6.8207680940 3.5961889411 1.0213888923 
Si 5.9142737688 0.8386966659 5.1163450635 
Si 0.2041355283 1.0668517575 9.2844920981 
Si 3.0593293063 8.8998337131 2.2698190505 
Si 2.0397687286 2.2514063905 6.4719420839 
Si 3.6860936646 4.9734149010 3.7965264535 
Si 0.5674930774 6.2507635125 6.4123869501 
Si 0.0242021789 0.0302869910 0.7197105165 
Si 7.0016028650 9.8194521853 4.1804401294 
Si 5.7130188613 0.2332266677 0.3503197453 
Si 9.9278774977 0.5158696340 6.8828703484 
Si 4.5423039434 4.8735375527 8.7741829579 
Si 2.2413690084 2.9430036028 4.2261264073 
Si 2.9217092427 9.4327323595 7.9301362593 
Si 6.7032227946 1.5313591360 9.2638345181 
Si 10.5006342646 5.6962898911 9.9871304307 
Si 6.4426070252 5.8612483298 9.2775738594 
Si 4.5096554694 2.1663152932 8.7563207349 
Si 8.9692211642 8.7749600455 9.1595212945 
Si 7.0655614955 4.5427896232 6.0329631139 
Si 10.7854800585 1.3063059193 3.8600857472 
Si 1.5536032698 10.2479836436 3.8995121524 
Si 9.4563040181 3.1717695716 0.6825344277 
Si 2.5845179615 2.9439641695 0.7742178185 
Si 1.1819503101 4.9526493922 0.7314844737 
Si 2.8664172981 6.5626454808 1.7841392716 
Si 3.3660091045 6.7688867007 5.1215580265 
Si 8.0513727251 6.4096455576 0.2201651195 
Si 0.4758949503 3.8356398650 6.8374754784 
Si 8.7092421750 0.7872955560 2.7709650322 
Si 5.8669793512 6.8795245544 4.5015500135 
Si 1.8677193651 5.4397538319 8.4711727402 
Si 10.7697224479 3.7949938640 2.7746561986 
Si 4.5715094875 2.3260499761 4.0292642036 
Si 1.8444067357 9.2074309065 0.4281493902 
Si 7.3512923059 2.6804019428 4.3495430356 
Si 2.0747700513 2.4490780605 8.8898395026 
Si 5.5173654605 8.4211585159 2.5469371395 
Si 6.7722217019 7.2670322607 6.8577984789 
Si 3.8352944927 7.1156944416 7.4759285301 
Si 8.8630191859 8.0476815587 6.7010210463 
Si 2.7996201392 7.6314647811 10.1801395749 
Si 1.7066247789 8.3367581632 5.8434400713 
Si 8.8871520745 9.5807567632 1.1074470320 
Si 5.5264422760 5.4484421035 2.1441467095 

