&CONTROL
   calculation      = 'scf'
   tstress          = .true.
   tprnfor          = .true.
   outdir           = './'
   disk_io          = 'none'
   pseudo_dir       = '/home/ppiaggi/pseudos'
/
&SYSTEM
   ecutwfc          = 30
   occupations      = 'smearing'
   degauss          = 0.01
   smearing         = 'fermi-dirac'
   input_dft        = 'PBE'
   ntyp             = 1
   nat              = 64
   ibrav            = 0
/
&ELECTRONS
   electron_maxstep = 100
   mixing_beta      = 0.5
/
&IONS
/
&CELL
/

ATOMIC_SPECIES
Si 28.085 Si_ONCV_PBE_sr.upf

K_POINTS gamma

CELL_PARAMETERS angstrom
11.03067696547071 0.00000000000000 0.00000000000000
0.00000000000000 11.03067696547071 0.00000000000000
0.00000000000000 0.00000000000000 11.03067696547071

ATOMIC_POSITIONS angstrom
Si 7.0176394707 8.7166505210 8.0188388655 
Si 7.4220240882 1.3314578631 4.9521893316 
Si 10.1261614543 10.3190659331 4.4794365782 
Si 8.2790194430 6.1407778667 4.0381874383 
Si 2.5811122259 2.0374432503 3.5032657895 
Si 3.7117124921 7.2172175090 0.5413415028 
Si 8.2709449875 9.1901864524 5.4742492110 
Si 3.0698594608 1.7175646489 9.1854873840 
Si 6.6242744994 10.9133988080 9.5416017592 
Si 1.9021630280 10.3177532825 7.5741702156 
Si 9.4168337720 8.2743424360 7.6660006014 
Si 10.4803123690 8.8813936815 1.3852985974 
Si 7.4669961582 3.7349430978 2.3502401570 
Si 9.7402311593 1.5187697887 6.7301579676 
Si 8.5824071823 3.0076685041 8.7820293434 
Si 4.2043535561 10.8353347071 6.7003420478 
Si 7.1248686815 0.1187474437 3.0343517117 
Si 8.8020279607 5.7473908341 0.7559631783 
Si 7.1600344796 5.7903332595 8.0424114221 
Si 5.1075784780 2.6658719477 10.8396035791 
Si 5.1989014526 1.9176059757 5.8991177957 
Si 0.1294163144 9.6903504381 9.2382471120 
Si 3.9076504070 9.1043677856 3.9038448235 
Si 3.8719992591 3.3672244505 7.5047651962 
Si 3.8176842057 6.2685461980 4.2790533005 
Si 0.0056095515 5.4936301105 3.8553208755 
Si 10.5637815016 0.2349026783 0.0967801814 
Si 9.5968323588 0.1593745300 2.3700402221 
Si 6.2093224933 10.4340166177 0.7387244364 
Si 7.4389010240 0.9642223594 7.5137662286 
Si 1.7721554692 6.0292356612 8.8975205312 
Si 1.6868221522 4.0753497890 4.6289904965 
Si 4.5445506644 8.4334268592 7.7273311653 
Si 7.4400813064 2.9558353531 11.0172305702 
Si 0.1159831560 6.7362469013 9.9715003326 
Si 6.1747413211 4.0287451788 9.3916286752 
Si 4.0573477241 0.3416575699 10.8738538311 
Si 8.7638066650 9.8261380715 9.5328103097 
Si 4.4598130039 5.1797080747 6.2120801626 
Si 10.8094236469 1.4673006499 4.4580480956 
Si 1.6500789673 0.1313124878 5.4469151935 
Si 10.1931838475 3.6974939495 10.2580221667 
Si 1.1557502097 1.0928709388 1.8268455656 
Si 0.4725266245 6.2532576797 1.3015536979 
Si 2.2087496635 7.1949024495 2.3780815856 
Si 2.5612459766 8.4085195906 5.8390888517 
Si 6.2358843635 6.0679643680 0.3142011119 
Si 1.5039335281 4.1616427749 7.0832830293 
Si 9.6058664832 2.3582815205 1.0728304048 
Si 6.5543951609 8.9209165970 3.6461351176 
Si 1.4294874893 8.1437612821 8.4115750881 
Si 0.0723071906 3.2722723832 2.6963717695 
Si 5.3369944976 2.0880189041 3.3214581717 
Si 2.9747639947 10.1424537642 1.6086808366 
Si 7.2885198049 4.3383652505 6.3849970547 
Si 1.2300087271 1.8772778207 7.9434221271 
Si 5.9875507330 6.6989080598 2.7150246442 
Si 8.7145988151 6.5158429449 6.4190046318 
Si 4.4199371067 5.6214977179 8.5074316710 
Si 10.2002434808 7.6487155306 4.8701100643 
Si 4.9780672998 8.4201128321 10.1818774037 
Si 1.1534117062 6.4772245448 6.3538353923 
Si 8.3093758661 8.0056020531 0.4558603747 
Si 4.8265057983 4.2917165176 2.4366544803 

