&CONTROL
   calculation      = 'scf'
   tstress          = .true.
   tprnfor          = .true.
   outdir           = './'
   disk_io          = 'none'
   pseudo_dir       = '/home/ppiaggi/pseudos'
/
&SYSTEM
   ecutwfc          = 30
   occupations      = 'smearing'
   degauss          = 0.01
   smearing         = 'fermi-dirac'
   input_dft        = 'PBE'
   ntyp             = 1
   nat              = 64
   ibrav            = 0
/
&ELECTRONS
   electron_maxstep = 100
   mixing_beta      = 0.5
/
&IONS
/
&CELL
/

ATOMIC_SPECIES
Si 28.085 Si_ONCV_PBE_sr.upf

K_POINTS gamma

CELL_PARAMETERS angstrom
10.69113854082442 0.00000000000000 0.00000000000000
0.00000000000000 10.69113854082442 0.00000000000000
0.00000000000000 0.00000000000000 10.69113854082442

ATOMIC_POSITIONS angstrom
Si 10.1319919951 8.9055152729 1.0761486232 
Si 2.6480346495 0.6338679821 0.4669376140 
Si 5.8166101434 3.0314830244 1.2410059795 
Si 3.5995139062 8.4409639210 7.9667263976 
Si 9.9670277275 4.8670659827 2.9035849340 
Si 0.4364978043 1.9660362308 0.3598145440 
Si 8.1254042758 5.4299009712 7.7330394914 
Si 4.0256626884 4.6322030513 6.5190607101 
Si 4.9480727395 6.7797855057 9.6231044917 
Si 0.2559319582 2.3583368684 2.6866189685 
Si 9.9339386537 4.5049036647 0.0544774448 
Si 8.6237716989 3.9427636002 5.2159819802 
Si 9.5434875830 3.3465081126 7.3618645435 
Si 10.0561383672 6.2926117046 4.9966105084 
Si 7.7104704979 9.0701053507 6.8785823169 
Si 0.3773255599 0.7965785577 6.1167531668 
Si 4.3790475818 0.0578332863 9.2212566674 
Si 9.0197607793 8.3023426187 5.1188743688 
Si 3.9064885671 8.1142854917 2.6444958826 
Si 2.2943610954 1.7772734887 7.4647026051 
Si 3.8666854583 1.9814314703 2.5106855927 
Si 7.8023501425 5.2755209307 1.4230226132 
Si 2.8647974834 4.7576101064 0.4755407732 
Si 4.4178671058 6.2001761208 1.4665569293 
Si 10.6373514228 0.0722574497 3.7368095073 
Si 5.6549922021 1.0091077008 7.4732341337 
Si 8.1166161599 1.0000587211 0.2490554179 
Si 8.1530622512 2.6184843426 2.4448388704 
Si 5.2848756769 4.7097351880 8.7068418454 
Si 6.9379715915 7.9844736876 2.4300316435 
Si 6.7241488207 0.7000824795 3.4056301088 
Si 1.2139573990 5.9255528451 9.0381388465 
Si 6.3046285444 10.0571433342 10.6284563956 
Si 1.1651951161 7.5165867005 3.4761809320 
Si 3.5206667595 5.9604487213 4.5624861369 
Si 0.0295465650 8.3647681766 7.1167488102 
Si 1.7853025338 9.2647482190 5.1991648192 
Si 10.3675498506 10.4836021595 10.0221726200 
Si 1.0741173069 4.5574933752 6.3676100415 
Si 1.6014790977 9.5526178153 2.0045670941 
Si 0.7530121682 6.3153838297 1.3384022516 
Si 4.9133158481 10.4295049985 2.2407664179 
Si 7.4034423813 3.8902166543 9.7514729922 
Si 1.7701852639 10.1026448198 8.3480044714 
Si 9.5806499806 6.7717243872 8.9605746364 
Si 1.2625272414 3.1011571743 9.0689720900 
Si 6.2055751458 3.0260412349 4.6546972068 
Si 2.2300966616 4.4863866127 2.9381386938 
Si 1.8946514988 2.7945780855 4.6727545398 
Si 7.9088766470 1.7826083669 8.4414557134 
Si 9.4504853689 0.2033369021 7.5965777990 
Si 4.2822286311 8.1823132063 5.3856824222 
Si 6.9544787094 8.3298295359 9.1548860793 
Si 1.8935823849 6.8656139659 7.1336194268 
Si 7.0387890280 6.1392152489 4.2903859698 
Si 2.5650393410 7.8613438450 10.4895571236 
Si 8.7647236694 9.7241785155 3.1415803691 
Si 5.9602242074 10.2624238853 5.6329577655 
Si 3.9991379737 3.1195459326 10.1511718977 
Si 8.3263121513 7.4861704113 0.1301336074 
Si 5.5251803979 4.9310096824 2.9653262591 
Si 4.1608948998 2.2595721306 5.8366774104 
Si 6.4182112002 6.5997788061 6.3217236749 
Si 3.4620044823 0.4248049061 4.5836439000 

