&CONTROL
   calculation      = 'scf'
   tstress          = .true.
   tprnfor          = .true.
   outdir           = './'
   disk_io          = 'none'
   pseudo_dir       = '/home/ppiaggi/pseudos'
/
&SYSTEM
   ecutwfc          = 30
   occupations      = 'smearing'
   degauss          = 0.01
   smearing         = 'fermi-dirac'
   input_dft        = 'PBE'
   ntyp             = 1
   nat              = 64
   ibrav            = 0
/
&ELECTRONS
   electron_maxstep = 100
   mixing_beta      = 0.5
/
&IONS
/
&CELL
/

ATOMIC_SPECIES
Si 28.085 Si_ONCV_PBE_sr.upf

K_POINTS gamma

CELL_PARAMETERS angstrom
10.67162517699186 0.00000000000000 0.00000000000000
0.00000000000000 10.67162517699186 0.00000000000000
0.00000000000000 0.00000000000000 10.67162517699186

ATOMIC_POSITIONS angstrom
Si 8.7660464273 8.9494062911 6.5309812502 
Si 10.6624582510 8.6444432584 3.5981518609 
Si 9.2666203494 1.9765557288 10.1183120832 
Si 5.5579744814 10.3877172608 4.8208746588 
Si 5.5542180694 5.9157727304 3.3046821686 
Si 7.6228805951 4.0958978024 0.3004222562 
Si 3.2122552229 0.7219087642 9.6504893787 
Si 5.7788877942 2.5279906166 8.0826568942 
Si 6.8387615919 0.7233472992 6.5259762580 
Si 0.9662569658 5.9849462048 8.5344081312 
Si 3.3377962215 9.3690359363 4.3963147228 
Si 3.9525672047 3.4434666540 1.0018105523 
Si 2.5697593575 6.9279977217 4.2251631982 
Si 4.6574707341 8.3650814545 2.4791679314 
Si 7.4814815615 7.1861229914 9.1590290244 
Si 2.8088571196 4.8684060774 2.6276742673 
Si 3.3310944409 2.7575586174 8.1725973512 
Si 8.8585267310 7.7511855446 2.3317927877 
Si 9.3194448941 6.2100534662 7.6418974311 
Si 1.2446636593 0.9904890251 6.6325431070 
Si 0.9770406431 5.2760301443 0.1771521794 
Si 9.3445658997 9.1162998372 10.2712471436 
Si 7.2277209864 9.9978187633 8.5621756999 
Si 8.0749839957 5.4465306997 2.9111126320 
Si 7.3407548402 7.9165850632 4.9558280308 
Si 1.0034390423 3.5662116868 6.8494438887 
Si 10.2240999036 3.7561986298 3.3592888746 
Si 9.2175949034 3.2001642716 7.7044331547 
Si 3.4623554305 4.4891045037 9.7470142284 
Si 5.8545282735 2.3045267853 10.4490897772 
Si 8.2496358133 5.4778199047 5.4353468365 
Si 8.2876694855 2.4288085322 2.4779833810 
Si 0.7371457106 5.9656839213 5.5118730607 
Si 8.1928307525 0.2198141354 0.8390800071 
Si 5.7790265253 5.4183469376 0.9279148837 
Si 3.0919860072 6.1530243013 7.2686253257 
Si 1.4290693423 0.2933117523 4.0439590027 
Si 1.2588996073 7.0885416508 1.9837270609 
Si 3.5626793788 8.3670236903 6.6757631890 
Si 9.1958888178 10.6106154959 3.2955152425 
Si 5.9748295041 5.6302533988 6.6893054813 
Si 7.2012660276 4.5705823619 8.5729006832 
Si 10.1538592667 0.3311191860 8.4257603152 
Si 1.8674383613 8.7835478926 0.4243891900 
Si 0.4189626686 10.3130052129 1.3667790662 
Si 9.3621634096 0.4871020626 5.5914727129 
Si 0.6486427215 8.3893167153 5.9583311716 
Si 8.5632535340 2.7215525540 5.5092264976 
Si 2.1333005594 1.4339142602 1.0534526808 
Si 0.2178953772 3.0791480421 1.0714311678 
Si 5.6377662229 1.5794645559 2.5629081741 
Si 2.2340193578 10.0774077439 7.8748376655 
Si 4.1727548470 8.6543571982 0.3801937215 
Si 1.6714646366 3.5660622840 4.5418330037 
Si 4.2934829426 2.1131632027 5.4346531809 
Si 6.7382668976 9.4565005762 2.5358022462 
Si 3.1412782438 1.7882228877 3.3577948471 
Si 5.8636951995 8.2882991113 7.2715280077 
Si 6.2838157395 3.3048315713 4.4307307140 
Si 4.0205668003 4.8195833922 5.1713948594 
Si 5.6904093499 10.6360993368 10.3943229968 
Si 0.7903085457 8.3748246483 8.8965497316 
Si 9.3371064337 6.2292837348 0.2827479106 
Si 4.7164848213 6.8719290030 9.6314832142 

