&CONTROL
   calculation      = 'scf'
   tstress          = .true.
   tprnfor          = .true.
   outdir           = './'
   disk_io          = 'none'
   pseudo_dir       = '/home/ppiaggi/pseudos'
/
&SYSTEM
   ecutwfc          = 30
   occupations      = 'smearing'
   degauss          = 0.01
   smearing         = 'fermi-dirac'
   input_dft        = 'PBE'
   ntyp             = 1
   nat              = 64
   ibrav            = 0
/
&ELECTRONS
   electron_maxstep = 100
   mixing_beta      = 0.5
/
&IONS
/
&CELL
/

ATOMIC_SPECIES
Si 28.085 Si_ONCV_PBE_sr.upf

K_POINTS gamma

CELL_PARAMETERS angstrom
10.67700135017016 0.00000000000000 0.00000000000000
0.00000000000000 10.67700135017016 0.00000000000000
0.00000000000000 0.00000000000000 10.67700135017016

ATOMIC_POSITIONS angstrom
Si 0.5553941208 9.8194886637 8.6514353930 
Si 3.7619133017 2.0538920417 7.9569178092 
Si 7.5313218584 3.3497917266 8.2124291285 
Si 2.1784392625 3.4353358614 10.2666841883 
Si 9.2176901596 9.7938318295 1.2139323455 
Si 1.7589185254 0.8457861359 0.7512754553 
Si 1.3142000652 8.9463555243 0.1582619879 
Si 5.4947158818 10.4921931338 8.8105867752 
Si 0.2015860563 2.5962303253 6.3122645522 
Si 1.7185060753 3.9857673120 7.9726557092 
Si 8.8003902389 6.4738716447 3.0926681801 
Si 3.4501235083 8.2087135320 3.1951673930 
Si 4.2489874263 0.5759206559 3.2050756503 
Si 5.2296806773 4.1615427853 8.1755294118 
Si 4.3111596052 4.2342531644 0.2339042717 
Si 3.3769006330 5.5098665468 6.6677980202 
Si 0.0667711904 7.3924994868 6.5533939507 
Si 6.6647337208 6.7171684744 8.2843600866 
Si 7.9926644097 2.1704208345 5.9363913967 
Si 8.0737135270 3.1052456877 0.4593107180 
Si 3.4210927416 9.8761515099 5.9160944171 
Si 8.0562032448 5.0137490020 5.4511643933 
Si 7.7086241428 1.0804698286 9.1821143911 
Si 2.2034981846 7.5612922012 7.8369616990 
Si 2.3709989818 2.7731909457 5.0156281543 
Si 1.6747196928 1.0649604165 3.1923166337 
Si 4.1860037953 9.6372108967 1.3770021871 
Si 10.3102143228 5.8124954730 1.4164430301 
Si 1.3539825722 6.1156155414 9.8626451032 
Si 9.9499082352 9.4162610307 5.6440337457 
Si 1.7892625633 0.5031269961 7.0037712217 
Si 6.0197360692 9.5170519235 4.2822142545 
Si 10.3302337003 2.4360859821 2.9501835971 
Si 9.3792438671 0.7143704001 7.3930760449 
Si 7.2326647766 0.9806355952 1.3490497976 
Si 5.5155146805 4.2864530240 5.6373179119 
Si 7.5517896700 7.4475501058 6.1797202575 
Si 6.3051323153 0.3340545443 6.1760366920 
Si 10.1950201552 4.3069848976 4.3845853435 
Si 8.5455302166 0.9412310540 3.6324226293 
Si 1.9113647507 6.4278537688 2.6955691459 
Si 5.2198685131 6.3826580221 3.6018330205 
Si 0.2466120387 8.4580428676 2.6650329220 
Si 9.2197721749 5.9543074050 9.9010075690 
Si 1.5338900450 5.5085532756 4.7337766726 
Si 7.2170763546 9.0118802816 10.0259071308 
Si 3.7827334543 4.1068124763 3.1985306485 
Si 8.5400529149 9.0446907068 3.9966898844 
Si 1.4431355335 9.8212930770 4.3782218507 
Si 5.0143896221 7.5740512178 5.5318077845 
Si 4.6882285849 8.5562178950 7.9672638235 
Si 9.1235830697 8.2187819443 8.2976102453 
Si 6.3146455235 8.7545859031 1.7772509367 
Si 4.1320208765 1.3283791230 0.0203989449 
Si 5.1873036590 2.5672422666 2.2555805972 
Si 7.2742944049 3.5737204759 3.1262046413 
Si 6.8801529000 6.3677849592 1.8349494520 
Si 3.0559286184 6.1647724556 0.6110148917 
Si 10.3187345699 3.2511682651 0.3908188220 
Si 3.6262833536 8.2447484116 10.1077677002 
Si 9.8588334137 4.9369173003 7.4819193731 
Si 4.6322704208 1.8710163626 5.9292911908 
Si 10.2273607923 0.8762166574 10.3149762654 
Si 6.7831843738 5.1981087843 10.3418716318 

