&CONTROL
   calculation      = 'scf'
   tstress          = .true.
   tprnfor          = .true.
   outdir           = './'
   disk_io          = 'none'
   pseudo_dir       = '/home/ppiaggi/pseudos'
/
&SYSTEM
   ecutwfc          = 30
   occupations      = 'smearing'
   degauss          = 0.01
   smearing         = 'fermi-dirac'
   input_dft        = 'PBE'
   ntyp             = 1
   nat              = 64
   ibrav            = 0
/
&ELECTRONS
   electron_maxstep = 100
   mixing_beta      = 0.5
/
&IONS
/
&CELL
/

ATOMIC_SPECIES
Si 28.085 Si_ONCV_PBE_sr.upf

K_POINTS gamma

CELL_PARAMETERS angstrom
10.71488761843453 0.00000000000000 0.00000000000000
0.00000000000000 10.71488761843453 0.00000000000000
0.00000000000000 0.00000000000000 10.71488761843453

ATOMIC_POSITIONS angstrom
Si 9.7515013578 6.5743228812 9.2873967155 
Si 8.1644764931 2.8015145167 10.6726602463 
Si 10.3710040152 4.4246164080 8.0944439876 
Si 6.9840708986 3.7662187086 1.6243876778 
Si 5.5412469914 8.8569903947 8.5229966328 
Si 3.4020839677 0.1414204442 4.8020268946 
Si 10.3326768622 1.7082209586 8.8133057979 
Si 6.1489954171 0.5680626250 10.3991198803 
Si 0.0757737566 10.4276750558 6.8081753034 
Si 1.0001726128 7.3223184709 8.0370443346 
Si 3.8946902111 2.3901592662 10.3642214913 
Si 3.1309758812 2.4696101578 3.8224825834 
Si 7.8155783224 9.1911234502 7.2081942029 
Si 2.2671416414 4.0340801841 9.5285459762 
Si 8.6267488896 5.8941953896 1.7491839739 
Si 9.4924153752 4.8479616178 4.5563988109 
Si 0.1505516715 3.4905246501 0.1554119445 
Si 2.1620607385 9.4844756434 6.8102647065 
Si 7.0694256933 4.8892782245 3.7212054657 
Si 10.3304588805 9.8611789474 4.7257261799 
Si 5.9189039204 6.9368932484 3.5252837456 
Si 10.0229308909 2.0678340168 1.9634174370 
Si 0.4187795962 2.4629883573 6.2221352400 
Si 3.2171235777 1.2827756308 1.4298267485 
Si 6.1047643611 4.5678315960 6.1499811868 
Si 7.9968849358 1.1330993656 8.1135057727 
Si 4.0279191237 4.5803144400 3.1980725075 
Si 7.7237303058 6.6824682419 7.3212148375 
Si 1.7408156467 10.1716642460 3.4294390758 
Si 8.4516140515 7.8480230021 3.2664763500 
Si 3.1145713883 6.2386040223 10.0246774176 
Si 3.5562390559 10.2166346293 8.6401853587 
Si 8.2262585351 0.4983344223 3.1187180498 
Si 2.8866871584 8.1820810534 2.6588029285 
Si 1.0880754079 10.0602186998 9.7948430782 
Si 7.4008371674 6.3103187651 10.3710254450 
Si 3.0021507874 7.7988845275 5.1739727885 
Si 3.5903338283 4.9941662594 5.9173931213 
Si 0.8372302453 0.4215054636 1.1541005454 
Si 5.4203294846 7.8235073393 5.7763744853 
Si 5.5202886712 9.7590660684 4.4896986354 
Si 4.8655126038 10.0670762279 2.1267766136 
Si 8.6313348615 0.1280418356 0.1165994071 
Si 5.6913304223 2.4318723237 8.4855159559 
Si 4.7060750760 6.8517848960 1.4796616908 
Si 4.5247256031 6.5525395146 8.1442682150 
Si 2.5371996689 3.1880969471 7.2672868081 
Si 5.6707899827 2.2068061092 5.1048296187 
Si 0.4390928801 3.1935079653 3.8588596269 
Si 8.7631494090 2.9145994406 5.9448768080 
Si 1.9104001730 5.7426975935 2.9721169574 
Si 4.0560457037 1.4500564563 7.0979808688 
Si 0.3047474762 5.5254746768 0.9325188124 
Si 9.5350927725 7.3102963670 5.4770326699 
Si 7.6580909042 9.3788268515 1.6012113759 
Si 1.3004444805 6.3090115488 5.3602939693 
Si 5.9507485664 8.1796380590 0.0227982807 
Si 9.5926210042 9.2502696299 8.9362055589 
Si 8.1149844271 3.9693301182 8.1902029382 
Si 5.9639171633 1.7476838897 2.5435643122 
Si 4.7344588133 4.5190252829 0.9010684743 
Si 1.4159402541 7.8165319474 0.3451404595 
Si 7.6371004394 0.4455025259 5.4033035282 
Si 5.8104692577 4.7189650858 9.3136374752 

