&CONTROL
   calculation      = 'scf'
   tstress          = .true.
   tprnfor          = .true.
   outdir           = './'
   disk_io          = 'none'
   pseudo_dir       = '/home/ppiaggi/pseudos'
/
&SYSTEM
   ecutwfc          = 30
   occupations      = 'smearing'
   degauss          = 0.01
   smearing         = 'fermi-dirac'
   input_dft        = 'PBE'
   ntyp             = 1
   nat              = 64
   ibrav            = 0
/
&ELECTRONS
   electron_maxstep = 100
   mixing_beta      = 0.5
/
&IONS
/
&CELL
/

ATOMIC_SPECIES
Si 28.085 Si_ONCV_PBE_sr.upf

K_POINTS gamma

CELL_PARAMETERS angstrom
10.63212200908678 0.00000000000000 0.00000000000000
0.00000000000000 10.63212200908678 0.00000000000000
0.00000000000000 0.00000000000000 10.63212200908678

ATOMIC_POSITIONS angstrom
Si 1.2069584905 4.2173056198 8.5314592389 
Si 6.6749099900 3.2970741956 9.1276873769 
Si 3.9920641150 8.4646150878 0.2202890623 
Si 9.1264115223 5.6927039267 0.5947917383 
Si 7.5863592814 2.0508938071 6.5325139800 
Si 4.9318905400 4.6964634623 6.5649738485 
Si 1.5678552399 9.9671465702 3.2707809579 
Si 9.4533173777 1.5276658188 3.7688958740 
Si 9.1160983639 8.3166903743 8.7507361232 
Si 7.1086686716 7.0921038256 4.9474984951 
Si 5.6759477024 0.4530155810 4.5514200539 
Si 7.8625605469 2.8804651268 0.7889194013 
Si 0.8228241751 0.2599628256 0.4764105023 
Si 1.3165118757 10.5156152161 7.7814693524 
Si 4.9586409590 7.6310248259 6.6469687734 
Si 8.7777098167 8.7029341027 4.6146280192 
Si 9.5894085394 10.4839952853 7.4483437056 
Si 1.2441815496 5.5853194944 1.9071794139 
Si 5.0528521921 2.1660290563 6.2766944923 
Si 7.1776498792 4.9918450760 6.3125353756 
Si 1.0484271720 1.7166624196 9.1671431817 
Si 6.0348562451 7.5030778697 9.6516808780 
Si 2.7162520024 6.8558580745 5.1765250353 
Si 5.1460108451 10.5604615067 0.4735781050 
Si 6.6842768895 4.5972657640 1.7471021849 
Si 1.5309405123 8.7367229864 10.2947541456 
Si 3.9219027419 9.5622647319 5.3535604989 
Si 3.1554649626 1.3743293551 1.1398698006 
Si 0.1490559713 6.8984397232 4.6518829748 
Si 7.5693266219 5.5310212473 8.6843704176 
Si 3.7980278883 6.0534730907 1.0679328631 
Si 4.1642513309 3.3796751515 1.7018837700 
Si 2.2415809153 7.2792610693 7.7416945839 
Si 10.2836223139 6.9770430012 7.2189025126 
Si 2.3656046185 2.6798050881 6.6145514334 
Si 10.0896498799 10.5273211824 5.0379884855 
Si 0.9015146365 2.0953573413 2.3756200775 
Si 5.5617374478 6.7799978840 3.2582563182 
Si 3.9606674587 5.0157035578 4.0134665766 
Si 4.8159472495 1.1161070079 8.3347862460 
Si 9.5998386511 4.3828796558 7.4804314498 
Si 7.0430472146 7.0878403446 1.2243845384 
Si 3.3923380088 2.3474343220 9.7046075814 
Si 10.3248430509 3.6346015409 0.5387678978 
Si 4.5844434249 4.6973034000 9.8492788656 
Si 3.3150212176 8.4457643355 3.1846076090 
Si 1.7516421010 3.9015103318 4.0739101902 
Si 8.4317511987 8.6741742126 2.1471676719 
Si 8.9043171256 5.6880151609 3.2204378602 
Si 0.3610583577 8.1928155208 2.1507506970 
Si 7.7713050437 0.8514617958 2.1821579854 
Si 7.2063885050 0.4177849815 9.8701284568 
Si 10.5288947365 4.4613234520 5.0069745856 
Si 2.0838002247 0.4399040481 5.7116610003 
Si 5.9130759196 9.6408680099 2.5687100453 
Si 6.1313214881 2.9522213183 3.5257179794 
Si 3.6976181281 9.4696802135 8.2991792694 
Si 0.5099814275 6.6215898982 9.8998239736 
Si 9.2125955033 9.6536052921 0.0679308603 
Si 7.2901058337 9.7858369935 6.2008555660 
Si 8.2947244102 3.3846722489 4.8436013988 
Si 6.6003681826 9.3283899441 8.4609257415 
Si 9.1409987937 2.1235749931 8.7805166970 
Si 3.3519678416 5.3232908475 7.9737300147 

