&CONTROL
   calculation      = 'scf'
   tstress          = .true.
   tprnfor          = .true.
   outdir           = './'
   disk_io          = 'none'
   pseudo_dir       = '/home/ppiaggi/pseudos'
/
&SYSTEM
   ecutwfc          = 30
   occupations      = 'smearing'
   degauss          = 0.01
   smearing         = 'fermi-dirac'
   input_dft        = 'PBE'
   ntyp             = 1
   nat              = 64
   ibrav            = 0
/
&ELECTRONS
   electron_maxstep = 100
   mixing_beta      = 0.5
/
&IONS
/
&CELL
/

ATOMIC_SPECIES
Si 28.085 Si_ONCV_PBE_sr.upf

K_POINTS gamma

CELL_PARAMETERS angstrom
10.60133054144938 0.00000000000000 0.00000000000000
0.00000000000000 10.60133054144938 0.00000000000000
0.00000000000000 0.00000000000000 10.60133054144938

ATOMIC_POSITIONS angstrom
Si 5.3982293157 6.7259293514 5.0060860990 
Si 7.3963044882 9.6524372487 10.5233895593 
Si 1.6508815972 6.7529945483 3.7001293922 
Si 10.3479587415 1.4686129212 0.9408267404 
Si 10.0365128529 2.4304398373 8.5631611369 
Si 4.7976109339 2.2105576405 1.9170067978 
Si 0.7501395478 8.2169110801 10.1430032182 
Si 1.9919900087 4.8431542499 5.6800762895 
Si 3.2930913061 9.3264675372 7.8301957446 
Si 2.3081428881 4.9404214576 1.0292206344 
Si 7.6549769534 4.2239835396 8.8415096716 
Si 2.8000552266 10.5203045721 5.3183058847 
Si 6.0575684674 4.4728709767 3.5897165346 
Si 0.8239438907 5.8099107846 9.9457972674 
Si 6.8954022214 2.1292136313 0.4828789447 
Si 9.6422281674 5.1297294171 8.0720757022 
Si 5.6437455297 10.5119825276 7.0232966731 
Si 4.6444111062 1.1456115823 9.5914053887 
Si 9.0618583269 6.2591315650 4.4939146179 
Si 4.5192199939 2.8350502187 7.1439504160 
Si 4.9043027244 7.4558839658 9.1786319828 
Si 8.3687857414 3.2965791438 3.1944883307 
Si 9.3589924193 8.0470883661 5.8634687065 
Si 0.6946341615 9.5821398259 2.9621495706 
Si 6.6246654420 8.9280907381 5.6276209060 
Si 3.5300734490 6.3136330053 6.8585201925 
Si 10.6010443055 0.3624785736 6.7309437807 
Si 4.2994120064 2.9258082095 4.7504244116 
Si 7.8196580220 4.2891817224 0.7293354967 
Si 5.1808808369 9.7184093286 10.3946470012 
Si 3.9065797032 6.8894866790 0.9754029799 
Si 7.4774894775 7.3370218478 2.8178230566 
Si 10.2925243841 6.1557791935 2.3824900192 
Si 5.2467999102 4.9790421048 8.2515774309 
Si 4.9032319901 0.7920709905 4.7162351206 
Si 2.0916107118 1.1534989722 3.2910982559 
Si 2.5315447266 9.3016816264 0.6416412905 
Si 2.4374049114 3.8922149003 3.2610858892 
Si 6.9409243348 2.1403344270 6.6992139984 
Si 7.7644886979 1.5761740209 8.8886855925 
Si 10.2045015366 10.3622917404 9.7444886018 
Si 9.5768073566 8.4368250808 1.5410942181 
Si 1.7798149793 7.3783458342 7.7950205298 
Si 6.0419421062 5.9200374063 1.2542222137 
Si 6.9019008370 9.6603246386 3.2212142850 
Si 9.1577049563 10.4777508313 4.3178265176 
Si 10.5492568058 3.5949747946 2.7701806771 
Si 1.0624653469 8.2395025154 5.4190397276 
Si 1.8633746666 0.0871479197 8.9380453875 
Si 2.6817019724 1.5906660398 0.8672980320 
Si 9.4858161366 7.6016628621 8.1921251693 
Si 4.4990986685 3.9916235768 0.0163094049 
Si 10.4078032524 4.1125423530 6.0334928457 
Si 6.8711357758 7.0301557339 7.5794954799 
Si 2.4603567921 3.1234912201 9.4404848472 
Si 7.8039256475 6.9471473158 10.2297539060 
Si 1.8535578345 2.0972294170 6.7463899193 
Si 3.9685020749 7.8949804755 3.2927944688 
Si 8.7802127784 2.1513068041 5.3006122641 
Si 4.5702017924 10.2558437804 2.4385180511 
Si 7.5447125144 4.9138651246 5.8983258813 
Si 10.3227487775 3.4785827866 0.2106569189 
Si 8.3000891195 9.7852507177 8.0593223016 
Si 8.2517788562 0.8351526775 2.0741397191 

