&CONTROL
   calculation      = 'scf'
   tstress          = .true.
   tprnfor          = .true.
   outdir           = './'
   disk_io          = 'none'
   pseudo_dir       = '/home/ppiaggi/pseudos'
/
&SYSTEM
   ecutwfc          = 30
   occupations      = 'smearing'
   degauss          = 0.01
   smearing         = 'fermi-dirac'
   input_dft        = 'PBE'
   ntyp             = 1
   nat              = 64
   ibrav            = 0
/
&ELECTRONS
   electron_maxstep = 100
   mixing_beta      = 0.5
/
&IONS
/
&CELL
/

ATOMIC_SPECIES
Si 28.085 Si_ONCV_PBE_sr.upf

K_POINTS gamma

CELL_PARAMETERS angstrom
10.77735644356713 0.00000000000000 0.00000000000000
0.00000000000000 10.77735644356713 0.00000000000000
0.00000000000000 0.00000000000000 10.77735644356713

ATOMIC_POSITIONS angstrom
Si 1.6771937645 10.7072928493 7.3838686655 
Si 2.9410543546 2.1308558066 7.8424990689 
Si 9.0643495236 1.1870934802 9.7670439411 
Si 2.5619285096 6.6476135600 10.3545607503 
Si 0.6538341943 3.5044945495 2.2034305249 
Si 2.4797619441 1.1169005577 3.0107838508 
Si 1.0391408532 7.3255739445 1.5949517574 
Si 4.5860884874 10.2281962460 9.8304579064 
Si 6.6183314826 4.9788045789 1.0054217381 
Si 4.9805828427 7.1726755886 1.1219766926 
Si 2.2628676457 4.1453053862 0.7955348768 
Si 4.8255074608 9.1294770886 5.9156693972 
Si 7.7880949736 10.6618447372 7.3242375523 
Si 4.9485202073 4.5773696061 2.7684334364 
Si 7.1003164174 9.5965353848 5.1704583085 
Si 6.8679889446 3.2515823258 10.0838227791 
Si 4.6286267133 3.5239369005 9.4999918258 
Si 5.0556902397 10.6697014301 2.7064205275 
Si 5.0506356596 1.4685764758 4.9369022170 
Si 8.8908017528 3.7035954324 4.4550250557 
Si 0.8244656125 10.0491089140 2.3010949290 
Si 1.1164586861 2.2252438943 4.3650341294 
Si 7.8174524925 7.6725509352 0.4862150473 
Si 7.1935728827 6.2740057216 6.4336399252 
Si 10.0820876247 0.7264821986 6.8858039148 
Si 1.8207050429 2.5823084907 9.9421652060 
Si 4.7831847821 0.2729063753 7.5815577147 
Si 1.9102217655 3.5896141107 6.2133723142 
Si 8.3170260731 5.3751849715 2.6216566190 
Si 10.4827358505 4.4623752128 6.4475858244 
Si 2.6859651049 5.8136186090 3.2413546145 
Si 3.7973476561 7.6747387385 3.7630002211 
Si 7.2400663984 1.0484848212 4.1634436771 
Si 7.0525511737 3.8080064616 6.0718440694 
Si 3.2360844872 8.9725587788 1.5621885939 
Si 6.9465235410 8.5191230612 2.6830336640 
Si 3.3475870170 5.1425018459 5.6752696843 
Si 7.7031370728 1.2922050376 1.6513604411 
Si 7.0300588308 2.1125666327 7.9734762818 
Si 2.1706134745 10.1091280120 10.1354894259 
Si 8.2987476766 9.6848989303 9.4528408914 
Si 0.2383865026 5.3773188881 3.8721856193 
Si 9.6146305663 9.7283532315 4.0411637909 
Si 0.6067845670 0.9232249960 0.3383637274 
Si 5.6614100039 1.2379410479 0.6777911799 
Si 6.0586849172 8.1593533484 9.5539109401 
Si 10.6695721018 2.9339951861 8.3686388331 
Si 9.0202593584 10.0811823267 1.3010640246 
Si 9.7766896751 6.9659335599 6.4120636576 
Si 9.4558046644 4.2563875991 10.1756566333 
Si 5.1285559467 3.7549926453 4.8974570924 
Si 6.2730142048 6.5806538444 4.1736606110 
Si 9.8357388111 7.8817178690 8.7881043233 
Si 9.6775918826 7.4190998437 3.0914631411 
Si 3.0104820848 0.0076049877 5.3053908112 
Si 3.9623705380 2.6280799235 1.8016830087 
Si 4.8976618622 6.7133554343 7.1448161222 
Si 2.6307311532 7.7886877282 6.5187810411 
Si 9.0964983779 3.2300383903 1.4865531063 
Si 0.0893533379 8.9896516661 5.9474841534 
Si 4.8202481109 5.7577272385 9.3439895913 
Si 1.4647936237 8.3026706344 8.6920134132 
Si 10.0010526816 6.5382880563 0.1924286216 
Si 9.6654781340 1.4300258718 4.7433193406 

