&CONTROL
   calculation      = 'scf'
   tstress          = .true.
   tprnfor          = .true.
   outdir           = './'
   disk_io          = 'none'
   pseudo_dir       = '/home/ppiaggi/pseudos'
/
&SYSTEM
   ecutwfc          = 30
   occupations      = 'smearing'
   degauss          = 0.01
   smearing         = 'fermi-dirac'
   input_dft        = 'PBE'
   ntyp             = 1
   nat              = 64
   ibrav            = 0
/
&ELECTRONS
   electron_maxstep = 100
   mixing_beta      = 0.5
/
&IONS
/
&CELL
/

ATOMIC_SPECIES
Si 28.085 Si_ONCV_PBE_sr.upf

K_POINTS gamma

CELL_PARAMETERS angstrom
10.64695129334313 0.00000000000000 0.00000000000000
0.00000000000000 10.64695129334313 0.00000000000000
0.00000000000000 0.00000000000000 10.64695129334313

ATOMIC_POSITIONS angstrom
Si 6.7857279373 5.8866993701 4.4011941378 
Si 5.3787013830 2.4901089685 4.9335204086 
Si 5.5428986659 0.5696736465 0.8099135849 
Si 0.0599205095 7.2707072157 6.0182531003 
Si 5.4901430222 3.4182143597 7.1926011810 
Si 7.7867436509 1.5784850579 5.4234611663 
Si 0.8886850540 8.6890408322 7.5652551232 
Si 1.9694836972 0.1674520559 5.8438134503 
Si 9.8257945279 4.3891843768 7.6372604548 
Si 2.5580258708 6.9110957888 3.4070137669 
Si 3.5319237995 2.2778939353 10.1663692059 
Si 4.6757896586 8.5383545306 9.6343197558 
Si 6.0567631231 4.0048400820 3.1652960317 
Si 8.2545387499 3.4635597252 2.7415580172 
Si 2.7785561729 5.2414834748 9.4293020617 
Si 6.8894611838 7.8655097966 2.0338764586 
Si 10.2572089943 1.0382129674 6.3010361266 
Si 3.9841956435 8.8929299495 5.7630243839 
Si 10.4630358567 2.8871018414 4.1831126345 
Si 8.3859114819 1.4188659641 1.5510372175 
Si 9.0171905180 6.6303782710 2.1829657176 
Si 8.9290444083 10.2532270345 10.5704848892 
Si 3.5698269461 3.0213386033 2.5009369180 
Si 9.4298344093 4.6272289138 0.7965346259 
Si 0.4942357378 10.0403518904 9.4478809917 
Si 0.8630631657 8.6268200488 4.3193084354 
Si 1.5058941440 1.6016741178 2.0330034086 
Si 2.9235250617 2.2778300536 5.6906570559 
Si 3.1570659384 3.2571259866 7.8915309456 
Si 7.8460471697 8.0021527695 9.0683704129 
Si 0.4804745533 6.6363299168 9.1141629504 
Si 9.0833719673 9.8558934592 7.3326618252 
Si 3.6431950875 9.8859498027 8.0708681932 
Si 6.5523787058 9.2811497345 0.3635199227 
Si 4.7820568795 6.4497420953 2.2984957861 
Si 5.8987836598 3.1815858672 0.5531612898 
Si 6.3851363949 8.6610606442 5.6205894695 
Si 9.7051219819 5.7471923673 4.3895889609 
Si 9.8980127985 9.0722565501 2.0042566401 
Si 8.2967858527 7.6779850435 6.5845324987 
Si 5.1603643529 1.0090690676 8.6900309987 
Si 5.1373349972 5.9545949785 6.6254380856 
Si 0.1024970289 0.3933164806 3.7257302539 
Si 0.3422196319 2.3149240319 8.2293693571 
Si 1.4658403132 5.2413450644 6.6347328741 
Si 6.8684653958 0.0965806246 6.8024862386 
Si 8.3183565760 1.6091056898 8.9974297764 
Si 2.0394448141 4.0783253399 4.3326064776 
Si 10.6231553572 2.2605394047 0.0043810714 
Si 4.9827093236 0.7251713055 3.1938405081 
Si 2.0865149858 4.1205830895 0.7718794808 
Si 2.3338223705 0.1601333415 10.4123244277 
Si 8.3974421302 4.2056735243 5.8306857593 
Si 3.0907460787 6.7301827924 5.6861959833 
Si 8.6001600828 5.5783317198 9.5743774201 
Si 1.0319099722 5.6875587931 2.1113436762 
Si 7.1224377720 3.7528267449 8.6461975002 
Si 3.1742714116 8.7321929258 1.0884378307 
Si 8.5012179644 0.2404922711 3.5468188844 
Si 4.8480892714 5.4163490028 10.5375432219 
Si 0.8593473797 7.7706774014 0.6034542936 
Si 6.5881844030 9.6031348355 3.5369704544 
Si 5.8371910466 6.7357298540 8.8103096074 
Si 3.1211537716 10.0910846133 3.4656571746 

