&CONTROL
   calculation      = 'scf'
   tstress          = .true.
   tprnfor          = .true.
   outdir           = './'
   disk_io          = 'none'
   pseudo_dir       = '/home/ppiaggi/pseudos'
/
&SYSTEM
   ecutwfc          = 30
   occupations      = 'smearing'
   degauss          = 0.01
   smearing         = 'fermi-dirac'
   input_dft        = 'PBE'
   ntyp             = 1
   nat              = 64
   ibrav            = 0
/
&ELECTRONS
   electron_maxstep = 100
   mixing_beta      = 0.5
/
&IONS
/
&CELL
/

ATOMIC_SPECIES
Si 28.085 Si_ONCV_PBE_sr.upf

K_POINTS gamma

CELL_PARAMETERS angstrom
10.63217478280644 0.00000000000000 0.00000000000000
0.00000000000000 10.63217478280644 0.00000000000000
0.00000000000000 0.00000000000000 10.63217478280644

ATOMIC_POSITIONS angstrom
Si 3.7257160552 0.5939037144 1.8312645202 
Si 5.4741346695 4.6727557596 4.5779380249 
Si 7.5066449941 3.4849185607 4.0632131793 
Si 4.3173540532 6.0735873160 9.7854283831 
Si 2.1146545069 10.2998874243 3.5153372128 
Si 10.3685925378 2.1448605155 9.2649940597 
Si 4.1208820954 3.7501700572 8.8890403593 
Si 8.0494387811 8.2642512404 7.8792495593 
Si 10.2173392193 6.6098954764 7.4444680359 
Si 9.5519245605 2.1420110926 6.5255185373 
Si 5.2668072613 1.7511829798 7.2441047022 
Si 1.7738933051 2.5103627880 3.3966502457 
Si 6.4358361430 7.0643677875 3.0349011309 
Si 0.7827151903 4.6542557755 3.7657887220 
Si 2.6057971888 6.0340994188 2.5090231339 
Si 7.2503989496 1.8385900887 5.6246118393 
Si 9.3414606607 10.2448233911 6.9143796978 
Si 0.2547586032 7.6017179010 4.9141486559 
Si 8.8281817909 9.1469556552 1.6559293259 
Si 4.3743212457 6.8807607611 3.8037030572 
Si 1.1049062356 8.9169923468 8.8928679423 
Si 9.8172398501 4.6679181201 9.7971769362 
Si 6.0398301610 8.7780085581 1.2769454558 
Si 6.1584108064 0.2166784060 2.4841651093 
Si 9.3135512019 1.1813196758 1.6047354043 
Si 2.9833988762 7.3175305012 6.3080586665 
Si 8.1676685647 4.1085168761 8.1791832100 
Si 0.3268606965 9.0362428192 3.0715396052 
Si 8.7465373207 7.0476008478 4.8138021903 
Si 2.8286688366 9.9440923274 10.2572524034 
Si 9.2628250960 6.0562993998 2.6283692959 
Si 1.7013606087 6.3131514782 9.4277407591 
Si 5.9370276631 4.9215805461 6.9781833787 
Si 6.7014810300 10.4883214580 9.4780096814 
Si 9.3529221451 4.6508428474 5.6020822609 
Si 1.8448949683 3.9440583966 0.3846040377 
Si 3.4514165780 3.4792197151 6.0717479497 
Si 2.4903849316 1.4217025154 9.2021791710 
Si 9.7357229660 6.8716064587 0.2786576057 
Si 0.8378706602 9.4205108802 6.5255929625 
Si 9.8499444197 0.5865909046 3.9881287610 
Si 6.8860130555 4.9312877217 1.8882104484 
Si 3.7652464811 9.2943813908 5.2508696313 
Si 4.7922188755 1.0322661543 4.4409318207 
Si 4.4975587836 4.4670019132 1.4223723424 
Si 4.0630218002 3.1723219899 3.3831686481 
Si 4.7352516830 2.2836741894 0.4165515965 
Si 3.9357546681 8.0233899529 0.6698068102 
Si 5.2831382818 7.1290964675 7.6864031731 
Si 1.5362429344 4.1093249214 8.2688762364 
Si 6.7280933634 5.5081257323 9.9731819576 
Si 6.9949290540 2.3849243899 9.4042117563 
Si 3.3712925088 10.5296806179 7.1455338098 
Si 7.7313028472 10.2891701921 4.7344861664 
Si 6.9177819937 8.1378559466 5.9504879963 
Si 4.7223335907 9.4905131190 8.7180856210 
Si 9.5385492846 10.1648375402 9.9742132785 
Si 9.8954075991 3.7958139836 1.8040780493 
Si 1.3867226604 1.6726324725 1.0486620310 
Si 1.7545959079 5.1231453156 6.0786694955 
Si 7.5432090432 7.6952810391 10.0066626760 
Si 1.1981610406 1.3889554171 5.4395694693 
Si 1.4316223345 7.6585681396 1.2705661509 
Si 7.1028987889 2.3266388077 1.5535414827 

