&CONTROL
   calculation      = 'scf'
   tstress          = .true.
   tprnfor          = .true.
   outdir           = './'
   disk_io          = 'none'
   pseudo_dir       = '/home/ppiaggi/pseudos'
/
&SYSTEM
   ecutwfc          = 30
   occupations      = 'smearing'
   degauss          = 0.01
   smearing         = 'fermi-dirac'
   input_dft        = 'PBE'
   ntyp             = 1
   nat              = 64
   ibrav            = 0
/
&ELECTRONS
   electron_maxstep = 100
   mixing_beta      = 0.5
/
&IONS
/
&CELL
/

ATOMIC_SPECIES
Si 28.085 Si_ONCV_PBE_sr.upf

K_POINTS gamma

CELL_PARAMETERS angstrom
10.67987941144936 0.00000000000000 0.00000000000000
0.00000000000000 10.67987941144936 0.00000000000000
0.00000000000000 0.00000000000000 10.67987941144936

ATOMIC_POSITIONS angstrom
Si 0.9164190925 7.6514714458 0.8245507698 
Si 6.7514886877 10.3869196393 3.0865278694 
Si 9.3566209926 5.7037925174 8.4719425017 
Si 10.3845166664 2.7588371294 4.7080860001 
Si 7.1505851014 3.1379194492 3.4812455326 
Si 6.9596822569 4.7469714410 1.1792509249 
Si 4.8530974028 8.4940818917 9.6072884423 
Si 2.8032440680 5.2942618615 5.2714816787 
Si 2.6268338199 6.8514950785 8.8794226207 
Si 2.1819954827 9.5545939173 9.3495081929 
Si 7.0976556190 4.3789748362 5.7286552767 
Si 9.2932038687 6.7232617664 3.6708133921 
Si 3.0107220854 3.2748461831 6.8098862683 
Si 2.6127790986 1.5902020047 0.2148823777 
Si 4.9260623389 8.6443584749 2.3114783407 
Si 1.9233501631 4.0160938935 9.2324139951 
Si 4.9285827904 0.0734619777 10.6190681781 
Si 9.5172997784 3.4904729484 0.7751648715 
Si 2.9873011098 1.7369969472 2.7958322317 
Si 4.1622373634 9.4560933895 7.0705821247 
Si 5.1315645785 2.4009757301 5.7140131620 
Si 1.8830656579 1.6804256260 5.1431629276 
Si 6.8873474336 7.9489060874 6.7672735494 
Si 4.4806686479 2.8599435478 9.3941607687 
Si 1.0425249727 1.6710380120 8.2940584302 
Si 9.1907624654 1.8760489772 7.6054198058 
Si 10.2943784842 9.3420322773 8.2789784405 
Si 6.0176528135 0.0843886692 5.4284118268 
Si 4.1829456496 6.8224458065 7.0388415231 
Si 10.2073054274 9.4700840315 0.3699147112 
Si 9.2328198305 8.6544402811 6.1165698566 
Si 9.0770110697 8.9446446443 2.8241018725 
Si 7.9682793886 9.7974543751 9.8048448516 
Si 1.2413330639 5.4690274082 1.7609839564 
Si 4.2847142205 3.9781482820 3.5516472977 
Si 7.3799461916 6.3515378836 9.2536989947 
Si 1.7507099124 10.2795761713 6.7255365807 
Si 5.6808734962 5.9282195033 2.6884353644 
Si 9.9905038753 4.2883026600 2.9637840154 
Si 2.3100579167 7.1815994712 3.5809528868 
Si 0.0237146722 6.0991616532 5.6362636399 
Si 7.0978798965 8.3568561211 0.5679591911 
Si 4.9479881313 5.2023828589 10.2350731138 
Si 8.9431281014 6.6094356116 1.1669583837 
Si 4.5303300872 7.6422760696 4.8136459282 
Si 7.1452024422 6.6495705984 4.7768644235 
Si 0.9743008350 8.6849633764 4.9863929777 
Si 3.1025263288 4.1385387110 1.3236428945 
Si 3.6537255851 10.1755755056 4.0733700868 
Si 6.3490494717 2.5994078896 7.7678714515 
Si 8.3128550180 1.5068241862 9.8001136651 
Si 3.7209340662 7.1499015891 0.7823994218 
Si 6.2956287149 0.2206762123 7.9504867095 
Si 0.5438322755 7.1735041226 7.9411204553 
Si 5.9570978973 5.2837635400 7.8350265332 
Si 8.8143073960 1.3615457865 3.8662658653 
Si 5.5110527337 1.5110854580 2.1612444770 
Si 0.0792611522 1.4374797291 0.3178289393 
Si 6.2931509828 2.4366572072 0.2258901294 
Si 2.4052156423 9.8199889206 1.6459509753 
Si 0.4213351266 10.4632166978 3.3779710987 
Si 8.5445016024 0.1994147084 5.9425625814 
Si 9.3425449115 4.1129070004 6.5218285608 
Si 0.0046952274 4.8278928873 10.1577294271 

