&CONTROL
   calculation      = 'scf'
   tstress          = .true.
   tprnfor          = .true.
   outdir           = './'
   disk_io          = 'none'
   pseudo_dir       = '/home/ppiaggi/pseudos'
/
&SYSTEM
   ecutwfc          = 30
   occupations      = 'smearing'
   degauss          = 0.01
   smearing         = 'fermi-dirac'
   input_dft        = 'PBE'
   ntyp             = 1
   nat              = 64
   ibrav            = 0
/
&ELECTRONS
   electron_maxstep = 100
   mixing_beta      = 0.5
/
&IONS
/
&CELL
/

ATOMIC_SPECIES
Si 28.085 Si_ONCV_PBE_sr.upf

K_POINTS gamma

CELL_PARAMETERS angstrom
10.60585337863126 0.00000000000000 0.00000000000000
0.00000000000000 10.60585337863126 0.00000000000000
0.00000000000000 0.00000000000000 10.60585337863126

ATOMIC_POSITIONS angstrom
Si 6.9927042789 9.0780589877 2.1911480963 
Si 5.0694494330 6.2999299362 6.6567850848 
Si 1.2518937211 0.1464212300 0.7769795156 
Si 6.5342874783 5.5429689688 4.3902187651 
Si 9.6811714460 4.7993501650 3.8750924665 
Si 5.0750281119 3.4935999205 2.4984102746 
Si 1.9466937818 6.9808045114 10.5345608322 
Si 10.0594186009 2.0842835177 5.8523841353 
Si 5.2531216018 1.8581455119 10.0750728404 
Si 2.4951224600 10.3209589452 7.7666027941 
Si 9.4266415707 9.2997743526 7.5044367044 
Si 1.0416231326 1.5231066037 7.7272975014 
Si 3.0071200319 6.5897985149 5.2036346900 
Si 1.0428470481 2.3585933095 9.9867897169 
Si 9.1657800010 10.3744230521 1.2494755865 
Si 5.9543488097 4.0058626387 8.0867935076 
Si 8.2868411140 0.1790660467 6.3752845244 
Si 10.4581456586 6.6364854814 7.4427954845 
Si 1.5423031983 2.3115881673 2.5531258721 
Si 3.1650305828 2.7250361495 0.4025197109 
Si 1.2404818229 5.0686539940 2.4542050777 
Si 9.8474500152 7.1927306736 9.8734131443 
Si 10.5046947491 4.3452075234 8.5602918316 
Si 7.4800644533 9.1002888564 9.5138110796 
Si 10.1432684777 8.3136421055 1.6484465789 
Si 8.5280500374 2.6849778413 9.1904704277 
Si 3.9239430272 4.5423173084 9.0140950860 
Si 2.3592932958 3.5370733135 7.4578027671 
Si 1.7103953685 7.7307125862 2.1510473647 
Si 6.2363054218 4.4904865030 0.2937036553 
Si 3.6563467406 3.9935492429 4.4674824070 
Si 5.1542114132 10.3580157969 8.2966409225 
Si 2.6259562673 9.2720082285 10.1186204744 
Si 5.1743837464 2.8882178096 5.9331264971 
Si 6.2119649883 9.0451384188 6.1520100991 
Si 3.4714230811 7.7980067259 3.5959145880 
Si 8.7453639731 7.7941886187 3.8136209403 
Si 9.8712389444 2.4664442325 3.0976409904 
Si 0.9802799373 4.9905843073 5.4972259232 
Si 6.5232998142 7.1817642212 0.7535999724 
Si 8.6615565197 6.6603274398 5.7504618843 
Si 7.8787596935 6.0289928058 9.4260476429 
Si 9.3340736824 0.1196223597 3.9917356420 
Si 10.5094249597 4.9033723750 0.4653731798 
Si 6.7261049425 1.0494332830 3.9131038450 
Si 1.4449626760 8.4416759675 6.5155575412 
Si 7.0926220235 7.2061152606 7.5059851590 
Si 3.2437048032 7.1629918607 8.0945569922 
Si 7.1250122998 1.2674100846 1.1759982343 
Si 8.5119927754 5.7666252049 2.0598052081 
Si 5.1378571873 6.3742027274 2.6566390011 
Si 0.5034460723 9.2355877280 4.4003897785 
Si 4.2300915908 0.4639562378 1.7969497379 
Si 8.6720775263 3.8163466446 6.5489235559 
Si 4.9755027838 9.5226033321 0.0054854110 
Si 5.3027145722 9.6110031200 4.0302030722 
Si 7.0772753537 3.3200563416 4.5759272578 
Si 6.9865634898 1.5038463740 7.6662502094 
Si 3.3311394584 5.1183105996 1.1499078350 
Si 2.4034454634 10.3890379180 3.1897316153 
Si 2.1224009547 2.0651081348 4.8442871658 
Si 3.9812994822 0.5685522244 5.6572258273 
Si 9.4946569084 0.4743680041 9.4641756858 
Si 8.5985153272 3.1768667152 1.0539747095 

