&CONTROL
   calculation      = 'scf'
   tstress          = .true.
   tprnfor          = .true.
   outdir           = './'
   disk_io          = 'none'
   pseudo_dir       = '/home/ppiaggi/pseudos'
/
&SYSTEM
   ecutwfc          = 30
   occupations      = 'smearing'
   degauss          = 0.01
   smearing         = 'fermi-dirac'
   input_dft        = 'PBE'
   ntyp             = 1
   nat              = 64
   ibrav            = 0
/
&ELECTRONS
   electron_maxstep = 100
   mixing_beta      = 0.5
/
&IONS
/
&CELL
/

ATOMIC_SPECIES
Si 28.085 Si_ONCV_PBE_sr.upf

K_POINTS gamma

CELL_PARAMETERS angstrom
10.84293793459474 0.00000000000000 0.00000000000000
0.00000000000000 10.84293793459474 0.00000000000000
0.00000000000000 0.00000000000000 10.84293793459474

ATOMIC_POSITIONS angstrom
Si 4.4186923812 0.7601246466 0.4198591584 
Si 5.1785437858 5.4737861428 2.2765290341 
Si 9.7289995488 7.1092156286 3.4243299150 
Si 3.5522548968 5.8889188646 4.8043323118 
Si 0.3984703790 5.7704922965 9.6710765744 
Si 1.0950174591 1.7581173285 5.6624749488 
Si 10.0846479131 3.2341447836 4.5345491731 
Si 3.3882446176 4.5450126082 8.9762068968 
Si 6.5498501464 0.6682133989 6.8838993783 
Si 0.4256557930 4.7890546123 0.7889289112 
Si 7.0433556236 2.1703116141 2.4077394260 
Si 6.7968848014 2.9218681711 4.9780036487 
Si 8.5919006476 4.3270261839 0.8907484356 
Si 4.7761948879 8.4181642531 9.8242113868 
Si 4.3131255375 0.4931660932 5.7535881562 
Si 1.1217669870 1.2493775235 9.9398946916 
Si 8.8748904848 2.6409059633 6.7172759510 
Si 0.1669313667 8.7360791933 1.8911601769 
Si 8.7764040795 5.3923665219 9.3868614852 
Si 7.2729439914 10.8103332202 4.4785453986 
Si 8.9183381371 4.8708971078 3.0653310829 
Si 3.2975759705 2.9953507615 0.0304135735 
Si 10.4217114817 0.7952048037 7.5375008340 
Si 5.9104420964 7.8913275847 7.6364426427 
Si 6.3284156679 7.4211777959 0.8664537489 
Si 6.1466988711 9.0864036751 3.2296015926 
Si 10.1574148696 9.0320697131 10.4134491630 
Si 2.1706694310 1.3687799560 3.3136777334 
Si 8.7077465965 5.0111721959 7.3108617453 
Si 0.4298422514 10.1608954526 3.8909123773 
Si 2.2129352031 0.2190631280 7.0595441299 
Si 8.2757205774 7.5940901271 9.8935194461 
Si 3.1198493749 7.1806380607 2.0031135111 
Si 2.1412633833 3.5932195163 6.6746957338 
Si 9.3709440523 1.3120822336 3.3071285989 
Si 2.6507838798 10.1058241709 10.2391489357 
Si 6.4176422042 4.0035162877 8.9442202299 
Si 7.6518396146 7.6691341006 4.9707822520 
Si 6.1216408415 10.4948687840 10.1658181465 
Si 7.7147828693 10.6770843559 1.3917995133 
Si 9.1780373436 0.3394435935 9.6196702056 
Si 2.4032179209 9.6330829199 1.7564908878 
Si 3.6891686741 9.3779377473 4.1543198685 
Si 4.1571173465 2.9448118278 5.0174610999 
Si 4.6400726450 4.7174586931 6.7610814203 
Si 1.3851202635 8.1832736886 9.3553302217 
Si 0.8967565075 5.2113762019 5.2244202562 
Si 10.8042611750 8.3923038461 5.6358121644 
Si 7.5308432702 9.3486618149 8.1241905198 
Si 9.1077642628 9.9706669495 6.1293393274 
Si 9.4549985072 1.9271045162 0.6892118325 
Si 1.7929773739 8.7809147417 7.1411047090 
Si 1.0143449165 2.2771470815 1.2506136184 
Si 1.1606497624 5.9007051381 2.5739616645 
Si 2.9111228196 3.8580474324 2.7705549722 
Si 6.9279542351 1.6615067515 8.9421383858 
Si 4.8149583910 0.8788255411 2.8319802156 
Si 6.7616777819 5.9067012828 6.4854105663 
Si 5.8882466024 3.6171281944 0.5757480771 
Si 3.8839945829 7.9260900437 6.2027134884 
Si 6.8401372808 5.2194650336 4.1535500199 
Si 10.7494501237 6.3022625016 6.8581257148 
Si 0.9781902243 3.5140335405 8.8736652328 
Si 3.1255961320 6.5786381466 10.3865261481 

