&CONTROL
   calculation      = 'scf'
   tstress          = .true.
   tprnfor          = .true.
   outdir           = './'
   disk_io          = 'none'
   pseudo_dir       = '/home/ppiaggi/pseudos'
/
&SYSTEM
   ecutwfc          = 30
   occupations      = 'smearing'
   degauss          = 0.01
   smearing         = 'fermi-dirac'
   input_dft        = 'PBE'
   ntyp             = 1
   nat              = 64
   ibrav            = 0
/
&ELECTRONS
   electron_maxstep = 100
   mixing_beta      = 0.5
/
&IONS
/
&CELL
/

ATOMIC_SPECIES
Si 28.085 Si_ONCV_PBE_sr.upf

K_POINTS gamma

CELL_PARAMETERS angstrom
10.69744375640082 0.00000000000000 0.00000000000000
0.00000000000000 10.69744375640082 0.00000000000000
0.00000000000000 0.00000000000000 10.69744375640082

ATOMIC_POSITIONS angstrom
Si 8.8663409137 0.7503368907 2.9120688368 
Si 8.1583305987 4.7004032993 0.0780884511 
Si 7.2595527692 6.6249055235 1.3518573624 
Si 9.5299354423 6.3664766772 7.6209552091 
Si 9.0198599291 4.0094019199 7.0238880832 
Si 1.8319693356 4.8780664453 3.1054251327 
Si 6.5509754897 4.4211465301 4.5209429829 
Si 10.3502689167 0.8173531666 7.2737589745 
Si 4.8408072486 3.5472937445 0.1984825109 
Si 7.1824028048 10.5011777558 6.4730660068 
Si 9.0037174864 9.4813797451 8.0549077125 
Si 6.9696627408 7.2508343525 5.0263972004 
Si 7.1230105971 6.9936357123 7.6228914464 
Si 9.7631611110 2.7066886141 9.1395322324 
Si 7.2430573109 2.8301264176 1.1226004452 
Si 2.5170657261 6.1710343798 10.3285210136 
Si 1.6657310596 7.3120772180 2.9926419832 
Si 5.2866767044 6.4064316296 3.0541950746 
Si 2.6755697502 5.2562103846 8.0995588427 
Si 0.9120875890 9.6487947398 9.0648640750 
Si 4.8136571364 6.0237840664 6.6762853458 
Si 9.8808650847 3.5119493903 4.7551207242 
Si 6.3340420277 4.9216799234 9.3866110908 
Si 6.6166898866 10.2853889203 2.7507834773 
Si 3.2446844555 4.1841339662 5.1024881178 
Si 7.9983396299 1.1905613054 10.2624215086 
Si 8.6618913687 1.2111752795 5.3159128182 
Si 5.0527557018 2.5009874681 4.1501802797 
Si 0.2909886558 8.0576890479 0.8598840635 
Si 0.8124195056 4.0843482109 10.2772909554 
Si 5.4793162716 6.9732677794 10.3349608747 
Si 1.1467231809 1.9080709505 4.3258857934 
Si 2.4312936221 0.7291698588 2.1080917539 
Si 3.9172969292 3.0962146336 8.4096991321 
Si 0.2907008946 10.3829496074 4.6043188595 
Si 9.6300528184 8.8125648640 2.9121758112 
Si 3.0359880253 8.3888605117 0.3079216396 
Si 5.0742896561 1.3239691265 2.1564976869 
Si 3.6227107230 6.7329497054 4.7463488203 
Si 10.0760185511 6.1633536151 9.9797308599 
Si 9.0261607235 6.5865765825 3.9405531719 
Si 7.8420392792 8.9717749194 1.1301635380 
Si 2.5980667702 9.5531168029 3.6596382988 
Si 0.4782003400 6.7370682212 4.9755308553 
Si 3.6211916860 1.2661708379 10.4951230026 
Si 1.9502616687 2.0909544490 6.6844902852 
Si 2.7347480091 8.2200869415 7.0958711823 
Si 3.6695441318 9.4490627675 9.1989886248 
Si 3.8156391211 1.3341637904 5.9998966745 
Si 3.7138957336 5.1792101844 1.5961227931 
Si 8.8138699521 4.2497092964 2.8662837775 
Si 0.3666527453 8.4965409805 6.5359990684 
Si 5.9954251430 9.2694098970 4.9882394185 
Si 0.2669547089 3.4936888538 1.9324718197 
Si 4.7132509293 8.5283658757 2.0096110866 
Si 1.4864846921 1.2935669914 9.5080912621 
Si 5.8927403804 0.9090388176 9.2915322107 
Si 6.0579303069 1.6709835045 7.1414636876 
Si 0.1736441163 1.2012052620 1.2128012910 
Si 3.7748176758 9.7490190904 5.4784818710 
Si 6.6528044568 3.8741220462 6.7682298749 
Si 0.8202799872 4.6676370291 6.3829186482 
Si 6.4416583119 9.1083812762 9.3338833905 
Si 9.4799141953 10.1707444156 10.4934435040 

