&CONTROL
   calculation      = 'scf'
   tstress          = .true.
   tprnfor          = .true.
   outdir           = './'
   disk_io          = 'none'
   pseudo_dir       = '/home/ppiaggi/pseudos'
/
&SYSTEM
   ecutwfc          = 30
   occupations      = 'smearing'
   degauss          = 0.01
   smearing         = 'fermi-dirac'
   input_dft        = 'PBE'
   ntyp             = 1
   nat              = 64
   ibrav            = 0
/
&ELECTRONS
   electron_maxstep = 100
   mixing_beta      = 0.5
/
&IONS
/
&CELL
/

ATOMIC_SPECIES
Si 28.085 Si_ONCV_PBE_sr.upf

K_POINTS gamma

CELL_PARAMETERS angstrom
10.60585082196210 0.00000000000000 0.00000000000000
0.00000000000000 10.60585082196210 0.00000000000000
0.00000000000000 0.00000000000000 10.60585082196210

ATOMIC_POSITIONS angstrom
Si 8.4566599997 4.5519251143 6.8411025615 
Si 5.2537778983 3.8547176929 0.3968751801 
Si 6.2516611904 2.5341726013 7.6603302966 
Si 0.4282101664 1.2743672172 0.1524357727 
Si 10.5320341002 5.9079573828 7.9522775522 
Si 3.9981936429 9.1473978520 9.7554100680 
Si 0.5909081603 0.4045644219 7.2524292740 
Si 4.5686611469 0.5842763218 4.7159552031 
Si 0.7870315537 2.9231527860 4.7228065827 
Si 2.0123329233 9.0596556482 6.1650326009 
Si 4.2292314972 4.4365546690 2.7028692644 
Si 8.1671839074 6.8653475365 6.0535332912 
Si 9.4470873787 1.6767319857 5.3411595032 
Si 4.1776870622 8.0657071267 5.9492247484 
Si 6.1032323082 0.9303802334 2.4566226200 
Si 9.1591491347 1.8131126214 7.6510395713 
Si 7.7916519415 8.5016606247 4.4568436617 
Si 1.9759866725 10.5683591393 9.2796422059 
Si 5.8210000119 6.2505581819 6.4883731749 
Si 9.9798404772 2.4370760370 2.1474726744 
Si 3.7483622209 1.5451982238 7.8318375102 
Si 3.7028631209 3.3058224895 6.1215380067 
Si 8.4129214709 3.4044887197 0.5246120474 
Si 10.5829633959 7.7374136204 0.3033771810 
Si 9.5803286826 9.1546416481 7.3170719347 
Si 5.6337431098 4.5315724866 4.9779197184 
Si 9.0638131417 10.3283381294 9.6083493405 
Si 5.4000325811 6.7633510692 2.6219041992 
Si 3.9219375755 7.0827780842 8.3324548807 
Si 2.1278306387 1.1760615859 5.2513809760 
Si 3.2383056432 6.1026065630 4.6756529700 
Si 2.1851976858 7.6084358685 3.0539971676 
Si 8.3668920783 0.5970234939 2.6935785391 
Si 6.4497996955 2.0604304567 5.3090131694 
Si 8.4484934946 3.7889083886 4.0202962360 
Si 2.5586296932 4.9245722888 0.5579950234 
Si 6.5452947763 9.2676363828 8.6972749373 
Si 1.4125508476 5.1446012699 5.6946843286 
Si 7.3181643374 1.5691674467 9.6471031194 
Si 9.9316050677 3.4951369267 9.1133954943 
Si 8.6582772238 9.3732388394 1.0144952363 
Si 6.0053084875 0.0127530053 0.4184305113 
Si 7.8865530946 7.3411896395 2.2580068517 
Si 6.7542724609 3.1551027435 2.2999848093 
Si 0.7636700461 9.8637276224 1.2928213976 
Si 7.3834115316 10.3502286055 6.2137452737 
Si 9.3577224797 5.9137163598 3.2757867200 
Si 2.5893972665 4.7844902111 8.0395637044 
Si 8.4365088831 7.4599539570 9.1558507151 
Si 1.7615787923 3.1955640644 9.5280312322 
Si 0.8134920909 6.0341776135 1.7860146726 
Si 1.5038566173 7.8994816268 8.4241000377 
Si 4.5837532726 6.4565980458 0.1740377696 
Si 6.5605778073 4.9282100956 8.7398680342 
Si 3.4119234211 0.7661030283 2.1061522796 
Si 9.5944768876 9.7999334297 4.3002906977 
Si 5.5090925451 8.7998335147 4.0849388967 
Si 1.4004177542 9.9923129578 3.5642128331 
Si 4.0000390609 8.6900099295 1.8630873905 
Si 3.8820489705 1.8662691457 10.4212559884 
Si 1.9544461895 2.7811616552 2.4834554226 
Si 5.0152629191 10.0790263941 7.0672617245 
Si 0.2615763412 7.4830641059 5.2156816821 
Si 7.5224860534 5.8523933304 0.1433412556 

