&CONTROL
   calculation      = 'scf'
   tstress          = .true.
   tprnfor          = .true.
   outdir           = './'
   disk_io          = 'none'
   pseudo_dir       = '/home/ppiaggi/pseudos'
/
&SYSTEM
   ecutwfc          = 30
   occupations      = 'smearing'
   degauss          = 0.01
   smearing         = 'fermi-dirac'
   input_dft        = 'PBE'
   ntyp             = 1
   nat              = 64
   ibrav            = 0
/
&ELECTRONS
   electron_maxstep = 100
   mixing_beta      = 0.5
/
&IONS
/
&CELL
/

ATOMIC_SPECIES
Si 28.085 Si_ONCV_PBE_sr.upf

K_POINTS gamma

CELL_PARAMETERS angstrom
10.63558932227751 0.00000000000000 0.00000000000000
0.00000000000000 10.63558932227751 0.00000000000000
0.00000000000000 0.00000000000000 10.63558932227751

ATOMIC_POSITIONS angstrom
Si 2.2482784980 5.9524734539 8.4173244573 
Si 8.2764241700 9.5499402710 4.5349727447 
Si 3.6135052858 3.8177830499 1.6739460390 
Si 7.5819840008 8.3094583104 1.0943595989 
Si 0.4700430608 3.7013446180 0.6948070970 
Si 10.5612465529 2.1285962114 5.7497272147 
Si 0.9315957306 3.7350381650 2.9082806290 
Si 0.6200186965 1.7092242888 8.8248057910 
Si 6.1731938392 1.9202450165 5.9662146354 
Si 5.7110881187 2.8810216136 0.9028275250 
Si 2.3634938371 3.3355441588 9.7493150285 
Si 7.3365677772 4.4552909095 1.6781151900 
Si 0.9636471426 1.1288082727 3.2863226515 
Si 0.1944153821 10.4487326535 6.1162721651 
Si 6.6518272654 1.1664263522 1.9799106726 
Si 8.6587523349 2.7880559273 4.4931429719 
Si 3.2329107219 0.8108892367 3.8105508492 
Si 9.0560979520 4.4133866875 3.0475962135 
Si 6.7851975555 3.6193016820 8.7837949586 
Si 7.1373738248 4.2972566877 6.3051495959 
Si 5.1937624185 8.3465658816 1.6749776912 
Si 8.2148972858 0.4065645459 0.0280143550 
Si 10.0592786437 8.6305361165 9.2634174947 
Si 7.9357343372 0.9281434183 8.1587094674 
Si 3.0454265533 0.1598826872 6.1662700705 
Si 8.8673056060 6.3035755287 4.5692937914 
Si 1.2740478805 7.6118168288 1.6060484368 
Si 8.6841394867 7.1042652352 6.9522613926 
Si 9.6150938912 3.3402982673 7.9372126841 
Si 8.7525475972 9.6566152319 6.8030015320 
Si 1.4429942169 8.8218171904 4.2554481861 
Si 4.7197129312 10.5100042836 2.0999652049 
Si 10.2503576414 9.8240087723 0.8477702698 
Si 2.1832205981 5.9045920308 3.1702777364 
Si 9.0234041504 0.9439947006 2.9837401352 
Si 0.6410282396 6.5078958351 5.5810680392 
Si 8.7472617093 2.8646853484 10.5394010524 
Si 5.6637597462 3.9410069878 4.1001898532 
Si 5.5055021771 10.4225265614 8.1384380341 
Si 3.2561813913 0.5435658262 0.4573601205 
Si 6.0889599717 5.7097054921 9.4818405926 
Si 5.0059698178 9.1539453738 6.3095527299 
Si 6.0693798518 0.1143740640 4.5774406528 
Si 4.7277108944 2.0183157857 9.5514505247 
Si 6.1798729892 7.2119718483 7.4396904512 
Si 1.0291889618 1.0496858695 0.8598065662 
Si 1.5302166849 4.0629227482 5.4026134860 
Si 9.6461285409 8.5945878246 2.8966133875 
Si 4.8453724190 5.9010397440 5.7645744974 
Si 3.3515188140 8.0180963409 0.4542949437 
Si 7.4220885509 8.8316232038 9.2799771073 
Si 3.5464159883 3.0400449451 3.9807096427 
Si 3.3394686913 4.4854108984 6.8187422042 
Si 2.5869475688 7.5922260733 6.6730133594 
Si 10.4220373243 6.3800241447 0.0933425052 
Si 1.3973143608 9.6869053903 8.0974697441 
Si 3.8950399707 5.7847289392 10.4831068782 
Si 3.8927958614 7.1658772041 4.2285507807 
Si 5.3117536464 5.7973640193 2.4785177357 
Si 6.7994598808 7.4652052300 3.9176831404 
Si 8.0859939432 6.1916146799 0.3856198799 
Si 10.4263766447 5.6991762586 8.3522346507 
Si 4.2350384902 2.2130534262 7.0818135061 
Si 3.4574918260 9.4750231798 9.2990467189 

