&CONTROL
   calculation      = 'scf'
   tstress          = .true.
   tprnfor          = .true.
   outdir           = './'
   disk_io          = 'none'
   pseudo_dir       = '/home/ppiaggi/pseudos'
/
&SYSTEM
   ecutwfc          = 30
   occupations      = 'smearing'
   degauss          = 0.01
   smearing         = 'fermi-dirac'
   input_dft        = 'PBE'
   ntyp             = 1
   nat              = 64
   ibrav            = 0
/
&ELECTRONS
   electron_maxstep = 100
   mixing_beta      = 0.5
/
&IONS
/
&CELL
/

ATOMIC_SPECIES
Si 28.085 Si_ONCV_PBE_sr.upf

K_POINTS gamma

CELL_PARAMETERS angstrom
10.74208337257675 0.00000000000000 0.00000000000000
0.00000000000000 10.74208337257675 0.00000000000000
0.00000000000000 0.00000000000000 10.74208337257675

ATOMIC_POSITIONS angstrom
Si 2.3810150058 5.7652116936 4.1400311580 
Si 7.6684940255 4.1975013041 4.5605192696 
Si 2.5875315586 2.5818812228 3.8606510537 
Si 3.2446785089 9.6405364331 7.9055073530 
Si 6.5522196898 4.9693737048 6.6220754579 
Si 3.8357186782 0.2023507729 4.3258047479 
Si 0.8884315248 10.5742060936 4.3921478548 
Si 2.7839827793 8.1251399897 3.0128428656 
Si 7.5581620872 7.2570937165 10.3465491207 
Si 0.4251942183 4.3762280872 5.6817027374 
Si 6.4960278516 1.3334255511 3.8914593488 
Si 2.5959533520 4.6591101108 2.0728676022 
Si 4.3116466820 1.7360066097 1.2089462890 
Si 0.7844803840 1.3925714622 9.9818983585 
Si 5.6076682988 2.5392673780 8.5871999639 
Si 10.5780410174 0.2353160784 7.3549540960 
Si 9.5413547774 9.6405686594 3.5200303320 
Si 5.2254327462 6.8875875327 0.3357771163 
Si 9.7914412204 7.9987164105 1.6766888253 
Si 4.3151700853 8.9814129395 5.8039583883 
Si 5.4435722332 10.5121490780 2.2363835953 
Si 6.5893121037 0.9678165951 6.3788746904 
Si 4.8355380881 6.7154563887 7.7484473521 
Si 7.7956480664 2.0262362182 9.2009166711 
Si 9.8588477935 7.4897994686 5.1279053712 
Si 5.7020160171 6.9105111386 4.5437616195 
Si 10.5471575277 1.8985987836 3.1406521736 
Si 2.3055196438 2.9453396137 6.3868453162 
Si 4.0589391707 0.9206405876 9.8090474950 
Si 1.9452731359 0.6150379835 6.9289445536 
Si 2.1501998604 9.9389837355 10.4164048889 
Si 1.4318552611 7.3058735171 1.2371120316 
Si 7.8576513716 5.7502479714 8.6119389819 
Si 8.9909089412 9.6377005231 6.2255207082 
Si 7.3630858531 4.0665015974 10.5019548409 
Si 8.1436915677 6.5046430025 3.8126231989 
Si 9.5646006458 2.6109493004 5.0502615926 
Si 8.9458351593 9.7098443551 0.2577627358 
Si 8.4051109086 0.6662358271 2.4115332646 
Si 9.4530763362 1.6442155073 0.3147634528 
Si 5.5730250799 9.1787450110 9.1241215171 
Si 2.0667768409 7.6640790292 7.8934439934 
Si 1.7642582889 8.2482120389 5.2630085538 
Si 6.2800797496 3.5274745958 2.5256464163 
Si 1.8807669252 3.4300546417 8.9994918658 
Si 8.9310540526 1.8222762812 7.1413799944 
Si 4.4543015492 3.8907074030 6.2514091291 
Si 0.0530421519 9.3051793323 9.2060621290 
Si 0.0385852412 5.4548836470 3.3999660662 
Si 6.5471816527 9.4063804998 7.0884000392 
Si 10.0417854734 4.1361640080 1.3582505058 
Si 6.6836383378 0.0890605722 10.4211099214 
Si 9.8623604548 4.1515788977 9.0077632700 
Si 0.1522496961 5.7421914089 7.6513066921 
Si 1.0979268573 5.0051985529 0.0821884318 
Si 2.3061319426 10.5197866993 2.2052315535 
Si 4.2280947575 4.5226534257 8.9607773973 
Si 1.8023389745 2.0331863462 1.4077607681 
Si 3.0490329445 7.4355197213 10.1519992488 
Si 4.7798081595 5.0227940854 3.9111818139 
Si 7.9232962431 5.5215275323 1.5938781046 
Si 4.8492986969 4.5513347883 0.5901034596 
Si 5.0915649032 7.8793826063 2.4140791384 
Si 9.6304925852 7.4656190389 7.6670653284 

