&CONTROL
   calculation      = 'scf'
   tstress          = .true.
   tprnfor          = .true.
   outdir           = './'
   disk_io          = 'none'
   pseudo_dir       = '/home/ppiaggi/pseudos'
/
&SYSTEM
   ecutwfc          = 30
   occupations      = 'smearing'
   degauss          = 0.01
   smearing         = 'fermi-dirac'
   input_dft        = 'PBE'
   ntyp             = 1
   nat              = 64
   ibrav            = 0
/
&ELECTRONS
   electron_maxstep = 100
   mixing_beta      = 0.5
/
&IONS
/
&CELL
/

ATOMIC_SPECIES
Si 28.085 Si_ONCV_PBE_sr.upf

K_POINTS gamma

CELL_PARAMETERS angstrom
10.65190644679906 0.00000000000000 0.00000000000000
0.00000000000000 10.65190644679906 0.00000000000000
0.00000000000000 0.00000000000000 10.65190644679906

ATOMIC_POSITIONS angstrom
Si 1.9188024716 1.2376343581 7.9876196506 
Si 2.4530168837 5.0473632622 6.3331442375 
Si 5.2029343558 3.8576092235 1.9185681297 
Si 4.8868283801 2.4220198360 7.8051631451 
Si 10.4119402984 4.0305216209 5.3765604309 
Si 0.6055427733 3.3473509490 1.4786124377 
Si 9.5626957531 1.8759392001 0.0578985440 
Si 6.5832296970 3.1769417497 5.4609448338 
Si 7.2855951043 2.6367622699 0.0239068193 
Si 4.8185709636 4.9598471988 10.4612479733 
Si 8.8622902966 4.6953923175 7.2151966546 
Si 7.5043213513 7.4463430245 2.9104630061 
Si 4.2937408811 8.0520104251 8.0669550498 
Si 8.9655924853 6.9535006170 9.2102561245 
Si 2.3475523580 8.4369809760 6.5537558719 
Si 7.8691384952 5.9251016572 4.4158117290 
Si 10.2737744198 3.9364652869 9.3908485464 
Si 3.9355279192 2.8636585292 5.5357425209 
Si 0.2129880650 6.3370215314 4.5065553200 
Si 0.4220391853 9.1808462108 7.5170610314 
Si 8.8796848598 2.9300944697 4.0650231459 
Si 7.5533733805 8.2595628222 5.8595498249 
Si 10.2582971998 6.5395142730 2.0775691372 
Si 8.3249335721 0.9156847466 5.3318863353 
Si 10.0072317648 1.1335332764 2.6119007203 
Si 8.3051316780 8.9051216124 10.0131435729 
Si 5.0992060909 7.8159322225 4.3353046200 
Si 6.3696909285 6.6450959697 7.2699794095 
Si 9.5854375733 7.1394615998 6.7942865714 
Si 3.2418118599 0.0219884109 5.9654404269 
Si 3.0896919840 7.7806531083 2.4366662073 
Si 1.6419913788 3.2292639141 3.8815227535 
Si 2.4636261825 7.0961083405 4.8766664614 
Si 1.6092793741 0.8193584914 4.0893840559 
Si 6.7152387736 8.1565269311 0.9133935215 
Si 2.3034960729 6.5593907304 9.5328704150 
Si 6.2236639430 0.7312022484 0.6626849254 
Si 5.4642682286 5.4160790038 5.2425274921 
Si 1.7004383894 9.7557722093 2.0906496783 
Si 4.5009737210 7.4450221881 0.4958622230 
Si 4.2193053588 1.3140937426 2.0039325079 
Si 10.1677240393 9.0165938134 1.6052955611 
Si 1.7737235058 0.0295510515 10.3073918366 
Si 4.9885434348 10.5919788211 7.8146966013 
Si 7.0236647248 3.3675363117 8.5216423284 
Si 10.6500636670 10.5825199282 5.6046603556 
Si 7.8211303528 10.3920638409 2.2117512027 
Si 6.8103496463 5.7676132204 9.9227727986 
Si 4.2681230461 9.9949607686 10.3973791423 
Si 4.7905351459 0.6079373218 4.1531889755 
Si 1.8482655471 5.8282545238 1.5957514529 
Si 9.9281626633 8.7362995471 4.1727671796 
Si 8.9821668517 5.1360616872 0.6741016387 
Si 0.6107845764 8.2641218382 10.1045582340 
Si 1.7829267530 4.6772521208 8.5801639024 
Si 7.9414436362 1.0612984381 7.7954379545 
Si 2.2205177217 1.9747036766 0.6903511220 
Si 9.9905508793 0.0302693095 9.3958762462 
Si 10.5083613555 2.2126779186 7.2988780317 
Si 7.7610109929 4.1600488033 2.4274629602 
Si 6.8615746644 10.0734120596 4.1797548302 
Si 3.2433244306 3.1392659566 9.4939483489 
Si 3.7083866661 4.8820456741 3.4621358929 
Si 7.1146426578 9.5422121370 7.8651227265 

