&CONTROL
   calculation      = 'scf'
   tstress          = .true.
   tprnfor          = .true.
   outdir           = './'
   disk_io          = 'none'
   pseudo_dir       = '/home/ppiaggi/pseudos'
/
&SYSTEM
   ecutwfc          = 30
   occupations      = 'smearing'
   degauss          = 0.01
   smearing         = 'fermi-dirac'
   input_dft        = 'PBE'
   ntyp             = 1
   nat              = 64
   ibrav            = 0
/
&ELECTRONS
   electron_maxstep = 100
   mixing_beta      = 0.5
/
&IONS
/
&CELL
/

ATOMIC_SPECIES
Si 28.085 Si_ONCV_PBE_sr.upf

K_POINTS gamma

CELL_PARAMETERS angstrom
10.77143124912633 0.00000000000000 0.00000000000000
0.00000000000000 10.77143124912633 0.00000000000000
0.00000000000000 0.00000000000000 10.77143124912633

ATOMIC_POSITIONS angstrom
Si 5.7001983313 8.5852938771 6.5978247830 
Si 8.4307453815 5.5154898283 4.5843749968 
Si 3.3513800331 4.5413862147 9.5100966499 
Si 6.0346297287 6.6416214225 4.9746670367 
Si 8.1500849689 1.8986478720 0.4835036973 
Si 8.2512933369 5.0344377087 0.6924112978 
Si 1.9068987883 8.1014950425 7.2850851824 
Si 3.2831430162 2.2749478227 10.2205048550 
Si 9.7183191873 3.3415134021 9.8762175980 
Si 10.5394577057 6.0928277718 8.3513383904 
Si 5.4297923212 5.7759107216 9.8443449329 
Si 7.7707043889 9.3695079292 0.0185696243 
Si 10.3539521168 8.2217473010 0.7846793779 
Si 5.2530008201 9.7462602800 10.6001116351 
Si 2.7155532179 6.1995295697 4.5752623659 
Si 6.4867282411 7.6446463290 8.6475850640 
Si 3.5074365291 10.4874424642 8.0498460297 
Si 5.2801017412 7.7949077949 2.8850201458 
Si 4.9674824920 1.8924758419 4.6003921151 
Si 3.0695455345 5.9987608627 1.8231401389 
Si 7.0914902486 0.5472307160 2.4880390471 
Si 0.7046034809 1.8307663123 10.5439924783 
Si 5.3201283797 0.9199836344 8.6018172526 
Si 2.7746776040 1.4378675860 3.2437088064 
Si 5.3125022064 4.0998544763 2.5628681800 
Si 2.5291428287 3.5775585465 1.8022220194 
Si 10.5903958041 4.6629095020 5.4816029055 
Si 10.6859707136 2.4334278906 4.0085773679 
Si 5.5052785114 5.9599513959 1.3877373450 
Si 1.1135936483 8.4362926686 3.7758282815 
Si 4.5734958512 4.7830325033 4.8246425422 
Si 3.5275037055 8.6579902666 5.2441897894 
Si 10.1330623761 8.6407882909 6.6476641954 
Si 5.1076942126 1.8498963742 1.6101781717 
Si 8.7388514010 6.8622095630 10.0735717614 
Si 2.2216830952 7.8723974713 0.2826822103 
Si 8.9339651066 3.6778405714 7.3988853536 
Si 0.0806718803 3.6066306394 1.8745090946 
Si 6.5773482922 10.5441325069 5.0769956335 
Si 3.3713610381 3.9271776620 6.9938364529 
Si 1.8607001197 10.0159661470 2.0369315064 
Si 1.2030503848 0.9668781375 8.1625798292 
Si 7.0200648880 4.7566532682 8.3073801794 
Si 6.0851477413 3.1072563153 10.3308904825 
Si 10.2747820971 10.4944008088 0.8135155765 
Si 1.6487398956 5.7185851645 6.8996510581 
Si 4.2166060196 9.8836067998 1.8858406402 
Si 0.8917075502 10.3230811948 5.3074719480 
Si 7.6248699812 3.8490632426 2.9167420108 
Si 8.3292784992 6.9148818618 7.0828623322 
Si 3.5293887060 8.2021002104 9.3105558860 
Si 0.5364258934 5.3717558497 3.3381096298 
Si 1.6468656665 1.9753835482 5.9804386581 
Si 3.6846265731 0.2099438122 5.7566837168 
Si 10.0171833188 10.6286774708 3.3105347658 
Si 9.6833443501 0.1648890696 7.7198632334 
Si 7.8593748109 1.4199331530 6.6546656257 
Si 7.8009828821 0.3921361089 9.4284707438 
Si 10.0637913018 7.3249179352 3.0910776256 
Si 8.4954170548 1.9695992896 4.0216754283 
Si 5.6519100050 2.9051950365 6.7539566790 
Si 8.6521844652 8.7717688949 4.4639503954 
Si 7.1606536087 9.0288398731 2.5384170310 
Si 1.0819794975 5.7466770572 10.4377538519 

