&CONTROL
   calculation      = 'scf'
   tstress          = .true.
   tprnfor          = .true.
   outdir           = './'
   disk_io          = 'none'
   pseudo_dir       = '/home/ppiaggi/pseudos'
/
&SYSTEM
   ecutwfc          = 30
   occupations      = 'smearing'
   degauss          = 0.01
   smearing         = 'fermi-dirac'
   input_dft        = 'PBE'
   ntyp             = 1
   nat              = 64
   ibrav            = 0
/
&ELECTRONS
   electron_maxstep = 100
   mixing_beta      = 0.5
/
&IONS
/
&CELL
/

ATOMIC_SPECIES
Si 28.085 Si_ONCV_PBE_sr.upf

K_POINTS gamma

CELL_PARAMETERS angstrom
10.67402410265581 0.00000000000000 0.00000000000000
0.00000000000000 10.67402410265581 0.00000000000000
0.00000000000000 0.00000000000000 10.67402410265581

ATOMIC_POSITIONS angstrom
Si 7.5471541340 10.4462190803 2.7397231145 
Si 3.1285030944 5.6492379304 8.1130481958 
Si 6.2057175029 6.8069959546 9.0218025858 
Si 3.4037114578 9.6502037328 0.5182783077 
Si 6.2949950405 4.7281230204 10.2806756404 
Si 5.8693576554 10.2516743170 0.3713247483 
Si 5.2729892548 8.2034892020 5.0078998662 
Si 3.1708896441 2.7544532677 1.9583311800 
Si 5.4878146639 5.7675167914 6.2304278687 
Si 6.1420896452 3.2509021288 6.7234396940 
Si 9.0360737561 8.8435784054 4.2277354445 
Si 2.2996437747 4.5939505374 0.2981404368 
Si 7.9563535220 4.1238344939 4.7997243741 
Si 1.1785403492 8.1081488187 9.6821404129 
Si 1.4075942324 10.1350179075 7.0162922193 
Si 5.7017114328 4.7689831847 3.4059316548 
Si 10.0054886251 10.3398737781 5.8820170480 
Si 5.9282996165 0.7498992937 6.7499753179 
Si 9.8156724544 0.0166846738 9.2426588185 
Si 7.8451515389 6.1754673186 6.5958637579 
Si 7.4904003478 8.0181561215 10.5160805680 
Si 1.4563638486 2.9722567296 4.9649369192 
Si 7.0241483010 1.4351545627 4.1156581914 
Si 3.6084072180 7.5121540089 9.7300988032 
Si 9.5305692707 6.6077866428 4.9645526543 
Si 2.8372196506 8.2883049975 2.2892152532 
Si 9.1208575295 6.0919003839 8.9875389685 
Si 4.4811581248 0.4295526172 2.2551010722 
Si 0.4979282808 6.1699275001 6.2595999766 
Si 4.5393315561 2.5421789504 10.3975882264 
Si 1.7708846428 0.3375286532 9.5426522659 
Si 4.8712723577 7.0902098362 2.8285309950 
Si 3.7729472996 1.0490943241 5.8838956762 
Si 0.0874506784 8.9721470257 2.3876084074 
Si 7.1007344239 8.0446383753 2.2457186050 
Si 9.9208009178 1.9638709986 7.4249258840 
Si 8.5278194244 2.8022942438 1.8617205879 
Si 2.7703789117 4.7025373846 4.1192126415 
Si 6.9982958146 9.6039318383 5.8125825212 
Si 6.2872136769 1.2591505792 9.2001975507 
Si 0.5141965609 2.6786997187 10.2830559478 
Si 7.5635921311 5.1467048756 1.5691028911 
Si 8.2035852682 8.7933037519 7.8049851862 
Si 1.5646198010 6.0272478199 2.2995370345 
Si 0.9673067492 0.0467362145 4.0944275575 
Si 0.9424608233 3.8593748727 7.0476738501 
Si 0.3334714566 3.2074695247 2.3999796013 
Si 10.6490895824 8.0626561280 7.7317934029 
Si 3.1233902368 10.0479071968 4.2207546327 
Si 2.3432258152 1.9331191351 7.6910506529 
Si 9.6986958243 2.2153937025 4.5001365396 
Si 1.3208784606 0.9342706446 1.5753898913 
Si 2.8425673367 6.4738062923 5.6656012093 
Si 4.3006923992 5.9504909126 0.5549734678 
Si 3.7252984560 8.9086045602 6.7233543018 
Si 10.1264893623 7.3545520431 0.6662587083 
Si 5.1063143684 2.6118483057 3.9830334420 
Si 9.8702167176 5.6731584184 3.0737666988 
Si 0.6017513110 5.2714415213 9.2825049505 
Si 8.4697634073 2.4224377480 10.1962974799 
Si 8.0204083406 4.0132729522 8.4869165640 
Si 4.1554402793 3.4943019004 8.2427482627 
Si 5.0927690318 9.3720920348 8.7270500843 
Si 9.5802248308 0.0373442475 0.9605404854 

