&CONTROL
   calculation      = 'scf'
   tstress          = .true.
   tprnfor          = .true.
   outdir           = './'
   disk_io          = 'none'
   pseudo_dir       = '/home/ppiaggi/pseudos'
/
&SYSTEM
   ecutwfc          = 30
   occupations      = 'smearing'
   degauss          = 0.01
   smearing         = 'fermi-dirac'
   input_dft        = 'PBE'
   ntyp             = 1
   nat              = 64
   ibrav            = 0
/
&ELECTRONS
   electron_maxstep = 100
   mixing_beta      = 0.5
/
&IONS
/
&CELL
/

ATOMIC_SPECIES
Si 28.085 Si_ONCV_PBE_sr.upf

K_POINTS gamma

CELL_PARAMETERS angstrom
10.80567053650390 0.00000000000000 0.00000000000000
0.00000000000000 10.80567053650390 0.00000000000000
0.00000000000000 0.00000000000000 10.80567053650390

ATOMIC_POSITIONS angstrom
Si 3.4095780584 1.2378651997 4.2651926628 
Si 7.6882021697 10.4516767697 10.7893971967 
Si 7.9939053949 3.4275046658 8.6626143160 
Si 6.7051887097 9.9067684159 8.5507107919 
Si 2.2536738698 0.9238405276 6.9229445823 
Si 5.8610713387 10.0110431366 2.4307571985 
Si 4.6101096664 10.4563988478 7.7364386830 
Si 9.4952128422 1.9843425317 7.4497966607 
Si 9.6250861964 10.6360431204 8.5559191251 
Si 10.0639693109 5.1229359843 8.4486296224 
Si 3.3978755172 0.6728982796 10.0381437583 
Si 2.7912451733 8.0188124654 5.5648122696 
Si 3.0108704270 5.5337783838 2.0354209363 
Si 4.0307852519 1.0802796228 2.0479230971 
Si 5.2581905625 4.2404800943 3.4425137422 
Si 4.5971968901 5.5819716744 0.1045282217 
Si 1.6117630116 9.3014455581 7.2181879184 
Si 0.8844916784 3.1218230520 8.4894750570 
Si 2.4978388012 3.9727155784 7.1867001944 
Si 8.0837977681 7.5710362841 0.0112932224 
Si 0.4293363046 10.6068678100 3.9840183098 
Si 1.9928574000 5.5059537822 5.2243796193 
Si 10.8001596445 5.5673516022 1.3679978899 
Si 5.0822634404 8.3338517899 4.1874566690 
Si 5.8023425193 7.9092861889 9.8555819546 
Si 2.7756742021 8.4138137519 9.2911909768 
Si 2.8236297679 7.9999997930 1.7851616067 
Si 0.9180303186 8.5738457326 0.2673150000 
Si 5.0442707028 7.7471795195 7.0952950274 
Si 5.9159857564 4.5777034604 8.2719352978 
Si 4.5313579395 3.0624999208 10.4424379214 
Si 1.2243689172 0.4346883532 9.1531377300 
Si 5.2620589925 1.0049360044 5.7584606913 
Si 6.6467300321 5.9698088013 6.0998226292 
Si 2.7712762941 9.6723393936 3.6182139451 
Si 1.3567167699 5.5897193402 10.1460059616 
Si 10.5761797056 5.4553184100 6.0326545811 
Si 9.9674098390 8.6263396800 7.6542723642 
Si 9.7831299336 3.0059538469 2.5551412721 
Si 0.6940417352 1.9400392825 5.1739927776 
Si 8.1427751178 8.5989364995 2.3190697879 
Si 1.9870223379 3.4156292339 10.5457725488 
Si 9.0679566292 0.2549943745 2.9603755285 
Si 6.6707942603 6.6143886601 3.3549121712 
Si 4.6505660968 9.4325831758 0.3248195369 
Si 10.1216391745 10.4164827008 0.7956679860 
Si 7.0514456163 5.6081538141 1.0875691282 
Si 9.3618816734 4.0830522803 4.4978387495 
Si 1.6489129069 0.7548668546 1.4504991845 
Si 4.5584693669 2.7094678587 7.8174163780 
Si 1.4892050963 2.9622989379 2.3409404650 
Si 7.2829354962 10.6824210584 4.7770464705 
Si 8.5155923627 6.5201848244 4.5442599101 
Si 7.7045403436 8.7972745822 6.3892633202 
Si 10.0541037337 7.4511797865 9.5772711042 
Si 3.5927449797 6.2207488882 8.6867649897 
Si 8.2539762733 2.0212222852 5.4470412664 
Si 6.3724605025 3.2549273017 5.5434170419 
Si 3.1988026489 3.5342430794 4.2655924726 
Si 10.5901730490 7.6397495430 2.5522129354 
Si 8.5721276309 4.0284836441 0.0267658620 
Si 7.9489862224 1.7917746770 1.1807032025 
Si 5.8940394395 3.0788705116 1.5527424391 
Si 10.2586226599 8.4229553492 5.2153136618 

