&CONTROL
   calculation      = 'scf'
   tstress          = .true.
   tprnfor          = .true.
   outdir           = './'
   disk_io          = 'none'
   pseudo_dir       = '/home/ppiaggi/pseudos'
/
&SYSTEM
   ecutwfc          = 30
   occupations      = 'smearing'
   degauss          = 0.01
   smearing         = 'fermi-dirac'
   input_dft        = 'PBE'
   ntyp             = 1
   nat              = 64
   ibrav            = 0
/
&ELECTRONS
   electron_maxstep = 100
   mixing_beta      = 0.5
/
&IONS
/
&CELL
/

ATOMIC_SPECIES
Si 28.085 Si_ONCV_PBE_sr.upf

K_POINTS gamma

CELL_PARAMETERS angstrom
10.86747788502286 0.00000000000000 0.00000000000000
0.00000000000000 10.86747788502286 0.00000000000000
0.00000000000000 0.00000000000000 10.86747788502286

ATOMIC_POSITIONS angstrom
Si 10.2250143274 4.7559017444 9.9110094214 
Si 4.8207588524 2.0296210373 1.9891831521 
Si 1.5977148637 9.8740056592 1.6234164489 
Si 9.9093575648 2.8023421848 8.5577476053 
Si 8.1327422801 4.9983443085 1.9552005487 
Si 6.4633346648 4.0917140985 5.0103528716 
Si 10.0718154917 7.1218820897 9.6047095572 
Si 2.6417425966 2.4990960819 6.0705622791 
Si 8.8336946037 1.6804924428 2.4541481934 
Si 2.9408047206 3.7156341588 2.2615656178 
Si 10.4849317960 10.5736212830 5.6679765608 
Si 7.9959968059 7.0548297511 0.2228604557 
Si 5.0989662863 9.8418053222 9.5230404609 
Si 7.6937287760 2.4212088679 7.0411475965 
Si 10.7428605161 8.3529608520 0.5974232955 
Si 6.7966619465 1.0153321576 8.8122965398 
Si 10.6093100804 10.6895772720 3.2764685100 
Si 5.3689253044 9.9193013070 6.9265500422 
Si 1.9542768131 6.4184519812 8.9900667430 
Si 0.2741386501 3.5081522710 4.5158391579 
Si 2.6230070648 2.6510560252 9.9034239218 
Si 4.9697737092 2.7707069567 9.6518744112 
Si 7.2715055252 9.3799049097 10.0764776397 
Si 6.1380058469 8.2551970209 3.2962581872 
Si 2.6129981176 7.3066509487 3.8092683483 
Si 8.0760792504 10.7496852922 6.3662663523 
Si 5.8331078873 6.3938262763 6.1625880818 
Si 5.6810501367 3.8893725277 7.5190340690 
Si 2.1491741615 5.1826458660 0.4817683356 
Si 0.2616562650 5.8362703234 4.4057624744 
Si 3.6158707118 5.2494699875 4.2497272269 
Si 4.5909442976 5.7518843576 0.2999456499 
Si 3.9177583800 10.8614355673 4.9263581350 
Si 7.1665256888 7.0589050553 8.2664774630 
Si 1.3480345593 0.8871209137 0.0807209089 
Si 7.3846794399 0.4786287213 3.7083964185 
Si 9.1569694684 8.8390740053 2.2266158089 
Si 1.8744986580 9.6483098785 6.5875608045 
Si 3.3090818111 4.9032756120 6.6019710802 
Si 9.3035391426 9.9453941214 8.8563858975 
Si 0.5411373673 6.3384456090 2.0180037034 
Si 0.9844022288 7.0356377852 6.2986054350 
Si 4.9824343209 7.2465755309 9.2935736654 
Si 2.8193497877 8.6907981370 10.3540221574 
Si 9.5980260583 7.9172619286 7.0463205160 
Si 3.8154736781 7.7396982075 7.3234303345 
Si 9.8018456061 1.0952570237 10.0409301195 
Si 10.1325429581 4.1120688846 1.2944578933 
Si 7.6588007021 1.1033315598 0.3213578415 
Si 6.2956603485 3.6494729534 0.5644274592 
Si 8.7189883746 3.8995662220 4.0927139065 
Si 7.4454938462 8.4148294036 5.5027474271 
Si 1.6620285978 3.7581912022 8.4407918083 
Si 0.9970737080 9.9854190425 9.1710319847 
Si 7.6941091377 4.8855507556 9.2198160930 
Si 3.0334934394 0.4921467770 7.8594143438 
Si 5.6080098179 5.5502926428 2.8395089592 
Si 8.8282282623 7.0588398505 3.5703468470 
Si 5.4166770022 1.7879826665 4.1718508804 
Si 0.2582710457 2.1225923106 6.5930597483 
Si 0.8050801497 2.2002078376 2.4593319803 
Si 6.9586091019 9.8154625558 1.7866133643 
Si 4.0243792055 9.3287082214 3.2287602821 
Si 4.4353872191 10.8500681855 1.1067004779 

