&CONTROL
   calculation      = 'scf'
   tstress          = .true.
   tprnfor          = .true.
   outdir           = './'
   disk_io          = 'none'
   pseudo_dir       = '/home/ppiaggi/pseudos'
/
&SYSTEM
   ecutwfc          = 30
   occupations      = 'smearing'
   degauss          = 0.01
   smearing         = 'fermi-dirac'
   input_dft        = 'PBE'
   ntyp             = 1
   nat              = 64
   ibrav            = 0
/
&ELECTRONS
   electron_maxstep = 100
   mixing_beta      = 0.5
/
&IONS
/
&CELL
/

ATOMIC_SPECIES
Si 28.085 Si_ONCV_PBE_sr.upf

K_POINTS gamma

CELL_PARAMETERS angstrom
10.70697436976316 0.00000000000000 0.00000000000000
0.00000000000000 10.70697436976316 0.00000000000000
0.00000000000000 0.00000000000000 10.70697436976316

ATOMIC_POSITIONS angstrom
Si 2.9747079822 5.4021825043 6.9404963399 
Si 1.4599387832 9.3509467728 1.7601088097 
Si 2.6356716388 1.1433442581 4.6164940181 
Si 4.7489928259 8.5058345788 1.1737306513 
Si 5.6563446619 0.5460974501 0.8318665960 
Si 3.1980019327 0.5875762688 1.3255555479 
Si 4.0476538838 7.3211078648 3.8908181232 
Si 0.9975538123 8.6002165579 7.9717599903 
Si 0.1875251612 9.2507187857 3.8368228515 
Si 10.5807926768 6.8061880534 0.2607576538 
Si 5.6380571497 6.2902296655 8.7464095859 
Si 7.5592416818 10.3069511003 2.3794002072 
Si 3.8958075733 5.7813807086 1.3665418458 
Si 10.5707923628 9.9250333246 0.0733457724 
Si 2.1727770158 2.5604337299 2.1124325083 
Si 6.9064374544 2.3478788747 10.6774873623 
Si 3.8798648884 9.9478498869 3.6728669529 
Si 9.2660940009 1.4125711286 8.5564571536 
Si 0.0181135239 3.7461776064 0.8236275792 
Si 7.3070174865 4.7429005575 7.1960611111 
Si 0.8970870597 6.2088031254 4.1546486786 
Si 6.6234092940 6.8127942566 0.5107933435 
Si 1.6499233364 6.5778725320 1.7756981644 
Si 8.1490674859 5.8610298909 4.6889052858 
Si 8.3865267634 8.4917977354 0.8708207101 
Si 10.3649186596 2.5518788573 3.4704730164 
Si 3.7214230817 3.3644739702 0.0490616050 
Si 6.1315308914 0.1211815359 4.3950844951 
Si 9.6144668260 7.1799257008 3.2620296394 
Si 5.3691193675 3.6556715521 5.6136345411 
Si 9.9748100484 8.5906766437 6.0520637276 
Si 0.7280089446 6.4898290817 8.8853861133 
Si 6.5791787828 9.4073404068 9.5688551152 
Si 3.8822418367 8.4883286757 9.4316987735 
Si 5.5441141566 6.3826094404 5.2584413734 
Si 4.7440676177 3.6501253394 8.5544228285 
Si 3.3452549512 2.2823200706 6.6274886512 
Si 9.4178760696 6.0968081735 6.7488093778 
Si 0.5052578377 4.3429736508 6.9431088417 
Si 4.0972914169 0.4442002457 7.8794016294 
Si 8.7807468527 5.1188545485 1.2088602342 
Si 7.3148549918 9.3470173132 6.4500205510 
Si 7.1704607354 8.1358872004 3.9660346182 
Si 2.1163191400 7.2674230953 5.7586390950 
Si 6.3595144967 0.6932508937 7.7286581372 
Si 0.8959628274 0.1754145025 6.0529416995 
Si 7.3128956155 1.9557680593 5.2652510091 
Si 9.2489949629 9.8234241378 8.5042927745 
Si 3.4827860369 4.2869226400 4.0608877041 
Si 7.0733377709 2.7233296379 8.5803979483 
Si 6.1242608558 4.2138475399 1.8660971490 
Si 3.1999720159 9.2923475021 6.4380394467 
Si 8.0258837457 3.7508886752 3.6471809214 
Si 1.2242782773 1.9452645174 8.3115565289 
Si 1.3320225604 3.9525759514 9.6329684777 
Si 5.6054008779 8.0368798084 6.8626994641 
Si 3.0079638446 6.1939846729 9.4098993737 
Si 1.9927820697 10.5734369854 9.4834241667 
Si 4.9243088242 2.1906683700 2.8549933017 
Si 9.7640753789 2.1595753164 6.0584557913 
Si 1.2147169492 3.8569840842 4.7875914685 
Si 8.3218887592 7.1167438450 8.6493936912 
Si 9.0598455536 1.7667685477 0.4298389810 
Si 9.5637907163 0.6762332286 2.4388667429 

