&CONTROL
   calculation      = 'scf'
   tstress          = .true.
   tprnfor          = .true.
   outdir           = './'
   disk_io          = 'none'
   pseudo_dir       = '/home/ppiaggi/pseudos'
/
&SYSTEM
   ecutwfc          = 30
   occupations      = 'smearing'
   degauss          = 0.01
   smearing         = 'fermi-dirac'
   input_dft        = 'PBE'
   ntyp             = 1
   nat              = 64
   ibrav            = 0
/
&ELECTRONS
   electron_maxstep = 100
   mixing_beta      = 0.5
/
&IONS
/
&CELL
/

ATOMIC_SPECIES
Si 28.085 Si_ONCV_PBE_sr.upf

K_POINTS gamma

CELL_PARAMETERS angstrom
10.61029047230636 0.00000000000000 0.00000000000000
0.00000000000000 10.61029047230636 0.00000000000000
0.00000000000000 0.00000000000000 10.61029047230636

ATOMIC_POSITIONS angstrom
Si 10.2132427925 6.2758170497 1.9708296244 
Si 10.1626210967 7.0470896744 4.9994309368 
Si 5.8658566465 8.9150419224 2.5597325764 
Si 9.4752015976 7.0191952208 7.5499219502 
Si 6.1787859434 7.5778482347 8.0242762064 
Si 5.9378262467 8.8344885971 6.0595262784 
Si 4.7725404853 0.3283566592 4.4002784441 
Si 1.9437839939 1.0099914280 5.2769749149 
Si 9.9720921107 1.1447654596 3.6870653288 
Si 3.4800055103 1.8041101302 3.1323275121 
Si 5.5718136666 6.4025888003 5.4829843148 
Si 9.5606356565 5.7186282559 9.9794768729 
Si 8.4376319026 3.8835360775 4.9250952417 
Si 10.2072479784 1.9059264775 5.8562543336 
Si 8.4982378818 3.2326584188 9.2635793541 
Si 4.8506216129 3.2904632813 1.0359155507 
Si 10.3292875394 1.6075544992 9.2877283752 
Si 8.5192250363 8.1389946669 10.1884147128 
Si 3.8041392739 6.6111871110 10.4191673100 
Si 3.1484869845 9.0083382065 5.2709058288 
Si 1.5686359537 1.7611915052 0.3126290257 
Si 2.1797568540 3.4293625938 8.5758627669 
Si 3.9690125776 0.5287712529 7.2581177416 
Si 1.1649037910 5.0076326913 10.2199484961 
Si 8.2731724003 9.2143051652 5.1638904391 
Si 5.5963128273 3.0504372902 4.1589898285 
Si 2.6850931584 10.5554246603 1.5771454067 
Si 3.2333374774 6.7742248344 6.1546899737 
Si 7.2929619356 1.3104027042 5.2807946195 
Si 6.6179989175 5.4814776535 9.1051146659 
Si 8.0266529114 5.1662777545 7.1069635436 
Si 10.3876547473 10.5074237062 7.3784596562 
Si 3.5204201067 8.3567284377 2.7820181618 
Si 1.5662380281 6.4575182741 7.9141520016 
Si 1.1323938609 8.7731080667 8.4750756177 
Si 2.5754782475 3.9098920390 2.1764570537 
Si 3.9340516705 8.6364263049 8.2998148396 
Si 7.1060298380 4.7953632201 2.8939567263 
Si 8.5036597402 9.2321728943 7.8145425946 
Si 7.5729887217 7.0444052710 3.7936350863 
Si 4.4501468093 10.2764270723 10.4013526323 
Si 6.4931794603 0.2831578829 7.2805691163 
Si 6.9160950283 0.2558459342 9.9116983373 
Si 0.5983758194 9.0687956416 5.3647007966 
Si 9.5755325043 0.0619119998 0.3464196177 
Si 6.2943744478 2.6975814703 8.0306636012 
Si 9.0995018222 3.6910229672 1.3777886590 
Si 7.1353142397 2.1938260992 0.6996574082 
Si 4.1698229350 5.2343109370 8.2733846061 
Si 4.4181886144 5.9065365001 3.1021306254 
Si 7.7393580763 0.2533397835 2.6958095518 
Si 2.6289222806 4.6411744790 4.5209811085 
Si 0.0172683538 4.8495075324 3.9608320436 
Si 1.9266059337 7.0515884376 1.2800678837 
Si 2.9049808181 2.9974919408 6.3155631978 
Si 5.3264931406 3.9941483557 6.2044204051 
Si 0.2030300302 9.7726292601 2.9247902304 
Si 8.8395178748 8.4415152689 2.1324031277 
Si 4.1963911024 2.2635781488 9.3541063524 
Si 0.9185339072 8.8886116888 0.2177114892 
Si 5.8472780278 5.6818423788 0.8142527894 
Si 0.3125791573 2.8784550919 2.4142654941 
Si 6.1165459794 8.3537151152 10.5393712908 
Si 0.1512942539 4.3020908161 6.3543756404 

