&CONTROL
   calculation      = 'scf'
   tstress          = .true.
   tprnfor          = .true.
   outdir           = './'
   disk_io          = 'none'
   pseudo_dir       = '/home/ppiaggi/pseudos'
/
&SYSTEM
   ecutwfc          = 30
   occupations      = 'smearing'
   degauss          = 0.01
   smearing         = 'fermi-dirac'
   input_dft        = 'PBE'
   ntyp             = 1
   nat              = 64
   ibrav            = 0
/
&ELECTRONS
   electron_maxstep = 100
   mixing_beta      = 0.5
/
&IONS
/
&CELL
/

ATOMIC_SPECIES
Si 28.085 Si_ONCV_PBE_sr.upf

K_POINTS gamma

CELL_PARAMETERS angstrom
10.71196294753760 0.00000000000000 0.00000000000000
0.00000000000000 10.71196294753760 0.00000000000000
0.00000000000000 0.00000000000000 10.71196294753760

ATOMIC_POSITIONS angstrom
Si 3.7953877278 5.9910187732 6.1772355371 
Si 6.0292390570 2.7323753728 8.2148008572 
Si 1.2491434232 9.2365935788 10.3077041779 
Si 7.3469283311 3.2703729998 0.1232679136 
Si 0.4004335277 4.3841493473 0.3888410414 
Si 10.1160136009 3.6046612275 8.7719086261 
Si 5.4577558337 2.7694709005 5.7503102538 
Si 6.2753571177 6.4534327897 7.5218975339 
Si 7.9231676659 3.5235930920 2.7919017509 
Si 8.5057699067 6.4266207464 2.8729163266 
Si 1.5106010149 2.9614828363 7.5517624866 
Si 2.5021967130 3.3874011950 1.4316645599 
Si 2.8306790567 1.1870783099 9.0462527092 
Si 8.0714212331 4.6449535092 8.2396311873 
Si 3.7703217345 0.8976367863 6.6891281104 
Si 10.2012165542 3.1572439592 2.5614767159 
Si 10.4266391025 0.7969454058 7.9749707187 
Si 6.7252702734 8.8759753462 4.9924924351 
Si 2.0296706034 1.1628050019 0.7233670747 
Si 8.3552882512 9.5091273401 1.4053024191 
Si 5.5376349414 5.4984934288 1.9013734232 
Si 9.8855028702 7.1234874960 10.0796143508 
Si 10.6532078308 0.8277326585 2.1439351122 
Si 2.4440628900 8.5649963499 2.8016603491 
Si 1.6713125950 7.6375117500 7.1985462204 
Si 3.1890477771 6.1657630248 2.0378116953 
Si 4.5582508811 8.4007391100 6.3001874478 
Si 9.1926852427 1.6632679108 10.2063690084 
Si 9.3654906290 5.6410375198 6.4105420901 
Si 8.9296208566 5.2261203470 0.7712377659 
Si 10.6192509082 8.9433964410 1.8304280926 
Si 5.3931734091 1.6954359355 1.5312643914 
Si 2.6254914065 9.7088411773 5.3314403667 
Si 7.0413588761 0.7233767155 4.2567733959 
Si 10.6372470060 7.0926477547 3.8061639626 
Si 1.4489643801 9.8044025988 8.1621087114 
Si 2.0071326334 5.8459787949 4.2298756569 
Si 8.3297187957 9.6145223436 6.5277309647 
Si 0.5075927914 5.9982493482 8.2176930872 
Si 5.7634109845 9.8212096686 8.5151535863 
Si 4.4893836713 3.6497693035 10.5534151840 
Si 1.5957932562 2.5121374146 5.1246887698 
Si 4.8798240088 0.9832885708 9.8368062867 
Si 3.4831232959 10.3695336280 1.9018126137 
Si 5.0579425287 5.0168728627 4.4998171232 
Si 0.4688433367 0.1944542634 4.5277432106 
Si 3.4135276727 3.3914717410 3.7186579372 
Si 7.9087600758 3.3099965508 5.3539676247 
Si 4.2024423198 5.8171314787 9.4112735586 
Si 3.6481089493 4.1717204101 7.4902972432 
Si 4.4959286807 8.2827254142 0.7241597599 
Si 8.4064164504 7.7850690396 7.7761245505 
Si 3.8562852372 8.3997750333 8.9884509571 
Si 7.6376617175 0.6394634825 8.2867638243 
Si 9.2388645150 1.2135475704 5.5613833633 
Si 10.4929997129 8.4710310109 5.7490355302 
Si 6.5115237648 7.7813091406 2.5290730280 
Si 7.6644416249 0.9067141037 1.6414904901 
Si 4.4307892340 0.9423838691 3.8811155673 
Si 0.0631277400 4.2961827076 4.5539446720 
Si 7.1486177611 5.9256650872 4.7484203593 
Si 6.3969807450 6.3420176631 10.3394972839 
Si 7.4621569166 8.4153288035 10.0816281999 
Si 1.8486062937 6.4870255055 10.6101243158 

