&CONTROL
   calculation      = 'scf'
   tstress          = .true.
   tprnfor          = .true.
   outdir           = './'
   disk_io          = 'none'
   pseudo_dir       = '/home/ppiaggi/pseudos'
/
&SYSTEM
   ecutwfc          = 30
   occupations      = 'smearing'
   degauss          = 0.01
   smearing         = 'fermi-dirac'
   input_dft        = 'PBE'
   ntyp             = 1
   nat              = 64
   ibrav            = 0
/
&ELECTRONS
   electron_maxstep = 100
   mixing_beta      = 0.5
/
&IONS
/
&CELL
/

ATOMIC_SPECIES
Si 28.085 Si_ONCV_PBE_sr.upf

K_POINTS gamma

CELL_PARAMETERS angstrom
10.74903224335917 0.00000000000000 0.00000000000000
0.00000000000000 10.74903224335917 0.00000000000000
0.00000000000000 0.00000000000000 10.74903224335917

ATOMIC_POSITIONS angstrom
Si 1.4394566529 0.1415529307 10.2161274718 
Si 1.3487778169 7.9600990865 6.7334947701 
Si 9.5252656715 5.3162778650 4.2699240703 
Si 6.0352376356 4.3042457302 7.0632428323 
Si 3.4842450565 6.6632283464 6.7583787798 
Si 5.3586183030 2.3804914296 4.9628066887 
Si 0.1032315559 7.5642444761 0.9566724689 
Si 6.3603636139 3.3364566122 2.9135789347 
Si 2.8771827115 9.5873628308 3.7790050187 
Si 7.8662492860 6.4932968956 6.3152929217 
Si 0.3821528190 2.7747659323 7.5944600057 
Si 2.4285718509 2.3684417645 9.9338256380 
Si 6.7329788166 10.4141568928 5.5163496021 
Si 7.4403941266 1.3810894078 8.6976976791 
Si 6.9344801750 0.4754941903 0.2774851925 
Si 4.5865475640 5.4350761693 9.4364679161 
Si 9.6408822623 9.7025709583 4.5184846919 
Si 9.4055859465 4.1154282299 6.6303148096 
Si 0.8723473858 4.6820634646 0.7351220155 
Si 7.2253812346 7.3380525906 0.1892485366 
Si 7.3985588931 9.5407550269 7.8921652028 
Si 3.2392316156 4.9896577712 1.6617251416 
Si 1.1513395926 4.6916838484 9.0534154031 
Si 3.9417561159 9.2411902474 0.0644117484 
Si 6.5548458543 3.5526948938 9.5035633754 
Si 3.3905672405 3.4104314521 3.7782848335 
Si 1.7017437886 0.2668275270 7.3043543745 
Si 4.8209194631 0.1516108002 1.5696919275 
Si 0.4309684741 7.3439860564 3.8880109547 
Si 6.3541829203 6.8666000364 8.3674981576 
Si 0.4635810379 2.6690814473 1.7894666408 
Si 4.8170175644 8.6556044688 7.5714248296 
Si 9.9051042239 9.5294362960 2.1263628093 
Si 4.0985307512 0.0928496031 5.9916073137 
Si 6.0893590130 7.3112767513 2.6744344654 
Si 8.2448839468 5.0005465409 10.2632942253 
Si 9.9399095903 6.0752132865 8.2189142849 
Si 8.4811154284 1.2207030977 4.1894460659 
Si 4.5367043015 1.0098060102 9.2138662074 
Si 8.2617061822 9.4182805536 0.1336642159 
Si 4.4101344469 6.8362125223 0.6734397689 
Si 2.6366086209 9.0157077980 8.7533776661 
Si 10.1322850203 3.0604214642 3.9564715410 
Si 7.5433376084 2.7957157962 6.1008604775 
Si 1.5911684940 5.0510992395 5.1164748536 
Si 8.0532716980 1.8202733672 1.7466854924 
Si 5.3519646520 9.6360559468 3.4397440630 
Si 4.4606334003 3.3448838535 0.4026877702 
Si 3.9036400476 2.2758496008 7.3787699247 
Si 9.6761713351 8.4920256961 6.5906186336 
Si 1.1839951526 10.4542937792 1.9644716347 
Si 2.9766005108 1.6947461686 1.8162962253 
Si 10.0911054778 1.3361477040 9.2337841641 
Si 9.3526899588 5.6032770259 1.6151495849 
Si 2.9306806450 4.5254930609 7.9021510537 
Si 1.4201083948 2.5691691926 5.3779020668 
Si 1.1225106881 10.4267440096 5.0078773809 
Si 4.7531790619 5.3846202120 5.0234204815 
Si 9.7498667002 9.6608862113 9.0704096231 
Si 9.4016732988 2.6710915163 0.2571974690 
Si 2.9030663812 6.7124804121 3.5365605965 
Si 6.9761111769 5.5020103931 3.8616973237 
Si 0.4185619410 7.8836304712 9.4920189148 
Si 2.2076792383 7.9274542756 1.5916951965 

