&CONTROL
   calculation      = 'scf'
   tstress          = .true.
   tprnfor          = .true.
   outdir           = './'
   disk_io          = 'none'
   pseudo_dir       = '/home/ppiaggi/pseudos'
/
&SYSTEM
   ecutwfc          = 30
   occupations      = 'smearing'
   degauss          = 0.01
   smearing         = 'fermi-dirac'
   input_dft        = 'PBE'
   ntyp             = 1
   nat              = 64
   ibrav            = 0
/
&ELECTRONS
   electron_maxstep = 100
   mixing_beta      = 0.5
/
&IONS
/
&CELL
/

ATOMIC_SPECIES
Si 28.085 Si_ONCV_PBE_sr.upf

K_POINTS gamma

CELL_PARAMETERS angstrom
10.67672006010922 0.00000000000000 0.00000000000000
0.00000000000000 10.67672006010922 0.00000000000000
0.00000000000000 0.00000000000000 10.67672006010922

ATOMIC_POSITIONS angstrom
Si 5.4757373871 1.5622070025 4.6593419877 
Si 10.2714958269 4.1063733023 4.5278581801 
Si 2.9223784313 9.7896768041 10.4977782319 
Si 0.2916645033 0.6464006626 8.7412869545 
Si 3.0975727307 3.2601578238 3.2395517541 
Si 8.7493692316 5.0525335573 1.5332090308 
Si 0.2939653364 3.6246930768 0.3718915131 
Si 8.9030819703 5.3193554683 9.4209989837 
Si 7.8758533799 7.2753199066 1.7439354546 
Si 1.1063217326 7.2452329095 6.2055766169 
Si 8.8939640514 2.1070934107 0.5474317383 
Si 8.1676908460 3.0563072077 3.7475821247 
Si 4.3594863048 7.9053318039 8.3135455187 
Si 8.1054135379 3.1024626685 8.1787198978 
Si 4.5334954883 8.5560031546 5.9527839161 
Si 8.7730822268 9.6328784933 0.3436313028 
Si 8.1410844596 10.3137222548 5.8542698201 
Si 3.1062422274 0.3713736922 8.3457465064 
Si 6.4570774347 0.0307878170 8.5999592111 
Si 10.1043838046 5.6301120824 6.4893745129 
Si 0.2897608441 8.2422890890 3.5824239421 
Si 8.0522648254 6.6307663166 6.8402328875 
Si 0.2096245863 8.8780664152 1.2251856571 
Si 8.8246294313 1.0318505425 2.7242825673 
Si 3.6663216083 2.4925230049 6.1936613973 
Si 8.4247542349 9.1185275044 3.6672718364 
Si 2.4511613914 6.0638111280 8.6977259366 
Si 7.8035826618 7.9364010593 9.8786138822 
Si 4.0445657699 1.5564736038 0.3141699615 
Si 5.2020289916 2.1159337350 8.5247844251 
Si 0.8327329164 0.5343378088 3.2949212243 
Si 8.8788351390 1.0038390998 9.1177374271 
Si 5.6641281125 3.2290672150 2.4207113858 
Si 3.4411495823 0.6323799938 2.6280959962 
Si 6.1814579063 5.3737960639 3.3821073203 
Si 1.4449445861 2.7180900696 7.5489322116 
Si 10.0825178819 1.0827795649 6.1445591618 
Si 0.6877451934 4.6733818746 8.7315070789 
Si 8.8477552069 8.8031905774 7.6278011427 
Si 6.6144202582 0.6224196817 0.9913003597 
Si 5.6915032228 10.6334579904 6.4337915082 
Si 6.5495912140 3.2467158332 10.5893738133 
Si 0.4483101370 5.2912116343 2.6379506089 
Si 6.1321741665 6.3786782793 8.8918073539 
Si 4.6148627719 4.5524039595 7.3157312921 
Si 0.6257380063 9.7711526948 5.6932328514 
Si 3.5969336047 6.4314533065 5.8457070906 
Si 2.4179354386 6.6415391272 1.7704564272 
Si 1.1781119983 2.4528056063 4.9951888939 
Si 3.1557822085 8.8444561004 3.3121320970 
Si 2.8631226349 10.4389815345 5.7150774207 
Si 0.9619842218 0.5675114457 0.6186144986 
Si 6.6362007671 7.8249574553 4.9975698025 
Si 5.5960106385 7.9293330706 2.2035041929 
Si 5.6675126328 5.5232487913 0.5369439962 
Si 7.5299062965 2.5411981717 6.0344074409 
Si 6.0623590941 10.4986430462 3.1410696882 
Si 6.5007238663 4.8888487621 6.0206131186 
Si 3.8373519870 5.8452373149 3.6424698157 
Si 1.3568082620 7.6205516498 10.0204114013 
Si 0.4510625954 8.9836805300 8.3110044594 
Si 2.3424189976 3.1442620275 0.8547483132 
Si 5.4912720148 9.1435003526 10.5674651837 
Si 3.2582573676 5.3562328594 0.1696445404 

