&CONTROL
   calculation      = 'scf'
   tstress          = .true.
   tprnfor          = .true.
   outdir           = './'
   disk_io          = 'none'
   pseudo_dir       = '/home/ppiaggi/pseudos'
/
&SYSTEM
   ecutwfc          = 30
   occupations      = 'smearing'
   degauss          = 0.01
   smearing         = 'fermi-dirac'
   input_dft        = 'PBE'
   ntyp             = 1
   nat              = 64
   ibrav            = 0
/
&ELECTRONS
   electron_maxstep = 100
   mixing_beta      = 0.5
/
&IONS
/
&CELL
/

ATOMIC_SPECIES
Si 28.085 Si_ONCV_PBE_sr.upf

K_POINTS gamma

CELL_PARAMETERS angstrom
10.74781356601017 0.00000000000000 0.00000000000000
0.00000000000000 10.74781356601017 0.00000000000000
0.00000000000000 0.00000000000000 10.74781356601017

ATOMIC_POSITIONS angstrom
Si 1.3628550036 7.3809964796 7.9606798043 
Si 8.7726341279 6.6917929347 9.7321129406 
Si 3.6696367337 4.7519845510 8.7334046084 
Si 10.2327675921 0.0738310305 9.4233497525 
Si 6.6077665282 0.3491523967 6.6018014917 
Si 0.8819870769 2.5046812212 6.3573962112 
Si 7.1020907175 8.4947601560 3.5806663330 
Si 5.5655940380 3.5079466264 10.7011250639 
Si 2.3861650810 4.3036932472 2.7899389411 
Si 0.4768708149 7.4123800952 2.3565870981 
Si 2.1342793223 3.3965562866 9.8827757911 
Si 2.7318255131 8.7771267140 0.1513270654 
Si 3.5692629028 0.2183407578 9.5752486016 
Si 5.4504742068 7.2942508763 1.7111164066 
Si 0.6532252390 10.5962478991 0.9192432978 
Si 2.3993419005 10.0361685864 2.9952544236 
Si 0.0814627305 5.0103404935 8.2547937225 
Si 6.8495385944 2.7420896751 3.2150149676 
Si 0.2476435967 1.6741761714 3.9645459901 
Si 4.5966249059 3.7054914397 4.6327483073 
Si 8.5358382994 8.4955125029 1.8748056072 
Si 8.5098608340 4.5530640175 4.7537042012 
Si 6.0060286901 10.4669517019 4.2284800478 
Si 2.3890992341 1.8565343241 0.9139005597 
Si 8.6359541828 1.2693597734 4.7169036875 
Si 5.7755418282 7.3992570148 7.0059192817 
Si 3.6930777150 5.5979342090 1.1007050829 
Si 7.4255461668 2.3793832107 7.6666626163 
Si 6.6613766223 5.1560808455 1.5544562761 
Si 9.3312947293 3.6843182470 6.8233354249 
Si 0.5076633008 7.9069514842 10.2071663002 
Si 2.1538618386 5.5143162194 5.0382633132 
Si 6.9544157591 0.4942285338 10.1916142140 
Si 6.3250345445 9.4286914158 8.2948615715 
Si 9.4060242770 8.9708775491 8.2256026608 
Si 10.5612207747 5.4420264254 3.6395428557 
Si 1.3375009114 5.6056188957 0.0083165937 
Si 8.0734888554 8.9651597123 10.4298609973 
Si 3.7763840180 9.4002741967 5.0769017029 
Si 9.8915675026 10.2572941027 2.6198870349 
Si 10.4704554891 6.9219788578 5.7037571813 
Si 4.2934720765 6.8880157669 4.9984964030 
Si 2.9620866710 7.5724150392 2.6654147731 
Si 6.2208022486 5.5823606271 4.0190266571 
Si 4.9417694430 8.2621667226 10.1512454262 
Si 1.0461599291 9.7323386447 6.8636397258 
Si 5.0607584869 1.3636933331 0.5885599439 
Si 8.9615914382 6.0389922343 1.2805482473 
Si 10.0541711741 3.9212000580 10.6755237720 
Si 2.5027573626 4.1366292331 6.8087828853 
Si 5.9326641147 4.0501093339 8.3258797614 
Si 4.2055334659 2.2488725106 6.8389090067 
Si 8.5838917739 1.7874796220 1.7090850698 
Si 0.1743080404 3.0418461955 1.8718499585 
Si 2.5889978187 1.5864095258 3.4635044173 
Si 7.5033710848 5.7036711988 7.8530834426 
Si 1.4801458931 1.0892156702 8.4533273347 
Si 3.8588197480 10.7095620975 7.1359355825 
Si 0.2588395941 9.1024415350 4.4970356654 
Si 5.0022366421 1.3101262303 2.9119158773 
Si 8.1479282122 7.4348645212 5.7395474005 
Si 8.9107112888 9.7055550933 6.0092852776 
Si 3.5065709062 7.0230512966 8.6457884322 
Si 8.6890161384 1.8835543274 9.7500510414 

