&CONTROL
   calculation      = 'scf'
   tstress          = .true.
   tprnfor          = .true.
   outdir           = './'
   disk_io          = 'none'
   pseudo_dir       = '/home/ppiaggi/pseudos'
/
&SYSTEM
   ecutwfc          = 30
   occupations      = 'smearing'
   degauss          = 0.01
   smearing         = 'fermi-dirac'
   input_dft        = 'PBE'
   ntyp             = 1
   nat              = 64
   ibrav            = 0
/
&ELECTRONS
   electron_maxstep = 100
   mixing_beta      = 0.5
/
&IONS
/
&CELL
/

ATOMIC_SPECIES
Si 28.085 Si_ONCV_PBE_sr.upf

K_POINTS gamma

CELL_PARAMETERS angstrom
10.57864816426919 0.00000000000000 0.00000000000000
0.00000000000000 10.57864816426919 0.00000000000000
0.00000000000000 0.00000000000000 10.57864816426919

ATOMIC_POSITIONS angstrom
Si 9.1330758926 7.7896193117 7.0293318681 
Si 6.0667383571 6.7566989476 4.7681669803 
Si 0.5415675456 6.0997648966 8.6572059836 
Si 6.6026526731 8.7427872472 6.9471992438 
Si 6.0976703243 7.0532078770 1.6437315091 
Si 7.9839702358 5.8032136527 5.7669077322 
Si 9.1084699570 4.8874835530 7.8321772133 
Si 5.0559485250 4.7008550421 5.8924233926 
Si 1.4366121567 6.1285811342 0.5305869088 
Si 2.0599061065 9.5899253922 0.4168019113 
Si 2.6007289152 2.8992477878 5.5139087827 
Si 8.9582425744 5.8177910298 10.5685667126 
Si 6.0273117354 4.3515798156 8.2146059231 
Si 1.3888495602 1.4066745823 0.2787526685 
Si 1.1962864277 7.9859696003 2.2994807515 
Si 9.7141504576 5.2996488427 3.6572185074 
Si 2.8253347731 2.4362415149 1.8934828136 
Si 5.6709276574 9.0680806783 10.3009692286 
Si 4.7508285760 1.8178877938 5.0144379096 
Si 3.8569962780 7.4546252603 6.1877686707 
Si 9.7107652902 9.3081525197 10.3502763077 
Si 1.8546485962 9.6749459875 6.9584020322 
Si 7.6734974908 0.8799192599 5.4295123276 
Si 3.5700927611 7.1556515059 9.2914805702 
Si 7.2294904701 0.4480977840 8.3646640473 
Si 4.0025161621 0.4122277038 10.2030215253 
Si 10.4469439946 2.3861833518 7.8270994622 
Si 9.5479387377 0.2335183689 8.5882014616 
Si 2.5416048507 5.1016482851 4.3121849298 
Si 7.2581268706 1.9104403866 0.2888933606 
Si 7.5993411672 2.7346969156 8.2615433850 
Si 9.4848265227 1.3349513478 1.1301169834 
Si 9.9194397039 9.9803409814 6.3776342480 
Si 0.1543043936 0.2601405949 4.0971421700 
Si 5.2395303852 3.6439528826 2.9060075440 
Si 6.2399002489 6.2030759746 9.9377619225 
Si 6.5712129307 9.2763213674 4.3756356615 
Si 4.0952591706 3.2626666668 9.2378997173 
Si 1.3485343320 6.2559163222 5.9953324820 
Si 4.3742921732 5.7098888186 2.8546799431 
Si 1.1039454078 4.3548591965 2.6964445238 
Si 6.9732544542 10.1699844070 1.7897062751 
Si 3.5492739815 4.9012040596 0.5346311260 
Si 10.0253425507 3.7893352443 1.0724845082 
Si 4.3965284917 9.5461721034 8.0093907273 
Si 2.3949001579 8.7928665677 4.2692250397 
Si 2.2558755637 1.1996187018 3.9139411411 
Si 2.2284980223 1.5123129629 7.8423538728 
Si 4.0024632689 8.7803097123 1.6848930291 
Si 7.9195356898 8.0053814197 9.2724813181 
Si 9.4436755814 9.4197255219 2.2399123837 
Si 8.4222542079 7.1702711976 2.4996181961 
Si 10.3689476217 3.0343794394 5.1926140806 
Si 10.2977744769 7.5192608006 4.6779840047 
Si 7.1214507364 4.2260958911 1.0393035204 
Si 7.9968973438 3.7762706138 3.2429163307 
Si 4.8451266457 1.1682318527 7.2988123515 
Si 1.2418592439 8.4671394120 8.8874079463 
Si 8.7980077907 1.6264671553 3.5846489810 
Si 4.4425985044 10.1889413445 3.7666228867 
Si 4.8875258676 1.4351628819 1.7478042497 
Si 7.2104171674 3.1182363834 5.9349707155 
Si 2.8465978559 4.7972899987 7.6777077928 
Si 0.9564748210 3.5307084540 9.6289606040 

