&CONTROL
   calculation      = 'scf'
   tstress          = .true.
   tprnfor          = .true.
   outdir           = './'
   disk_io          = 'none'
   pseudo_dir       = '/home/ppiaggi/pseudos'
/
&SYSTEM
   ecutwfc          = 30
   occupations      = 'smearing'
   degauss          = 0.01
   smearing         = 'fermi-dirac'
   input_dft        = 'PBE'
   ntyp             = 1
   nat              = 64
   ibrav            = 0
/
&ELECTRONS
   electron_maxstep = 100
   mixing_beta      = 0.5
/
&IONS
/
&CELL
/

ATOMIC_SPECIES
Si 28.085 Si_ONCV_PBE_sr.upf

K_POINTS gamma

CELL_PARAMETERS angstrom
10.63450587191342 0.00000000000000 0.00000000000000
0.00000000000000 10.63450587191342 0.00000000000000
0.00000000000000 0.00000000000000 10.63450587191342

ATOMIC_POSITIONS angstrom
Si 3.8525092697 8.8004789892 1.3345028729 
Si 1.4836305487 5.9054261867 3.5704183669 
Si 10.1373427224 5.7215024077 8.3639218887 
Si 4.7783280819 3.1344248952 8.6620283573 
Si 4.6683247531 7.9507607011 8.8060940083 
Si 4.5705298371 9.3512613174 4.0072200611 
Si 10.5742826652 2.1695668119 10.4150203052 
Si 5.8367060098 10.0902531304 8.9862638068 
Si 0.5675348652 5.2611346485 5.7208430683 
Si 1.8190215949 0.0661404585 2.7597606188 
Si 9.0361502739 6.5451767910 0.3857060838 
Si 7.1511734736 1.2280621036 4.1546674850 
Si 9.6101477283 3.1514613736 8.2379561666 
Si 3.8078762485 3.7758663859 6.6383776004 
Si 3.7872665762 6.3233729020 0.6663485669 
Si 2.8988174176 1.9234205390 4.2474429143 
Si 9.7951455925 8.9772776494 7.3143280627 
Si 3.8961426473 5.4046898432 2.8999340407 
Si 1.1309690650 3.0615785300 6.5988704111 
Si 6.5766017558 3.9647777482 6.2846313971 
Si 2.7344717639 0.2189219379 0.4591543621 
Si 2.8555456132 2.8995086605 0.8007857363 
Si 7.8052700262 8.1219018041 5.4298085461 
Si 5.1137829351 3.2883487332 4.0335298286 
Si 8.7669377577 3.4937967521 0.9390662162 
Si 3.4084123045 6.4319405724 7.3680216828 
Si 8.0325506857 3.5921659314 3.9562276055 
Si 1.3613018277 7.1349026796 0.5885209991 
Si 0.5814777659 4.8578954548 10.5544067737 
Si 7.2261254710 5.2884440595 2.3015942023 
Si 2.3141110158 2.0790352635 8.9048885679 
Si 0.2248017562 1.2726632212 5.1018616540 
Si 2.9178638176 4.7078957495 9.5629730603 
Si 6.3682611513 8.5183349140 1.7096350675 
Si 1.0677575621 9.1634878472 5.8673440212 
Si 2.2227180723 8.8709857632 9.3706586561 
Si 4.9713337290 0.8228172421 2.8060738919 
Si 9.9186122056 9.1632007155 3.6151790021 
Si 8.7721912036 0.3693704194 6.2089456188 
Si 10.3095685450 0.7496337631 1.7063064671 
Si 7.4722079368 1.5100253923 0.2732951030 
Si 5.9711580675 6.7291324735 0.0026994204 
Si 3.4253424378 0.2687435344 8.0987292158 
Si 8.2505474216 1.2232765759 8.4012702733 
Si 1.2937833499 7.1854272170 7.3723924647 
Si 4.0417290327 6.7998093996 5.0001957779 
Si 1.6240911023 3.6289719563 2.5708492565 
Si 6.2839720577 6.3773430193 7.1074762889 
Si 1.6213580342 8.4832623136 3.0128618586 
Si 6.3208525241 9.8369072970 6.0979532810 
Si 8.0842981913 7.0670651666 8.6240419023 
Si 10.2433262079 8.8415388164 0.6143692291 
Si 5.2466079134 3.5519887683 1.2047938047 
Si 3.2144814554 10.3981008064 5.9087228835 
Si 0.2091679691 10.3797243802 9.2932394533 
Si 5.0159348466 1.1755914516 0.2813752005 
Si 6.0226822485 1.5786073206 7.3345336238 
Si 6.4210508384 4.2742525036 9.9472615644 
Si 8.0136638033 9.3542389790 9.8053653526 
Si 10.0855526788 2.7685128172 3.2099830594 
Si 8.1349609773 10.0578497910 2.1262631040 
Si 6.3017423170 7.0867496370 3.6074902544 
Si 9.0273342685 5.5268909502 5.1193022437 
Si 9.6232813431 6.5941167870 2.8716887931 

