&CONTROL
   calculation      = 'scf'
   tstress          = .true.
   tprnfor          = .true.
   outdir           = './'
   disk_io          = 'none'
   pseudo_dir       = '/home/ppiaggi/pseudos'
/
&SYSTEM
   ecutwfc          = 30
   occupations      = 'smearing'
   degauss          = 0.01
   smearing         = 'fermi-dirac'
   input_dft        = 'PBE'
   ntyp             = 1
   nat              = 64
   ibrav            = 0
/
&ELECTRONS
   electron_maxstep = 100
   mixing_beta      = 0.5
/
&IONS
/
&CELL
/

ATOMIC_SPECIES
Si 28.085 Si_ONCV_PBE_sr.upf

K_POINTS gamma

CELL_PARAMETERS angstrom
10.63862977949949 0.00000000000000 0.00000000000000
0.00000000000000 10.63862977949949 0.00000000000000
0.00000000000000 0.00000000000000 10.63862977949949

ATOMIC_POSITIONS angstrom
Si 9.1312742419 3.0700213114 3.1841418930 
Si 3.8560777499 0.7360016854 4.0630522922 
Si 0.2799597981 5.6979330850 7.2797164765 
Si 3.9618044526 5.3343685509 1.5221219557 
Si 9.4451989295 7.7775405184 8.1745422659 
Si 7.1738408329 10.5307008804 6.6060039684 
Si 6.4106574484 4.4375001446 8.1991813324 
Si 8.0748263889 6.7804030264 6.7994568123 
Si 9.1678285739 0.1357946621 9.9579170531 
Si 2.2689218503 6.9052792628 2.0557449868 
Si 4.0422856869 7.5311392141 5.7058907800 
Si 0.5840597110 6.5067349140 9.9330120207 
Si 8.0408253282 0.7537564946 4.0944894432 
Si 2.0320846742 8.3791231165 9.4101765602 
Si 9.9145008049 0.8023409891 1.6038372710 
Si 5.7833719207 1.6750203429 5.2010026880 
Si 3.8405772663 9.1937442760 3.3513917918 
Si 6.5134798052 4.3895092857 4.9492607915 
Si 1.4536836503 3.5011517832 3.2668466009 
Si 6.3940718246 7.4489664376 0.0237386129 
Si 1.6578921489 8.5783314591 4.7961070772 
Si 0.9058048553 2.3160190644 8.1307111112 
Si 0.3807650707 3.2089724549 0.8552958327 
Si 4.8537258961 8.9982062606 7.9464181275 
Si 2.6095494986 0.7320877335 6.5074370635 
Si 1.1317161587 0.1898793282 3.6902215116 
Si 5.9567603089 3.2711126915 2.6655299685 
Si 9.5789690603 9.0712510927 2.5409941683 
Si 2.7640862348 6.0339116520 7.3931774631 
Si 9.5696496206 1.8228334650 6.0876154552 
Si 10.3611423990 6.8941618946 1.4645669686 
Si 4.8760670186 3.6591567127 6.7281354383 
Si 1.9909450928 0.7221597642 1.2028353988 
Si 3.1971635759 2.4732899284 10.2105738717 
Si 6.3245802949 5.8793642772 1.8810799631 
Si 8.6958670409 5.1632355523 2.0504043947 
Si 7.6498982383 1.3872879619 8.4637534164 
Si 7.1772345558 10.0552073224 1.8067584955 
Si 4.5639828140 5.7303277127 4.2465792946 
Si 3.4758956761 2.6253053093 2.1986324234 
Si 10.1177092723 10.1212200202 7.3154622725 
Si 9.8879574236 9.4532523722 5.1022762036 
Si 8.5108399918 6.8855446045 4.1610553498 
Si 9.0475588642 3.8000547255 7.8344039946 
Si 5.6331970228 3.5118542447 10.3054917266 
Si 3.9190265223 5.4766070310 9.6534501074 
Si 6.1669477174 8.2013090584 3.2879217265 
Si 2.3140402792 9.1129013283 7.0153465265 
Si 5.3567522279 9.7133881476 0.0810716782 
Si 6.4823830904 8.3356536752 5.8184368445 
Si 8.8447865806 4.3811898772 5.4131795203 
Si 2.5876126440 4.0453921668 6.1939379212 
Si 1.0016716760 0.0368525327 9.7007388168 
Si 5.9461216791 1.0960980262 9.6396518046 
Si 8.6975373058 3.7276056567 10.4103886162 
Si 8.5550115827 8.2440976274 10.2731928466 
Si 4.5075555217 1.4422258461 7.8465320325 
Si 0.2718106077 6.6143872087 5.3011441101 
Si 5.5542371125 6.9036728297 8.3100252161 
Si 1.0193083964 2.1007570294 5.1840021576 
Si 1.6376361978 4.0480731015 9.7328249242 
Si 7.3269094382 1.8125565487 1.2206338264 
Si 1.9226025351 5.3326982860 4.1165965159 
Si 2.9955934574 9.2446075650 1.0990342880 

