&CONTROL
   calculation      = 'scf'
   tstress          = .true.
   tprnfor          = .true.
   outdir           = './'
   disk_io          = 'none'
   pseudo_dir       = '/home/ppiaggi/pseudos'
/
&SYSTEM
   ecutwfc          = 30
   occupations      = 'smearing'
   degauss          = 0.01
   smearing         = 'fermi-dirac'
   input_dft        = 'PBE'
   ntyp             = 1
   nat              = 64
   ibrav            = 0
/
&ELECTRONS
   electron_maxstep = 100
   mixing_beta      = 0.5
/
&IONS
/
&CELL
/

ATOMIC_SPECIES
Si 28.085 Si_ONCV_PBE_sr.upf

K_POINTS gamma

CELL_PARAMETERS angstrom
10.64725963635111 0.00000000000000 0.00000000000000
0.00000000000000 10.64725963635111 0.00000000000000
0.00000000000000 0.00000000000000 10.64725963635111

ATOMIC_POSITIONS angstrom
Si 3.0246735175 2.2578365840 1.4018501455 
Si 10.4405217960 1.4143180865 1.7860139204 
Si 6.2863017982 1.5684478170 7.2153497323 
Si 4.7827064396 5.5890766482 8.5427010021 
Si 10.4126259757 4.9060123535 9.0714332684 
Si 9.3714836922 0.4076526944 5.5492878389 
Si 10.5817151060 2.6141684222 7.4183397373 
Si 9.7897080507 10.2179621278 0.0485721596 
Si 8.1180244043 3.6117847084 2.5622310897 
Si 2.7852485901 5.4582963581 6.9921086395 
Si 7.4644317242 9.7716928874 5.9352722952 
Si 1.9507376743 5.1337998261 2.8032531061 
Si 4.4331994948 4.5125854626 1.3617738602 
Si 8.7081061806 5.8807689732 2.8207678482 
Si 3.1997144659 8.3893698161 3.2745008176 
Si 2.0670696331 10.1628945010 9.7928915814 
Si 8.4086413560 5.3899835402 7.6475113537 
Si 9.2478051243 6.2690212958 0.1101480304 
Si 0.7237730272 1.6026042259 9.7631750797 
Si 5.9493053834 0.4888327255 4.2187743330 
Si 0.6296384753 4.1184132636 5.1715337143 
Si 4.3920265418 10.3281612650 9.8313388359 
Si 8.1160014249 3.3879260745 6.1835025064 
Si 0.1134241922 7.8885120755 0.9739027095 
Si 1.7256333110 0.6287717884 4.3390777196 
Si 6.1622931652 5.7821540544 6.4724158966 
Si 9.2106248936 3.0261854284 0.2926016010 
Si 2.6542766493 5.7788108149 10.1081995282 
Si 5.7621478536 2.9253132906 5.0793071513 
Si 5.5460830138 7.6705946126 9.2076223664 
Si 1.0826453016 0.6869835510 6.4128551262 
Si 0.2882191889 6.8286306150 3.3902791189 
Si 1.3474958851 3.9071183962 0.5430805134 
Si 2.3505635681 9.6770919855 7.4207353707 
Si 0.1650708545 6.1742500378 6.4006320722 
Si 3.5272880559 1.7359718001 6.7442510824 
Si 8.9462002005 0.8385334505 8.0811210024 
Si 7.2656154450 9.5013057290 2.9007074735 
Si 1.3004669392 7.4358864211 8.7000355578 
Si 2.8347051111 3.1334991582 4.0530710313 
Si 7.6295281321 1.4030745804 9.8592559507 
Si 4.0374727959 10.2278534320 4.8110175030 
Si 5.4574232828 8.0544283224 6.5417508514 
Si 8.5175521748 7.7970095262 6.5263442667 
Si 6.0043623630 6.1154452228 1.0178343675 
Si 9.3660429425 2.5880506943 4.4115642632 
Si 4.8951308541 10.2374785547 7.4785286960 
Si 4.9452687997 2.9795823729 8.7340748468 
Si 4.9548832752 1.7141555652 0.1367150726 
Si 1.8273572296 10.4396700152 1.8293908562 
Si 2.6870489144 7.9731897314 0.5442485177 
Si 5.8624769811 3.0970109995 2.6598132243 
Si 5.0496012969 8.6659110906 1.2958140868 
Si 6.6788130247 6.8314840806 3.8071725699 
Si 9.7923166293 9.5665521360 2.9069041787 
Si 9.4180761004 9.0202305968 8.2731762717 
Si 7.1654886154 4.6461127457 9.8613854026 
Si 0.3716649569 8.3792123304 5.4250236717 
Si 7.1688957385 10.0029939558 0.6281702182 
Si 7.7480108374 7.8799410315 9.7704790998 
Si 2.3711127792 3.0649308062 8.3692145536 
Si 4.2143876620 4.6601245394 5.2360028714 
Si 3.1016532047 7.6067962328 6.0788292969 
Si 4.2363529586 6.1933192798 3.4306641747 

