&CONTROL
   calculation      = 'scf'
   tstress          = .true.
   tprnfor          = .true.
   outdir           = './'
   disk_io          = 'none'
   pseudo_dir       = '/home/ppiaggi/pseudos'
/
&SYSTEM
   ecutwfc          = 30
   occupations      = 'smearing'
   degauss          = 0.01
   smearing         = 'fermi-dirac'
   input_dft        = 'PBE'
   ntyp             = 1
   nat              = 64
   ibrav            = 0
/
&ELECTRONS
   electron_maxstep = 100
   mixing_beta      = 0.5
/
&IONS
/
&CELL
/

ATOMIC_SPECIES
Si 28.085 Si_ONCV_PBE_sr.upf

K_POINTS gamma

CELL_PARAMETERS angstrom
10.79947810791101 0.00000000000000 0.00000000000000
0.00000000000000 10.79947810791101 0.00000000000000
0.00000000000000 0.00000000000000 10.79947810791101

ATOMIC_POSITIONS angstrom
Si 6.2287393920 5.6892730620 8.3280391419 
Si 5.2062556042 6.1442118768 5.3479015590 
Si 10.5177845209 5.7454843456 3.5669056269 
Si 3.5759231911 3.5160076865 3.8378321342 
Si 9.5147613927 7.9327890426 2.9256434163 
Si 8.5628737933 1.5772637777 4.2602429209 
Si 1.6367257041 7.1544598559 5.0827527725 
Si 3.7278502491 8.7033966025 4.2975767167 
Si 10.6851116347 2.5359550483 9.6253696475 
Si 6.3752127135 2.2034391173 3.3065842071 
Si 2.0600004491 1.5809356002 7.3625873980 
Si 3.6814664906 5.1896784053 1.8677481398 
Si 8.8273962101 6.1163492233 7.5596130766 
Si 9.3268288747 10.1238303590 7.4807120895 
Si 6.4405495561 2.9807855515 10.3176593921 
Si 7.9206180308 1.0328253680 6.6834514177 
Si 5.6258261281 9.9729076525 4.4384019112 
Si 3.0540600105 4.8956086164 5.7263152719 
Si 7.7443273501 1.0956070540 1.1581360323 
Si 7.3245840345 6.8261233230 2.2140118064 
Si 4.4994621604 1.0281113958 2.8585678578 
Si 10.5031728271 7.8154095150 6.5112861377 
Si 4.9870585970 7.0062370189 2.8451441065 
Si 5.3057079981 0.5836577943 9.9456929677 
Si 9.7070461004 10.7432452254 0.5267963822 
Si 7.8129148356 8.2839988701 8.0374791834 
Si 3.5246040711 1.5617233287 0.7576600656 
Si 5.6384075201 9.2115552454 8.5972377327 
Si 6.1268679150 3.8073020096 5.2641948042 
Si 4.6881182435 1.5953637030 7.7476319904 
Si 1.2674915476 9.0890783641 3.1622599816 
Si 1.0156174796 5.2222064333 1.9161190023 
Si 5.1559516351 9.3885262931 1.5857521675 
Si 7.2188031465 6.8435752796 10.6051738978 
Si 9.9811044564 9.9699485955 5.0561104600 
Si 4.0968468171 4.0983803430 10.4927405312 
Si 3.1199584259 3.8241599949 8.0454383987 
Si 2.2506544356 9.0410962829 6.9139878769 
Si 2.8619588939 10.3568830966 8.9550460413 
Si 4.6511192315 6.8249245809 0.0527951926 
Si 9.5619119141 8.3402965495 0.4073249957 
Si 3.2090109224 8.8872793162 10.7706435014 
Si 7.0691223799 9.5707890851 0.0707148747 
Si 8.8776461817 3.8314928405 0.1428554964 
Si 5.9194207400 10.7159981421 6.7478703046 
Si 7.9433077343 9.9582527607 3.6460226035 
Si 4.3957979701 7.7253310681 6.9274548261 
Si 6.1935438928 3.4335536712 7.7946097202 
Si 8.3703082992 4.5312774230 2.9998790288 
Si 8.5223973494 2.9388619775 7.9951992266 
Si 1.3763178885 0.3816330373 2.1073129627 
Si 10.1061408139 2.5302637233 2.1408129438 
Si 0.1035744467 0.2999727836 8.8866961444 
Si 9.5596440237 6.0895125202 9.8242744353 
Si 1.0778775508 7.5968280781 0.8007003056 
Si 6.3829235409 3.9946297568 1.7703584462 
Si 1.5864541335 3.3722558335 0.3398466167 
Si 0.5658472950 4.2029948874 5.6622959657 
Si 1.2993068101 2.3309053574 3.7651624460 
Si 1.0846455838 7.1849035847 9.0421006344 
Si 3.3180532528 6.3918979072 8.6293877790 
Si 1.8632339580 0.2787831276 5.4784024525 
Si 8.8524941972 4.2609772854 5.5839133536 
Si 0.5623990217 4.3783784119 8.1786175628 

