&CONTROL
   calculation      = 'scf'
   tstress          = .true.
   tprnfor          = .true.
   outdir           = './'
   disk_io          = 'none'
   pseudo_dir       = '/home/ppiaggi/pseudos'
/
&SYSTEM
   ecutwfc          = 30
   occupations      = 'smearing'
   degauss          = 0.01
   smearing         = 'fermi-dirac'
   input_dft        = 'PBE'
   ntyp             = 1
   nat              = 64
   ibrav            = 0
/
&ELECTRONS
   electron_maxstep = 100
   mixing_beta      = 0.5
/
&IONS
/
&CELL
/

ATOMIC_SPECIES
Si 28.085 Si_ONCV_PBE_sr.upf

K_POINTS gamma

CELL_PARAMETERS angstrom
10.68579536995544 0.00000000000000 0.00000000000000
0.00000000000000 10.68579536995544 0.00000000000000
0.00000000000000 0.00000000000000 10.68579536995544

ATOMIC_POSITIONS angstrom
Si 8.7683789920 5.4435044484 6.3445948288 
Si 7.9000192028 7.3645005678 1.7835554194 
Si 7.5940635098 1.6100181026 0.5257582295 
Si 0.0222725101 9.9386659293 9.9180530300 
Si 8.9897673004 9.7322270485 2.7317167284 
Si 3.7617846589 9.8559792447 8.0908675081 
Si 4.6816927249 2.5158850335 6.6085339744 
Si 10.2689959216 8.4592816751 1.4897708473 
Si 6.6043237710 4.2234644478 9.3506800390 
Si 4.6196296254 1.5647958166 2.3722358863 
Si 3.0447250464 7.2033801452 1.8816082777 
Si 2.7553002788 2.0350990424 0.9769296073 
Si 1.7487197265 10.4809807301 1.2974692738 
Si 10.6508848765 7.0528066027 5.4215023957 
Si 7.2403636830 10.5550332920 5.4348703257 
Si 3.0888894386 1.0116776767 3.9019395509 
Si 5.1977632123 5.5155480808 0.0743165011 
Si 0.9657522653 0.3407796316 3.3001903563 
Si 9.9404504571 1.9583750317 3.0947238829 
Si 1.5480084321 4.1958737242 8.9993952021 
Si 0.4421760752 1.5435097122 6.8992517232 
Si 7.4973356901 8.1886639073 8.6052175824 
Si 5.2636731981 8.9437970087 3.4933788508 
Si 7.7034219396 1.6671229931 3.4693358112 
Si 3.2271529449 4.9792707543 6.6247763834 
Si 7.6550794013 10.6056412189 8.0161737985 
Si 3.3469086536 2.3070418488 8.7567742182 
Si 9.9655300188 8.2805938049 8.1111598335 
Si 6.4881371180 4.3972689095 5.3030503540 
Si 9.8875771416 3.2211688995 8.2782001867 
Si 6.3230308937 6.7666196311 3.8917025590 
Si 8.7087095106 8.4500170905 4.6601608472 
Si 1.0108826535 9.3823099933 5.2196584070 
Si 9.9106264022 2.8890543794 0.8496169041 
Si 6.2021745481 7.8895791807 0.0267232508 
Si 10.5099499213 6.7516381460 10.1165416790 
Si 8.8386594681 5.4057087902 8.6741409626 
Si 9.5655286408 5.6550404535 1.6125292645 
Si 3.6133696470 6.7160544474 4.7776939105 
Si 10.0151441667 10.4095996170 6.3983016363 
Si 2.0944265783 6.2791977611 10.5019676322 
Si 3.7729192576 7.4312119883 9.0626764822 
Si 1.0462088244 7.6500143343 3.1316433059 
Si 0.2187809744 5.3392645146 3.5666727212 
Si 5.5322499789 5.5703768968 7.3754641939 
Si 3.9417013955 9.6367067237 1.1078391492 
Si 6.0894821501 3.3276421646 2.9081285241 
Si 4.8734279512 0.0244312545 5.5396231777 
Si 2.5945004300 4.2784108076 3.1895816884 
Si 1.3529285518 4.0563065508 0.9227568991 
Si 6.8983541164 2.3669357318 7.8166699989 
Si 4.7074882349 5.2871285189 2.3378917400 
Si 6.8317174965 10.2227264276 1.7524918123 
Si 7.3769174621 4.1803045203 1.2735330922 
Si 9.2044983584 1.0336797293 9.5288656768 
Si 7.2138735963 7.3301136783 6.2674540720 
Si 1.6967119604 0.3242957236 8.6386961793 
Si 8.2060603822 2.8173099493 5.9033035374 
Si 3.1610506147 8.9022292648 5.8114591262 
Si 5.1531927598 2.2433331368 10.3200633376 
Si 1.7046515064 6.7381740438 7.3267476528 
Si 5.4311730405 10.5374337870 9.6316416567 
Si 2.1956958610 2.9078293219 5.1132919999 
Si 10.3850650309 3.5425228237 5.0392821811 

