&CONTROL
   calculation      = 'scf'
   tstress          = .true.
   tprnfor          = .true.
   outdir           = './'
   disk_io          = 'none'
   pseudo_dir       = '/home/ppiaggi/pseudos'
/
&SYSTEM
   ecutwfc          = 30
   occupations      = 'smearing'
   degauss          = 0.01
   smearing         = 'fermi-dirac'
   input_dft        = 'PBE'
   ntyp             = 1
   nat              = 64
   ibrav            = 0
/
&ELECTRONS
   electron_maxstep = 100
   mixing_beta      = 0.5
/
&IONS
/
&CELL
/

ATOMIC_SPECIES
Si 28.085 Si_ONCV_PBE_sr.upf

K_POINTS gamma

CELL_PARAMETERS angstrom
10.64400847360032 0.00000000000000 0.00000000000000
0.00000000000000 10.64400847360032 0.00000000000000
0.00000000000000 0.00000000000000 10.64400847360032

ATOMIC_POSITIONS angstrom
Si 5.2461337444 4.3376889092 6.3096404950 
Si 9.1569659818 1.2215489885 3.2814520163 
Si 6.0993574636 4.8422574869 4.0289062234 
Si 7.4439831221 4.8073770711 7.7466880791 
Si 4.8399051610 8.6145685980 8.9032660398 
Si 8.8112911626 7.0842049917 6.7435115684 
Si 6.4946014303 3.3059438798 0.6283594606 
Si 5.7246883654 5.0730940986 9.8184272444 
Si 3.0033985830 5.9413897339 6.3474373691 
Si 1.2747158108 2.5763077430 3.3432191975 
Si 5.5614092754 0.0420295705 10.5510224156 
Si 0.1238600690 5.8728848954 5.3859427957 
Si 1.4167707479 2.1501961518 8.9531225755 
Si 3.5231561608 3.9460213294 1.3050299469 
Si 1.5058504548 8.0469768461 6.5458203991 
Si 0.2183086138 9.7008535268 2.8683580475 
Si 7.6107321588 6.8195842970 2.4031616571 
Si 3.9644141760 10.6046256422 5.2793749829 
Si 1.2652852193 3.5973236118 6.5110357794 
Si 8.4337375380 8.3622949531 4.5422667521 
Si 8.5847760183 9.9765865663 0.5194669963 
Si 9.4750728190 3.7786975162 7.6977575721 
Si 0.1495983459 8.1212294492 8.4184633859 
Si 4.3667364083 7.7683060603 3.0595137957 
Si 10.5597292145 5.6898505256 9.2032035546 
Si 2.2372534971 5.1771925015 8.4435513138 
Si 5.9484467115 8.0271789904 0.7793393988 
Si 2.0470024896 6.4630313012 2.2239804185 
Si 3.5535980250 1.0476046020 10.4968976325 
Si 5.0616411455 2.8750531288 2.8033657317 
Si 9.4881330174 10.1004296049 8.0970462620 
Si 8.3797191950 2.3505802553 5.9201123609 
Si 4.3403605553 8.0466681699 6.7691636289 
Si 6.8249063012 1.5670215715 7.6628452243 
Si 9.4215334564 2.2526660213 1.1728207177 
Si 1.1373868135 3.3142994265 0.8198100478 
Si 8.9921435106 7.6120413719 0.1241506504 
Si 2.3797341945 8.6575916802 4.1782629503 
Si 6.9463544379 9.6449618383 7.7631011401 
Si 1.8252452171 0.4306725489 6.7961781224 
Si 10.4438585383 1.8227332311 5.3252080834 
Si 2.8079532994 7.1830771864 9.7623865397 
Si 6.1745999595 9.9747877288 5.4681784052 
Si 8.4824125888 4.3198708390 4.3326542932 
Si 2.5478882404 0.2296945097 2.3797235505 
Si 5.6902975740 7.1588939991 4.7794259049 
Si 7.4844729303 1.4719279998 10.0397055365 
Si 7.3885278379 10.1011001774 2.7277826276 
Si 4.9288464958 10.1623564462 2.4076534287 
Si 2.3933478813 9.7900077417 8.8760386661 
Si 8.1986220348 4.4298447346 1.6092995731 
Si 10.2328942903 6.8082377840 3.0031644148 
Si 2.6352116859 5.0367341657 4.1787099986 
Si 10.2796747076 5.2722541412 0.9302501510 
Si 0.9553817194 10.3762158644 0.0462986694 
Si 4.0740155313 6.1857335924 0.7053965364 
Si 10.0727977589 1.2492446985 9.4266851565 
Si 7.4417372363 7.3245999230 8.9040324084 
Si 10.0656556292 9.7950742898 5.4755547030 
Si 3.3118513045 2.4362964555 4.6526983400 
Si 4.1218603494 3.3288497861 9.0590411038 
Si 0.9514178906 8.0729482268 0.5007367346 
Si 4.3292588545 2.1157627843 6.9523895907 
Si 6.7583706043 1.6419021711 4.1666077610 

