&CONTROL
   calculation      = 'scf'
   tstress          = .true.
   tprnfor          = .true.
   outdir           = './'
   disk_io          = 'none'
   pseudo_dir       = '/home/ppiaggi/pseudos'
/
&SYSTEM
   ecutwfc          = 30
   occupations      = 'smearing'
   degauss          = 0.01
   smearing         = 'fermi-dirac'
   input_dft        = 'PBE'
   ntyp             = 1
   nat              = 64
   ibrav            = 0
/
&ELECTRONS
   electron_maxstep = 100
   mixing_beta      = 0.5
/
&IONS
/
&CELL
/

ATOMIC_SPECIES
Si 28.085 Si_ONCV_PBE_sr.upf

K_POINTS gamma

CELL_PARAMETERS angstrom
10.70140261572546 0.00000000000000 0.00000000000000
0.00000000000000 10.70140261572546 0.00000000000000
0.00000000000000 0.00000000000000 10.70140261572546

ATOMIC_POSITIONS angstrom
Si 5.2774502070 3.1214814276 0.7063920957 
Si 1.7121174045 3.7419166470 5.7834339254 
Si 1.0826609026 9.9975071573 10.0364281586 
Si 7.4033266422 2.3830204387 0.0147798142 
Si 0.3545010839 9.7963849965 2.2000906624 
Si 2.3403860507 8.3648155630 8.0086728839 
Si 0.9121661562 5.9395994938 5.3048243948 
Si 7.4092124136 2.5228984723 8.0741119609 
Si 9.9298528899 1.2629795367 2.1891538289 
Si 8.1761284321 2.0360167575 5.4170286013 
Si 9.2247802772 5.1604624736 1.9921838123 
Si 2.6012220380 10.3487592953 2.8015951006 
Si 4.7575974707 8.5758044170 3.1639231904 
Si 4.9891223163 3.1367202249 7.3023054015 
Si 3.2848918455 6.0936568859 6.2208965630 
Si 4.8644188716 0.3774299091 7.8035591000 
Si 5.3199989838 4.8809204344 5.4053640724 
Si 3.5011885952 0.6125140412 9.8951054356 
Si 7.7518499226 10.5058237815 7.6290513276 
Si 4.1649537938 1.2636858293 1.6015398113 
Si 5.6232232269 1.9833230510 5.2574813897 
Si 1.3966935624 7.3547529757 10.6159305130 
Si 7.6405981410 8.8645603637 9.4844605131 
Si 2.7558359030 3.0544157374 10.3809812186 
Si 0.1068029945 1.5189249831 4.7206134233 
Si 2.2171593995 6.9815736637 2.2754927452 
Si 5.8003528430 3.7410819376 2.9290060001 
Si 9.8146950964 6.6451750725 10.4204479915 
Si 9.1495601182 9.3976400336 4.0413953992 
Si 2.3149595180 1.7767966819 3.9345739983 
Si 0.0856499600 4.3861624873 9.5969857616 
Si 8.4748473847 7.2845303717 3.2402348924 
Si 1.1571747690 8.2878296726 4.2147367188 
Si 3.1944542920 0.5669517495 5.8519443050 
Si 6.4049178823 6.1439213739 1.1925429047 
Si 0.4054547423 2.2658507814 0.0960551478 
Si 9.1602722222 6.2204471041 5.4404967772 
Si 4.2277282216 5.2316160996 9.8846501653 
Si 0.6810864889 5.1654065216 3.0589103265 
Si 9.1448515011 7.1703250030 8.3473722767 
Si 1.1921897584 0.1819762813 7.3524628755 
Si 3.4389064320 8.8007800042 5.2167518513 
Si 2.2665142684 3.6995497941 2.1862751516 
Si 9.5669790286 10.2868195770 6.2637984860 
Si 7.1219653646 10.6455840997 4.4686810029 
Si 8.9302134688 4.6062689363 7.4615636752 
Si 9.3665417576 8.3776572461 1.0850901210 
Si 5.6577138475 8.2993229790 0.1159496973 
Si 8.1582356869 10.6900163233 0.7281555382 
Si 7.7210405844 4.8243100146 10.3337880331 
Si 6.3346524728 10.2595202989 2.2829195186 
Si 6.1138718354 9.2253902571 5.9766584511 
Si 9.8789035121 0.7607605717 9.1831946266 
Si 8.1976489527 3.1217168584 2.7938793893 
Si 2.1886829672 5.8480061888 8.8584712657 
Si 4.8435083309 7.4235522931 8.4204307524 
Si 6.3252352385 6.6493807237 3.8114008542 
Si 6.9919219200 6.9576453274 6.4310614089 
Si 3.9124649005 5.6549849898 1.9936820087 
Si 3.3741843489 9.0538574746 0.5983635766 
Si 0.1590025102 8.1583855065 7.0704274096 
Si 10.3356179729 2.5759346236 7.0153579918 
Si 2.5431883316 2.6180874485 7.8864521647 
Si 6.2341984064 5.1741281647 8.5668045374 

