&CONTROL
   calculation      = 'scf'
   tstress          = .true.
   tprnfor          = .true.
   outdir           = './'
   disk_io          = 'none'
   pseudo_dir       = '/home/ppiaggi/pseudos'
/
&SYSTEM
   ecutwfc          = 30
   occupations      = 'smearing'
   degauss          = 0.01
   smearing         = 'fermi-dirac'
   input_dft        = 'PBE'
   ntyp             = 1
   nat              = 64
   ibrav            = 0
/
&ELECTRONS
   electron_maxstep = 100
   mixing_beta      = 0.5
/
&IONS
/
&CELL
/

ATOMIC_SPECIES
Si 28.085 Si_ONCV_PBE_sr.upf

K_POINTS gamma

CELL_PARAMETERS angstrom
10.64591763454160 0.00000000000000 0.00000000000000
0.00000000000000 10.64591763454160 0.00000000000000
0.00000000000000 0.00000000000000 10.64591763454160

ATOMIC_POSITIONS angstrom
Si 5.0182194250 2.2553802345 1.9804600576 
Si 5.3326040186 5.1084435769 1.9821740503 
Si 8.2280806969 7.8543876961 3.7668876203 
Si 10.5073290788 6.5576936364 7.3207610747 
Si 0.8979650544 4.5099833171 8.2547806583 
Si 10.2972957698 9.0731217010 0.2834954636 
Si 3.0862195845 9.0840124747 6.6796000392 
Si 8.4584902923 0.3479330739 8.5037567340 
Si 8.0324513144 1.3183159184 2.1171749318 
Si 6.4033491225 3.6669756833 5.8422879713 
Si 1.7662216111 2.7575162316 4.0905661001 
Si 7.6361570305 3.7098787314 8.3501574344 
Si 8.0509965030 10.2118729267 0.2051989978 
Si 2.5060915948 1.3276523882 9.5383057179 
Si 6.2244977062 8.0750243391 1.0508361733 
Si 6.2909175864 3.6107120086 10.6061657781 
Si 0.8985356756 6.0828644180 2.5696157854 
Si 8.4127660760 5.5150111714 7.0202906953 
Si 5.1968898606 5.9004998489 4.9057453052 
Si 0.6377617940 6.4724730657 10.3401562342 
Si 7.9020281775 6.3549208432 0.8610620455 
Si 9.2475231237 4.8020647133 4.7590977898 
Si 9.9010121317 3.2606103613 8.9911161974 
Si 8.4831142997 9.5377947139 5.5315442815 
Si 3.1602300039 5.3556204926 9.8348903373 
Si 4.6578657590 2.4591324522 7.5882184634 
Si 0.2515225792 1.5266991102 5.9374731209 
Si 2.8708846085 0.7783507176 3.6972846108 
Si 9.9636207733 7.8922765169 2.2907566188 
Si 3.3535066386 6.7481703947 7.6110965404 
Si 4.3188358660 10.3101347464 1.9332454128 
Si 4.6267158040 3.1235654636 4.1574863383 
Si 0.9966165148 9.8846174186 2.8074988149 
Si 4.5712825108 0.9071588689 5.3962878979 
Si 7.2920277430 5.3240234090 3.5517123331 
Si 0.2539402671 9.3789789146 7.9111304371 
Si 5.9268484951 5.8944103841 9.4485180486 
Si 6.9719582293 1.0291142429 4.5316158217 
Si 2.6047153758 7.8974291411 2.2754477893 
Si 8.8211754142 7.5788819936 9.3283788681 
Si 2.1082749447 8.2183290363 4.8978353884 
Si 9.6917240370 2.5833170814 3.8388220858 
Si 0.0580469724 1.2282621012 1.5615857823 
Si 2.3264097970 3.2934530172 6.8658716600 
Si 7.5968842403 8.7464410724 7.5532785617 
Si 2.4476135693 8.2066504647 9.3721229437 
Si 10.6046327660 1.0328317974 9.6195127776 
Si 4.1463294166 6.8347429969 0.7312446613 
Si 2.3044259771 0.5211964480 7.2191670827 
Si 3.5875039082 9.7515008645 10.3711465004 
Si 3.3231018978 3.1010812855 0.4633529191 
Si 1.5123377673 3.4535356806 1.9154880222 
Si 4.8707308821 7.9772841693 3.7465965013 
Si 10.1565035090 4.3255960237 0.6052502261 
Si 0.5409818859 6.1913143810 4.8609153460 
Si 5.8340480311 9.5107114994 9.4422263113 
Si 6.1957856664 1.5126039153 9.0636255424 
Si 8.4344411643 1.7646885989 6.4725050034 
Si 8.1104113693 3.7007125963 1.6556424646 
Si 0.1773098874 9.5808148670 5.3839173416 
Si 2.6369299226 5.0288440508 5.4688398266 
Si 5.3942012981 9.2217493571 5.7232346744 
Si 6.6630349914 9.4095859278 3.0944914625 
Si 5.8449388048 6.8760065736 7.0809298422 

