&CONTROL
   calculation      = 'scf'
   tstress          = .true.
   tprnfor          = .true.
   outdir           = './'
   disk_io          = 'none'
   pseudo_dir       = '/home/ppiaggi/pseudos'
/
&SYSTEM
   ecutwfc          = 30
   occupations      = 'smearing'
   degauss          = 0.01
   smearing         = 'fermi-dirac'
   input_dft        = 'PBE'
   ntyp             = 1
   nat              = 64
   ibrav            = 0
/
&ELECTRONS
   electron_maxstep = 100
   mixing_beta      = 0.5
/
&IONS
/
&CELL
/

ATOMIC_SPECIES
Si 28.085 Si_ONCV_PBE_sr.upf

K_POINTS gamma

CELL_PARAMETERS angstrom
10.77695841331683 0.00000000000000 0.00000000000000
0.00000000000000 10.77695841331683 0.00000000000000
0.00000000000000 0.00000000000000 10.77695841331683

ATOMIC_POSITIONS angstrom
Si 0.1711736636 4.2665439510 0.9626819858 
Si 4.7874805668 4.4825465285 3.6597257537 
Si 9.1847382465 7.7282107630 4.6195647778 
Si 0.5361601472 2.4668457808 10.2191430458 
Si 7.5315959337 1.1375510684 8.4823930897 
Si 8.1815542956 0.6964717144 1.7566873292 
Si 8.4071375891 9.7732032837 9.5277688328 
Si 3.1858305614 3.4594898663 8.4769722796 
Si 0.6224178447 6.2242538855 10.5729936984 
Si 8.9716777786 6.3725987181 9.3231143925 
Si 3.3580032490 5.1358457475 5.9246436647 
Si 4.1748966967 7.1255201407 3.9800816195 
Si 2.0955256787 3.3189259978 3.0126771705 
Si 10.0102424840 4.9886863804 7.1715808609 
Si 6.2400529066 6.2911249125 9.2973790158 
Si 8.2774368946 8.0121943941 7.3999661636 
Si 4.9128165932 2.8662506366 6.2514657055 
Si 0.5359208988 9.8256008555 8.8886197601 
Si 5.0925439286 1.6479370419 3.9551437377 
Si 8.6615492464 3.3684568986 8.9549950470 
Si 6.6057474364 4.1889067426 8.1672640487 
Si 5.9313684867 3.9667289680 1.0352734222 
Si 0.5451923161 2.8105014307 7.8610044446 
Si 3.7921961265 2.3782699596 1.7708913604 
Si 0.0577683768 1.6043981299 2.8998963007 
Si 6.1791954224 0.3045428347 10.6253266084 
Si 0.1996776409 6.3130021381 3.9848881429 
Si 0.3692864901 7.3135672880 8.0781601566 
Si 5.1974899497 2.4956633676 9.7655085354 
Si 1.6759248029 7.2749534460 5.7934557499 
Si 10.4613767401 9.2035224850 6.2013097411 
Si 4.6458928872 9.5421560722 7.1628407477 
Si 9.9694193655 3.9124454285 3.1995604064 
Si 6.6638783501 9.8105669985 4.4048554353 
Si 7.2493905007 2.7837314660 2.8215478131 
Si 2.8953592012 1.2912089414 10.2093791215 
Si 0.0067226451 7.6001481662 1.7958292422 
Si 2.7697106431 10.3898177362 2.9037867827 
Si 5.3369868994 10.2733942545 2.1309926488 
Si 0.9099158420 0.3231438649 4.8160502836 
Si 2.0855138843 9.6824397399 10.6791682927 
Si 3.0227428497 9.2365754164 5.1986969690 
Si 2.8555922247 7.0721095348 10.7359628635 
Si 9.9942171468 0.4147092144 0.2098424680 
Si 1.4358249464 4.1745626110 5.3061540213 
Si 2.4647658278 0.2347684952 7.8192652846 
Si 4.4696249554 9.5484067081 9.6601422129 
Si 6.7232917218 7.3878528624 5.0950441830 
Si 9.0505220064 10.3406532520 3.7047949937 
Si 8.3571971638 6.8857651469 1.8291623745 
Si 0.8511113684 9.9707341544 1.7114241039 
Si 2.3626864777 1.9382683015 6.1327251777 
Si 6.4735033797 0.8241528069 6.2583737359 
Si 2.4935079759 5.9629557518 2.5306992594 
Si 7.0013588028 8.1095103286 10.6498657427 
Si 5.6488720758 7.8699062122 2.1732814336 
Si 8.2671125684 4.1999962328 5.7440433956 
Si 4.9762605473 6.0655416190 0.5428407838 
Si 8.3829217635 4.5924607274 0.7362548564 
Si 2.8635025122 6.0680310964 8.3844413147 
Si 7.2457155579 5.5393242936 3.7360697271 
Si 5.2303381189 7.3640465612 7.3618480617 
Si 9.8393199235 1.0442764933 7.2936083610 
Si 8.6931365115 1.5354363730 5.0503090286 

