&CONTROL
   calculation      = 'scf'
   tstress          = .true.
   tprnfor          = .true.
   outdir           = './'
   disk_io          = 'none'
   pseudo_dir       = '/home/ppiaggi/pseudos'
/
&SYSTEM
   ecutwfc          = 30
   occupations      = 'smearing'
   degauss          = 0.01
   smearing         = 'fermi-dirac'
   input_dft        = 'PBE'
   ntyp             = 1
   nat              = 64
   ibrav            = 0
/
&ELECTRONS
   electron_maxstep = 100
   mixing_beta      = 0.5
/
&IONS
/
&CELL
/

ATOMIC_SPECIES
Si 28.085 Si_ONCV_PBE_sr.upf

K_POINTS gamma

CELL_PARAMETERS angstrom
10.81335724731686 0.00000000000000 0.00000000000000
0.00000000000000 10.81335724731686 0.00000000000000
0.00000000000000 0.00000000000000 10.81335724731686

ATOMIC_POSITIONS angstrom
Si 0.7449451568 2.0563112676 3.0522214701 
Si 2.0655242480 2.7457601123 9.2633922462 
Si 3.2290631145 3.9999365393 5.0143808361 
Si 2.4062855749 1.9279026503 4.3520627047 
Si 6.8534625699 9.4035549828 6.2835229495 
Si 10.1031791967 3.0919929980 6.1482911038 
Si 9.7306049728 5.6627389233 4.9781885294 
Si 4.3347829598 0.2463282781 7.7733764977 
Si 10.1479573091 0.4827428703 7.3904647042 
Si 1.5682612016 10.5580755094 10.2053762361 
Si 5.0021184890 4.7537248596 8.1694805870 
Si 7.6171991789 1.5945160330 3.9213234321 
Si 0.8599408858 8.1445449852 9.2242803330 
Si 6.4009019424 6.8092251254 7.9925956891 
Si 2.8847117529 5.8523187025 3.5420124866 
Si 10.7570196561 10.3990326510 3.2806644553 
Si 1.8430394226 9.8865335843 5.0328392369 
Si 9.5333801500 7.8169543274 3.9586078879 
Si 1.5686937359 10.6317577257 7.6241521677 
Si 4.3182709633 8.2970349491 7.9968885920 
Si 2.6914878723 9.4839739207 1.4650152666 
Si 9.9322416454 2.5234158606 9.3090029871 
Si 7.1850109165 10.5285550441 8.6624615439 
Si 5.9296990870 2.4211971945 1.8184390349 
Si 4.6490083081 1.0672891737 3.6461559302 
Si 4.3046569465 9.5017943334 3.5499494908 
Si 8.0598007044 1.4211238495 0.5843592323 
Si 9.4917811646 8.9766544521 0.0543798329 
Si 0.4480438882 8.2940829026 1.8117888201 
Si 9.0552134925 10.3689282645 5.2279122016 
Si 5.5949608000 0.8188771616 5.8214249409 
Si 9.4706410512 9.4511445681 8.5420656243 
Si 5.6855875471 7.4029325051 5.6556129208 
Si 6.6868179214 9.5465724458 0.1562259788 
Si 10.7380854675 8.4177444560 6.0792694444 
Si 6.2169775490 3.8657968426 10.1684053677 
Si 8.3737232787 10.4613932823 2.3153452404 
Si 3.8387418228 7.0169821582 1.6584554144 
Si 7.5254910961 2.2400734606 6.3378492563 
Si 0.7335478783 4.9683916277 1.0083109606 
Si 10.7230873410 0.9572621823 0.4403480218 
Si 1.8681912915 4.8673083642 6.9156177474 
Si 9.3523104828 3.3440307287 3.6102339574 
Si 4.4795846267 1.9896469201 9.1981552619 
Si 0.5484891637 5.9698382691 3.0780329538 
Si 10.3772329228 4.8337112632 7.8758114309 
Si 6.9822712815 4.5004760329 2.6040186255 
Si 2.0406967797 6.5558789785 10.7625452816 
Si 1.6038912137 2.7849585323 0.8142793221 
Si 4.2615765312 9.8842735926 10.1656371482 
Si 1.7181559597 2.1547668853 7.0123648547 
Si 6.3164496223 6.4358507130 1.4976607921 
Si 3.6066006694 7.6820576957 5.1130959744 
Si 7.0702055026 4.9923324007 5.0082604759 
Si 6.4602240203 8.6397751204 2.4704195967 
Si 5.2364980073 3.7544300763 5.8676736698 
Si 3.7092951232 1.3477552206 0.7948661019 
Si 8.4537313090 5.0815209712 9.8685617845 
Si 9.0765590597 6.9728204072 7.6479631803 
Si 7.5000580799 2.2237885446 8.8728894759 
Si 7.3074613739 7.3661562771 10.2838920231 
Si 2.1004189518 7.4525550015 7.0957466524 
Si 9.3161722429 3.9270220714 1.1086178251 
Si 2.8245786733 4.9471001273 9.0377715472 

