&CONTROL
   calculation      = 'scf'
   tstress          = .true.
   tprnfor          = .true.
   outdir           = './'
   disk_io          = 'none'
   pseudo_dir       = '/home/ppiaggi/pseudos'
/
&SYSTEM
   ecutwfc          = 30
   occupations      = 'smearing'
   degauss          = 0.01
   smearing         = 'fermi-dirac'
   input_dft        = 'PBE'
   ntyp             = 1
   nat              = 64
   ibrav            = 0
/
&ELECTRONS
   electron_maxstep = 100
   mixing_beta      = 0.5
/
&IONS
/
&CELL
/

ATOMIC_SPECIES
Si 28.085 Si_ONCV_PBE_sr.upf

K_POINTS gamma

CELL_PARAMETERS angstrom
10.67500146506442 0.00000000000000 0.00000000000000
0.00000000000000 10.67500146506442 0.00000000000000
0.00000000000000 0.00000000000000 10.67500146506442

ATOMIC_POSITIONS angstrom
Si 4.3839775767 8.1818762229 4.9321495769 
Si 9.4822408514 9.6516210996 6.9898415093 
Si 2.0921401621 7.0645451696 3.8539424039 
Si 1.3327419079 9.6041386931 6.3945927526 
Si 4.5255494461 5.8461005023 8.0458446792 
Si 3.7941090207 4.0540346314 3.9582371682 
Si 9.5802800648 6.6166861581 5.9513987168 
Si 6.7878384566 6.6217354338 7.4096145919 
Si 10.6067241557 1.2504589966 9.9767709692 
Si 8.8458613140 4.8240865371 10.6167800071 
Si 0.1196827789 4.1601868460 1.4271836459 
Si 4.3953251032 9.8582357530 7.0059927865 
Si 3.4194484943 8.9401536020 2.5067358690 
Si 7.1507031064 8.6112568068 6.1212059651 
Si 8.1669845959 7.7076713078 3.7958170209 
Si 1.8116117986 0.2356794798 8.4704962375 
Si 6.6648731147 5.5883098920 0.5132220454 
Si 1.1476267075 8.1650417456 10.0987648860 
Si 9.1515079560 1.2908105022 6.3193446673 
Si 7.1213361774 9.9663628428 3.0505311187 
Si 1.5871592178 4.7632283537 3.2599319474 
Si 10.3599181218 8.7967349573 4.5507637996 
Si 0.3168223010 2.9821577343 5.1487987316 
Si 4.1048583134 0.5099821825 3.9355527901 
Si 4.9745827077 10.1567621689 0.0326175737 
Si 0.7005437686 5.2776032993 6.0112107500 
Si 3.1752685108 7.9032586847 8.6282834342 
Si 8.7375740992 9.8468562014 0.4993295985 
Si 0.4974742833 0.6967327931 2.5906734056 
Si 0.4344181171 2.6438882879 7.9137735611 
Si 7.1220834275 0.5629600798 8.0300563521 
Si 7.4107995171 7.5964271176 9.8155250721 
Si 9.6676122518 6.2895614132 8.5901096289 
Si 8.9036984720 3.8413138772 7.8479515021 
Si 3.0479370933 5.4091833674 1.0518954294 
Si 5.5793428907 4.1407903683 10.0564385052 
Si 7.3295734309 2.6443793379 9.0613575686 
Si 0.9597573567 8.7290874730 1.9438643918 
Si 6.0621838820 0.1223974318 5.0630144199 
Si 8.4910562903 2.0595387077 0.5182296886 
Si 4.1706803724 1.4296068712 9.0543227426 
Si 1.3057128042 2.1688613977 0.5936880715 
Si 5.0885596984 3.0437097927 7.4134789424 
Si 6.8830060946 3.8380793517 3.5917216679 
Si 6.4990262919 6.2851739876 2.9302131771 
Si 2.1785649740 4.5800880286 7.9877406463 
Si 5.8373576761 9.1858494357 8.9151207235 
Si 9.3389182817 2.8603452926 3.1778518611 
Si 3.6676636284 3.1500328073 0.2644229888 
Si 4.9373376276 5.8562204037 5.1541042074 
Si 9.7570794391 8.8644037916 9.1928415616 
Si 9.3188279289 7.4412766463 1.4725737521 
Si 7.9490010659 4.8885848959 6.1020763625 
Si 2.2758462623 7.2311712674 6.5464126234 
Si 4.8816247950 2.5417391988 2.2440240830 
Si 4.5359255475 6.9105262484 0.0607379828 
Si 3.1222671285 2.8929040470 5.8691264805 
Si 6.7938164574 2.5573247010 5.6933198814 
Si 5.5811469660 8.3022902394 1.8413203277 
Si 1.8995631357 0.9281668249 4.8901327711 
Si 6.5696200766 1.1568926088 1.6263471482 
Si 1.1076488270 5.6322054980 10.0985193609 
Si 2.6916909444 0.0424407101 0.4108968189 
Si 9.1049435996 0.1492471955 3.9972115986 

