&CONTROL
   calculation      = 'scf'
   tstress          = .true.
   tprnfor          = .true.
   outdir           = './'
   disk_io          = 'none'
   pseudo_dir       = '/home/ppiaggi/pseudos'
/
&SYSTEM
   ecutwfc          = 30
   occupations      = 'smearing'
   degauss          = 0.01
   smearing         = 'fermi-dirac'
   input_dft        = 'PBE'
   ntyp             = 1
   nat              = 64
   ibrav            = 0
/
&ELECTRONS
   electron_maxstep = 100
   mixing_beta      = 0.5
/
&IONS
/
&CELL
/

ATOMIC_SPECIES
Si 28.085 Si_ONCV_PBE_sr.upf

K_POINTS gamma

CELL_PARAMETERS angstrom
10.62417795527425 0.00000000000000 0.00000000000000
0.00000000000000 10.62417795527425 0.00000000000000
0.00000000000000 0.00000000000000 10.62417795527425

ATOMIC_POSITIONS angstrom
Si 0.8531671738 2.9821217586 1.1968880159 
Si 5.9353351290 1.0640326706 2.8994231574 
Si 2.4971386591 8.5714699084 4.9159133817 
Si 3.4768259809 4.8255547482 9.0451807550 
Si 10.5962363673 6.6659067261 8.8779030731 
Si 4.8797274316 6.3634363797 0.0939898713 
Si 0.3528183257 5.0857833630 4.1633072395 
Si 4.6031269585 8.9072683010 1.3940621346 
Si 10.3969586613 0.5750633795 1.7593001243 
Si 4.7140221280 2.4732342587 0.6813072839 
Si 9.7483313488 6.1980285531 6.1093272914 
Si 7.4913416082 5.2577463074 5.4389204141 
Si 6.8040316637 3.9027386510 0.8593812555 
Si 9.7773141063 1.3977487243 6.4162279200 
Si 7.8361493037 7.7363032793 1.6875444264 
Si 9.1825407518 9.6193007076 6.0088863130 
Si 9.3817334643 10.5162681798 9.0582166214 
Si 5.6043069923 7.8102475579 4.9369598782 
Si 1.0017027433 4.8059850124 6.9000423599 
Si 2.1428435727 7.9013286355 10.5393332701 
Si 7.0549003778 0.7659224868 0.3056374138 
Si 10.0438534828 8.4969094275 2.1779458567 
Si 4.4348718522 6.0632714800 3.4950358219 
Si 2.7275133339 10.3422972658 7.5831345057 
Si 5.9189207741 3.5487835382 4.0903510095 
Si 9.5948013532 2.5671732402 8.7315443976 
Si 7.0697529786 8.7043146295 10.2707646756 
Si 2.3009207165 1.8453665899 6.3637551051 
Si 2.4334998332 6.8103849221 6.5465865835 
Si 1.2893396125 3.1422812413 8.3905720303 
Si 9.2883894368 5.1942562199 0.7539214154 
Si 7.4501729186 2.1512791700 5.6663096948 
Si 4.4410126271 9.8154761535 5.7369711024 
Si 2.5065516808 1.3807394154 9.8776169704 
Si 4.5524602538 2.7750246577 6.0915849142 
Si 3.2898935698 0.4539753737 1.5381366118 
Si 7.9353472533 3.6974476604 7.5092539722 
Si 6.5556490073 5.8758397325 2.5821852037 
Si 4.4988825244 6.8292959589 7.6960801416 
Si 3.8855699794 0.8535326455 4.1903988933 
Si 6.4498428190 8.9591036652 3.1280660912 
Si 8.4816637321 10.0554338368 3.6860691658 
Si 1.3651856189 0.0359435064 3.2947488191 
Si 6.4195426635 5.1302136752 9.2880919598 
Si 8.3046649274 6.5547247038 9.6021957810 
Si 0.4155370979 2.3822594229 4.2756154247 
Si 8.9181474592 2.5272582036 0.5063185737 
Si 0.6216663361 9.9700898153 10.3504885070 
Si 0.0893693101 8.0772437741 5.1228404957 
Si 6.8820768750 6.9543212851 6.8512667589 
Si 4.1081358834 8.6294354233 9.5109234682 
Si 3.2367301833 4.6013314724 4.8450394905 
Si 2.5888040665 2.8204642669 3.2507328499 
Si 6.4828627641 0.4756391350 6.9835590228 
Si 5.3235630898 3.3151366166 8.1152889553 
Si 8.4995229752 1.8231939305 3.4453252933 
Si 5.1975072184 1.0095795089 9.0314118204 
Si 7.6649406760 9.2180255062 7.5879897550 
Si 1.5572707563 5.4319615775 0.0765977733 
Si 2.8110193727 7.6776790653 2.8096488537 
Si 0.9520580846 8.7695789547 7.9627682566 
Si 0.5470941686 6.6746291762 2.3072208540 
Si 8.7425191734 4.5355359384 3.3210542838 
Si 3.7338992149 4.6231854065 1.6064607003 

