&CONTROL
   calculation      = 'scf'
   tstress          = .true.
   tprnfor          = .true.
   outdir           = './'
   disk_io          = 'none'
   pseudo_dir       = '/home/ppiaggi/pseudos'
/
&SYSTEM
   ecutwfc          = 30
   occupations      = 'smearing'
   degauss          = 0.01
   smearing         = 'fermi-dirac'
   input_dft        = 'PBE'
   ntyp             = 1
   nat              = 64
   ibrav            = 0
/
&ELECTRONS
   electron_maxstep = 100
   mixing_beta      = 0.5
/
&IONS
/
&CELL
/

ATOMIC_SPECIES
Si 28.085 Si_ONCV_PBE_sr.upf

K_POINTS gamma

CELL_PARAMETERS angstrom
10.67120400668902 0.00000000000000 0.00000000000000
0.00000000000000 10.67120400668902 0.00000000000000
0.00000000000000 0.00000000000000 10.67120400668902

ATOMIC_POSITIONS angstrom
Si 8.8995493751 1.9759014763 6.7568463090 
Si 5.3297328411 9.1529051006 9.9441962201 
Si 0.0238283717 8.1033281593 8.7803733687 
Si 1.4771400722 0.4469719168 1.2583697189 
Si 0.8795590506 2.6337065049 10.2163012511 
Si 2.1027073935 9.5847153707 3.7387523646 
Si 5.6051672878 2.5173903812 5.1994481114 
Si 2.3194608893 10.0689959510 8.8878750779 
Si 8.4169655163 6.3853176703 1.4500778989 
Si 7.3788494481 10.5678854095 7.0741332177 
Si 3.4860048977 10.5670637268 5.7767282346 
Si 7.1343614931 2.8825483111 2.9710766195 
Si 3.4481968219 6.3071511009 6.8188780179 
Si 0.7803403300 8.2275623164 5.0488880941 
Si 1.2249901927 8.7687524276 0.6889745484 
Si 3.6544818665 0.4031260738 0.3909939819 
Si 3.7032599401 4.0366283532 4.5981897929 
Si 8.7023348538 9.4063248534 0.7263141583 
Si 6.5286212689 8.8441017991 2.7946389325 
Si 4.6667949634 5.3929490537 8.8795728812 
Si 6.9366347541 7.3133389267 10.1484110512 
Si 5.2407563421 2.2812259653 8.2434837528 
Si 6.5825962188 10.6524120164 0.7044638010 
Si 0.3437130783 1.0648367630 8.4557019868 
Si 4.5648529516 0.0813717722 7.9475712657 
Si 4.9073665866 7.5737910029 5.3193817733 
Si 10.0015112568 8.8248296046 2.6645996405 
Si 0.3785118746 6.5442972676 1.1321080331 
Si 2.1152353870 3.9850544243 6.4251852884 
Si 4.3396158486 5.4757149120 0.9218586361 
Si 7.1887632911 1.5442406030 9.5950024114 
Si 2.7960048466 3.5693043162 8.8013316134 
Si 8.3579004021 0.3194126126 3.5262673504 
Si 9.5336109748 9.0300475289 6.4118889683 
Si 3.4295969133 7.8869268133 0.3410698211 
Si 9.4623059896 3.1386998921 3.3041142254 
Si 9.4016722084 10.4182431157 9.1882587995 
Si 4.0721101065 8.2740887659 2.7678435392 
Si 0.8112654792 5.5829391698 4.7545976300 
Si 7.3908332102 3.8235030668 6.1425691215 
Si 6.9826063009 4.6907731588 8.5163144256 
Si 2.4400028097 3.9136533982 1.0236341772 
Si 9.3241459113 4.8685874312 5.4616395939 
Si 1.7580168329 6.0860650963 9.5665316391 
Si 1.0317880442 1.5488825768 3.9678844570 
Si 5.9626206084 5.5905263959 4.0755782478 
Si 9.8793579846 0.4857500050 5.0153271575 
Si 5.4283240950 1.3392040892 2.4979367763 
Si 0.6672757221 4.6196709265 2.5067085060 
Si 8.7689231668 6.8673999825 8.4094636599 
Si 1.8463744021 1.5763395847 6.3184305636 
Si 8.2107444989 7.4508907464 3.5435440297 
Si 9.6609077674 1.0572100535 1.0022704268 
Si 2.3875004860 8.5788690235 6.8473594614 
Si 4.8686728008 2.6560413349 0.1889720833 
Si 8.0839279105 6.9043863756 5.8387492723 
Si 3.2665836009 2.5699033761 2.9045950186 
Si 6.4986778704 8.4493953053 7.6037557438 
Si 10.0680568850 4.8617898742 9.3296842662 
Si 5.9151657642 0.0461092054 4.8766655326 
Si 10.5386569817 3.7187438571 7.2825631744 
Si 8.4695745520 3.4781829051 10.5727728209 
Si 6.5595677605 4.6517058810 1.6304959450 
Si 3.1850556023 6.0368281610 3.2210709158 

