&CONTROL
   calculation      = 'scf'
   tstress          = .true.
   tprnfor          = .true.
   outdir           = './'
   disk_io          = 'none'
   pseudo_dir       = '/home/ppiaggi/pseudos'
/
&SYSTEM
   ecutwfc          = 30
   occupations      = 'smearing'
   degauss          = 0.01
   smearing         = 'fermi-dirac'
   input_dft        = 'PBE'
   ntyp             = 1
   nat              = 64
   ibrav            = 0
/
&ELECTRONS
   electron_maxstep = 100
   mixing_beta      = 0.5
/
&IONS
/
&CELL
/

ATOMIC_SPECIES
Si 28.085 Si_ONCV_PBE_sr.upf

K_POINTS gamma

CELL_PARAMETERS angstrom
10.68498121709336 0.00000000000000 0.00000000000000
0.00000000000000 10.68498121709336 0.00000000000000
0.00000000000000 0.00000000000000 10.68498121709336

ATOMIC_POSITIONS angstrom
Si 3.6178384753 8.8658631649 1.8492924392 
Si 6.0930998541 2.1922696513 7.0850400854 
Si 7.1394480097 1.5627319279 4.9509074169 
Si 0.8683598755 4.5225251499 4.7437683710 
Si 6.2056875012 10.3774995126 1.5718355319 
Si 3.9449271203 4.4655955700 10.1768996752 
Si 5.6269461785 2.3655159367 1.4208140074 
Si 1.8254649311 5.9611937609 6.5482266290 
Si 3.6841815237 10.4137429689 5.4731251889 
Si 0.1232480528 5.7301096722 9.1434589769 
Si 8.1923781138 5.1868104322 4.1643966345 
Si 3.2688883587 0.8298554772 1.5052039890 
Si 3.1165953214 10.1600387749 10.0774866100 
Si 4.3189762578 6.5380758969 7.7886995234 
Si 0.5015989637 0.1794243416 9.8921449258 
Si 4.8803010610 9.2732921837 7.2499948254 
Si 6.7388787489 5.9878741590 8.7391072327 
Si 9.5473940068 4.7030692776 6.0139775682 
Si 10.0340949013 5.7640558575 0.9187459730 
Si 2.3218143635 6.6116313076 9.6748337778 
Si 9.4174860052 10.6629915257 0.9638152237 
Si 2.0821822898 6.3920442586 2.0572755986 
Si 7.9939152727 8.6867080848 2.3632827756 
Si 0.4415985202 9.3578317551 2.6813853514 
Si 6.9403120148 9.2089792817 5.5218059633 
Si 0.2179351509 8.2915561094 6.0010914808 
Si 7.6968514249 3.7887981748 9.0862729574 
Si 5.0095893337 0.9010024931 3.8897605623 
Si 9.8475885541 2.0968955089 2.3177647556 
Si 5.7858639041 9.1213517508 10.0362853224 
Si 7.5264046045 10.3503169204 7.7612925466 
Si 4.7781633256 4.2508915574 6.4170684846 
Si 2.3946538805 8.5770374376 7.7706098502 
Si 9.1773303674 2.8877016538 7.4779802696 
Si 2.3311423521 8.8694212636 4.2491819605 
Si 4.0286118932 4.1818665788 2.1547546822 
Si 9.5646181966 6.6611668805 7.4479020475 
Si 0.3972505057 10.5010499504 7.3436700557 
Si 5.5410709845 5.7938776401 4.8438973300 
Si 0.6624335750 2.9497172848 8.9303577115 
Si 1.8348677145 2.4159811030 4.9376794102 
Si 9.1708980087 8.9816135664 8.9234979536 
Si 0.9093944774 8.4880742840 0.2833966883 
Si 8.0050597081 7.5660351998 10.3845622852 
Si 1.7984426136 2.5084596154 0.5569354130 
Si 3.2786330616 6.3518366742 4.3428251358 
Si 7.3390968838 0.6269060125 10.2374194089 
Si 7.7477760453 6.2902163876 2.0728115612 
Si 2.2908386030 1.2022313466 6.9843555073 
Si 5.3568832782 6.3330631622 2.3304050884 
Si 9.2645304991 9.6295508274 4.5475386910 
Si 3.9766080896 2.9152261654 4.4558081272 
Si 1.1165271123 4.1610522354 2.2482268979 
Si 4.7937527132 7.0110786454 10.5350816156 
Si 5.7299600824 2.6902645708 9.7220400248 
Si 4.6114776186 0.7049630058 8.2928917321 
Si 1.1900611530 1.0138690182 3.3296965868 
Si 9.6551306724 3.2760472961 0.1327395217 
Si 2.6104263912 4.0646737048 7.9780587605 
Si 9.8310268332 0.8081660338 5.7742920695 
Si 7.5659924599 2.9165938430 2.9618126835 
Si 7.1439784417 6.7760411135 6.3488876194 
Si 10.6471991235 6.9288577149 3.4404143622 
Si 5.4141013527 8.6246924538 3.6707932422 

