&CONTROL
   calculation      = 'scf'
   tstress          = .true.
   tprnfor          = .true.
   outdir           = './'
   disk_io          = 'none'
   pseudo_dir       = '/home/ppiaggi/pseudos'
/
&SYSTEM
   ecutwfc          = 30
   occupations      = 'smearing'
   degauss          = 0.01
   smearing         = 'fermi-dirac'
   input_dft        = 'PBE'
   ntyp             = 1
   nat              = 64
   ibrav            = 0
/
&ELECTRONS
   electron_maxstep = 100
   mixing_beta      = 0.5
/
&IONS
/
&CELL
/

ATOMIC_SPECIES
Si 28.085 Si_ONCV_PBE_sr.upf

K_POINTS gamma

CELL_PARAMETERS angstrom
10.69093694159296 0.00000000000000 0.00000000000000
0.00000000000000 10.69093694159296 0.00000000000000
0.00000000000000 0.00000000000000 10.69093694159296

ATOMIC_POSITIONS angstrom
Si 10.5144295727 5.1325477707 1.5342777424 
Si 2.0354154115 3.3752357018 6.7462484836 
Si 5.6608083468 8.5890025204 5.9497950633 
Si 4.3233721354 5.1721256192 1.3692417488 
Si 3.9374400028 10.3691931943 7.7884758532 
Si 7.6746280657 9.5887441067 9.4368472746 
Si 7.0668269187 2.1217981820 1.2143407634 
Si 0.8694853487 6.5418163874 8.2593474798 
Si 2.1044788641 0.3657786474 0.3950867820 
Si 2.8583289007 6.9255248051 0.0955013913 
Si 9.8490577303 7.9468834659 4.3591867742 
Si 10.6448696943 8.8639092730 8.7673487305 
Si 3.3457500977 1.1709355595 5.7048763889 
Si 1.5177388629 7.3818033029 2.0384088738 
Si 9.0953252940 8.0247669415 0.0998140084 
Si 6.5682230016 4.1754202591 2.8999166454 
Si 8.0200736202 5.0521198521 8.7953803672 
Si 0.3711155631 0.6387770677 9.3464554028 
Si 1.9505507541 4.9092461708 9.4651248028 
Si 9.8625603836 5.9168455956 9.9641135936 
Si 8.5305017135 3.0472377565 7.9278642890 
Si 0.7109216484 3.2549519703 0.3970528453 
Si 2.9725722529 7.4508133008 4.5083574173 
Si 7.9559173076 9.5207925115 2.9791044153 
Si 9.3140191001 3.2555934265 3.1590756478 
Si 4.1609981852 9.9578487046 4.4616914776 
Si 0.9060430076 2.8735207221 4.0497589863 
Si 1.4991687054 5.0519274152 5.1010308886 
Si 8.4597704747 0.8320039929 5.0056570401 
Si 6.9487669021 7.1375047028 8.0514515201 
Si 7.2321088038 10.1397336148 6.6899500096 
Si 5.2553652543 2.8971583837 9.6886295305 
Si 9.1737540074 8.3896486193 6.9355635949 
Si 0.0216336454 3.0176131702 8.6696442578 
Si 1.1534665685 9.1315996430 5.0767090070 
Si 5.9084959739 0.3359701770 2.8255504880 
Si 4.2541055550 0.7919942305 9.7854680373 
Si 2.6367806145 8.2124570304 7.2621931004 
Si 5.8841634014 5.5022724429 5.4213206684 
Si 4.0556390016 4.4100863250 8.2177918080 
Si 6.9049768243 7.6727892245 4.4445539057 
Si 8.4508756152 1.1132472637 9.6992242490 
Si 6.6660450746 4.9844676031 0.1254196576 
Si 5.7517882202 10.1800705198 0.3845016853 
Si 6.4189882128 1.3848718986 7.6585488965 
Si 10.3398038087 2.0362599955 5.9510352120 
Si 8.4219780126 6.0675557337 2.7502114554 
Si 4.4555655707 6.6076939408 7.1967324935 
Si 3.6572626183 2.1876436626 3.1825101816 
Si 6.9766167928 7.5503031600 1.0353498899 
Si 6.4128088513 2.3338101525 4.5663022956 
Si 1.7374162352 0.2232684580 3.2065861716 
Si 8.3615849098 4.5434129996 5.8002716192 
Si 4.8347517222 7.2888990609 2.8629260036 
Si 3.0943634065 2.8025222099 0.9786162948 
Si 5.0614209672 2.7831609231 6.4789322963 
Si 9.9656210157 10.4603655046 2.6962115329 
Si 1.1918577231 0.1481240004 6.9463079866 
Si 4.8774833971 7.7973493309 9.8554722924 
Si 9.7479749215 1.6200938932 1.4959614244 
Si 10.1956579059 6.0150204696 6.0544058813 
Si 0.4315182878 9.0657434715 1.0275102258 
Si 3.5913529921 9.2871527755 1.8118572291 
Si 3.8785008674 4.6982391484 4.2662932231 

