&CONTROL
   calculation      = 'scf'
   tstress          = .true.
   tprnfor          = .true.
   outdir           = './'
   disk_io          = 'none'
   pseudo_dir       = '/home/ppiaggi/pseudos'
/
&SYSTEM
   ecutwfc          = 30
   occupations      = 'smearing'
   degauss          = 0.01
   smearing         = 'fermi-dirac'
   input_dft        = 'PBE'
   ntyp             = 1
   nat              = 64
   ibrav            = 0
/
&ELECTRONS
   electron_maxstep = 100
   mixing_beta      = 0.5
/
&IONS
/
&CELL
/

ATOMIC_SPECIES
Si 28.085 Si_ONCV_PBE_sr.upf

K_POINTS gamma

CELL_PARAMETERS angstrom
10.67811090137203 0.00000000000000 0.00000000000000
0.00000000000000 10.67811090137203 0.00000000000000
0.00000000000000 0.00000000000000 10.67811090137203

ATOMIC_POSITIONS angstrom
Si 9.7569956988 6.1858616795 8.0574248553 
Si 9.1937573831 10.2716058975 7.4244264411 
Si 0.2758679273 7.4374003458 4.1243135545 
Si 0.8851395791 2.3302307515 4.5961045285 
Si 3.1784358128 1.7913385286 10.0577660486 
Si 8.4692902709 2.5976320046 7.3448638367 
Si 9.4506300189 6.0903459775 2.0544044688 
Si 2.7719841994 5.4292961659 9.1151451306 
Si 0.5882624686 1.2390666328 9.3866361003 
Si 6.8448292594 8.9107767661 8.9922507523 
Si 2.8091440254 3.7553634667 0.4410401502 
Si 2.7242210094 9.9319992584 9.1009966337 
Si 1.3251749191 7.8369218652 7.9099387875 
Si 3.1352962447 3.4661895454 5.2451628215 
Si 9.3960648722 5.8947443420 5.3628035693 
Si 7.9516795230 7.7005089984 6.9965652154 
Si 4.3484364243 1.5614815133 2.4082343516 
Si 8.5905081858 1.2401771563 1.0919970113 
Si 1.2271712172 6.3224453960 1.9906241123 
Si 5.4841602997 2.7272642710 4.4060768669 
Si 6.5545982051 6.1884030699 4.2987404961 
Si 9.1105321867 3.8886796813 8.9967569151 
Si 4.9790429416 9.3561500937 10.4495886500 
Si 2.0625091549 7.4951155352 0.0290320750 
Si 7.6247478016 5.2684624595 10.6329958828 
Si 1.0156880274 3.8653907214 1.6780864844 
Si 10.3299831298 9.2598655677 9.2146224118 
Si 6.3863111773 9.7139949462 2.1770425725 
Si 3.2022266439 5.7931421168 3.2120718621 
Si 5.0904263165 3.2355316718 8.8354960842 
Si 4.9421821028 7.3561933124 8.0310819557 
Si 9.7755756118 3.9970945413 3.4166324327 
Si 7.3647678355 0.6818593141 8.5025098739 
Si 2.4418810790 10.6447738391 6.8170234587 
Si 10.2586106365 2.7982523523 0.0583239485 
Si 0.2553050892 9.2371959382 2.4909042862 
Si 0.2325233396 1.5681766889 6.8671999018 
Si 4.3664717536 9.8757042577 5.9861489713 
Si 8.9935000912 9.1795554956 5.0066138240 
Si 6.9801209246 0.2409985562 4.3911915803 
Si 1.4813743253 10.5143941050 4.3052648219 
Si 3.8826679048 9.8723940433 3.4585867304 
Si 8.7987099922 9.4880888320 1.1172187093 
Si 6.5382179830 4.9071151866 2.2537327650 
Si 4.8113859224 7.4063697555 3.1393112144 
Si 5.7200718039 7.9926300783 5.8952141789 
Si 7.8700880776 7.9882734091 3.3262635801 
Si 7.8162597206 2.6264415479 3.0818416216 
Si 3.1844048768 2.4576099364 7.2675863481 
Si 2.5289931078 7.9079099465 5.3711111396 
Si 1.0107782320 3.7796882033 8.0331535092 
Si 1.8233942175 1.3629754317 2.0992845689 
Si 4.4274651230 4.0061068669 2.1134544220 
Si 8.7763927404 7.4607106619 10.1547980423 
Si 6.9401100430 2.5220736919 10.0234893126 
Si 5.7264359580 1.2278439382 6.8289509085 
Si 5.3910364946 0.9954305832 0.3121083679 
Si 5.4941336553 4.7080965556 6.8684812751 
Si 7.5368562707 3.9835974091 5.5756610320 
Si 5.0919639644 5.5618649128 10.0357584620 
Si 0.8582157903 4.8076592617 5.6843642010 
Si 3.1824080700 5.7939963656 6.3919492199 
Si 4.2590606360 7.4483133751 0.7116928881 
Si 1.4342091095 10.0932494111 0.6425457132 

