&CONTROL
   calculation      = 'scf'
   tstress          = .true.
   tprnfor          = .true.
   outdir           = './'
   disk_io          = 'none'
   pseudo_dir       = '/home/ppiaggi/pseudos'
/
&SYSTEM
   ecutwfc          = 30
   occupations      = 'smearing'
   degauss          = 0.01
   smearing         = 'fermi-dirac'
   input_dft        = 'PBE'
   ntyp             = 1
   nat              = 64
   ibrav            = 0
/
&ELECTRONS
   electron_maxstep = 100
   mixing_beta      = 0.5
/
&IONS
/
&CELL
/

ATOMIC_SPECIES
Si 28.085 Si_ONCV_PBE_sr.upf

K_POINTS gamma

CELL_PARAMETERS angstrom
10.71426904156226 0.00000000000000 0.00000000000000
0.00000000000000 10.71426904156226 0.00000000000000
0.00000000000000 0.00000000000000 10.71426904156226

ATOMIC_POSITIONS angstrom
Si 5.8148266657 5.8713444349 9.2325927758 
Si 9.3525390177 3.0117060277 0.3332137672 
Si 7.9940875602 6.6994502891 2.5407174749 
Si 3.6777907055 1.9755504972 6.1277583216 
Si 10.5028336563 9.3507068777 8.4911760724 
Si 9.7643848054 0.7025431925 7.5245347195 
Si 4.8769102681 8.9042754296 3.8842975270 
Si 8.0860374171 10.6030120718 2.2309679569 
Si 1.6129689186 2.3119249738 9.7585455288 
Si 9.0217252468 8.2741478387 9.9985558696 
Si 3.5958158330 10.6639976912 7.5084311731 
Si 7.0973782413 9.0490037758 6.4297935659 
Si 6.6883824492 5.5496377927 4.7389854827 
Si 2.7402493073 0.3748322739 4.2492791019 
Si 9.5468958581 9.9088988662 4.2166862955 
Si 7.0185962211 0.5082806376 7.5547703867 
Si 5.6466769274 1.7158473299 2.4751354341 
Si 9.7903883364 7.1875281010 4.3042647306 
Si 5.7666553121 0.6650143223 4.6964605489 
Si 1.6011189370 7.6748559141 9.3659639968 
Si 1.2898265643 1.9040434656 2.7981813600 
Si 1.3223336566 4.2618040824 7.1253746263 
Si 3.3023305755 2.0092683019 1.1711124633 
Si 9.3551425851 8.2064979440 6.5961647356 
Si 5.5220592641 10.3861445522 0.6729021672 
Si 0.1678111674 10.6503798553 2.0466503866 
Si 2.8591669794 10.4207409269 0.4515571545 
Si 9.9639273520 6.8215608134 1.0649062000 
Si 3.0125524550 6.5949754517 3.1283844176 
Si 10.1633948988 2.8731919575 8.5966151940 
Si 1.0268480450 8.8426148112 0.8651290109 
Si 0.3497587414 5.2545989661 4.8744781290 
Si 6.5428826756 8.6466615447 2.3458892067 
Si 7.0332640554 4.7395747675 1.3832657046 
Si 1.2331587953 9.4047817936 4.9034173697 
Si 4.0810865065 7.7168237060 1.2120195425 
Si 0.8259394290 1.9975683201 5.8586373118 
Si 0.4003043771 5.7182911016 8.5104403281 
Si 3.3691233287 3.2891948816 8.1326337732 
Si 4.3237861288 5.3248524282 0.6498418459 
Si 1.1202303996 7.8185985476 3.0605845231 
Si 1.7836365102 0.1566190420 8.9694181853 
Si 6.3648972383 8.2732264116 8.8488290873 
Si 8.2304121925 0.8612675883 5.1000242066 
Si 5.0303278865 2.9592061094 10.2423269188 
Si 2.8951240663 6.4051293185 5.6109876972 
Si 4.0207651718 8.4394261529 9.5045852097 
Si 2.5997423831 3.8049155077 4.3904395965 
Si 7.9760875882 2.7019029384 2.5007639656 
Si 9.8728239224 0.6364640096 0.0356370517 
Si 2.4526783262 8.4491118521 6.8081786913 
Si 5.0098314898 4.0243758804 2.9327954362 
Si 7.8955162850 10.4016159567 10.0956592899 
Si 8.6471758296 6.0376727475 8.4385904399 
Si 0.2820520611 4.8332067646 0.1498486954 
Si 5.3548952386 7.4380062827 5.8315302111 
Si 5.1288027332 0.6765032330 9.2590891631 
Si 8.6425686940 4.8379853286 6.2231153161 
Si 2.3318856570 4.4333931011 1.5469797356 
Si 7.4609348184 2.9353347180 7.3854849358 
Si 4.5357357990 5.1681241006 7.2802386711 
Si 9.8669203601 3.0123060268 4.6187178127 
Si 5.6216591091 3.5597408892 5.8566444578 
Si 7.3076993426 3.8433368764 9.5938564993 

