&CONTROL
   calculation      = 'scf'
   tstress          = '.true.'
   tprnfor          = '.true.'
   outdir           = './'
   disk_io          = 'none'
   pseudo_dir       = './'
/
&SYSTEM
   ecutwfc          = 30
   input_dft        = 'PBE'
   ntyp             = 1
   nat              = 64
   ibrav            = 0
/
&ELECTRONS
   electron_maxstep = 1000
   mixing_beta      = 0.5
/
&IONS
/
&CELL
/

ATOMIC_SPECIES
Si 28.085 Si_ONCV_PBE-1.0.upf

K_POINTS gamma

CELL_PARAMETERS angstrom
11.16663337171652 0.00000000000000 0.00000000000000
0.00000000000000 10.91667398660431 0.00000000000000
0.00000000000000 0.00000000000000 10.94141929687931

ATOMIC_POSITIONS angstrom
Si 4.2641313858 4.1280159216 1.3917177138 
Si -0.0279674879 2.7482043007 2.7524480856 
Si 4.2756298509 1.3692573969 4.1200824296 
Si 0.0123921853 -0.0210982799 -0.0391397580 
Si 1.4332399488 4.0639759240 4.0680832936 
Si 2.8886497292 2.7659249703 -0.0321808306 
Si 1.3719966695 1.3207217744 1.3209132302 
Si 2.8833435700 0.0151748130 2.7250720390 
Si 4.2541337384 4.1191724523 6.7767966738 
Si -0.0093070745 2.7799614698 8.1749533744 
Si 4.2681634021 1.3999262910 9.5147140981 
Si 0.0507120248 0.0364457393 5.4121136599 
Si 1.4468014535 4.0586001283 9.5754331934 
Si 2.8443856810 2.7573420208 5.4237744788 
Si 1.3924550828 1.3416282256 6.8011461623 
Si 2.8756249809 -0.0071515076 8.1333537263 
Si 4.2273532547 9.5649888889 1.3851069473 
Si -0.0179961955 8.2555567784 2.7177074304 
Si 4.2608923390 6.8595984056 4.0634707156 
Si 0.0186689006 5.4751066126 0.0346301785 
Si 1.4054022212 9.5935015661 4.0794492090 
Si 2.8706786837 8.1881319895 0.0254429876 
Si 1.4411387833 6.8511535186 1.3978389051 
Si 2.8125365435 5.5071171881 2.7187519888 
Si 4.2509859797 9.5507362111 6.7756281397 
Si 0.0249712819 8.2389911324 8.1378483081 
Si 4.2645662740 6.8401695465 9.5646668369 
Si -0.0413779399 5.5111056830 5.4497684952 
Si 1.4470690626 9.5498981412 9.5416862488 
Si 2.8342205900 8.1835127200 5.4930125165 
Si 1.4198172875 6.8184897315 6.8336053098 
Si 2.8080426656 5.4519353407 8.1580259413 
Si 9.9111313411 4.0538682174 1.4075015409 
Si 5.7222817670 2.7762055436 2.6837365822 
Si 9.9287379538 1.3402078627 4.1230510174 
Si 5.6334732002 -0.0426484639 0.0438994568 
Si 7.0562112755 4.1222939256 4.1354946904 
Si 8.5432576116 2.7134324850 0.0013128952 
Si 7.1162249800 1.3644114894 1.3627597177 
Si 8.5299266187 0.0227186706 2.6915767059 
Si 9.9588049624 4.0713283421 6.7990275512 
Si 5.6520303905 2.7254892409 8.1647443260 
Si 9.9348300769 1.3842279956 9.5179225593 
Si 5.6591597264 0.0007911778 5.4849794420 
Si 7.1448248363 4.0697498220 9.5073357607 
Si 8.5133578948 2.6913977187 5.4378894423 
Si 7.1458088745 1.3397555525 6.7808180075 
Si 8.5195325937 -0.0340262599 8.2147255940 
Si 9.9272741023 9.5265592311 1.4039796937 
Si 5.6974171682 8.2025389606 2.7297821182 
Si 9.9238456337 6.8069815889 4.1186694622 
Si 5.6581088740 5.5072637027 0.0083409902 
Si 7.0970926605 9.5711044453 4.0454956656 
Si 8.5675154379 8.1892433946 -0.0050173304 
Si 7.0926422741 6.8190600439 1.3758358650 
Si 8.4785919010 5.4812807154 2.6864211112 
Si 9.9068591131 9.5310800072 6.8210370229 
Si 5.7127849624 8.1695117402 8.1530472938 
Si 9.9607412699 6.8519225144 9.5117610444 
Si 5.6572854204 5.5088912342 5.4581500743 
Si 7.0539436928 9.5686486211 9.5751214131 
Si 8.5176659301 8.2496903529 5.4343639410 
Si 7.0757236928 6.8737155962 6.7854619857 
Si 8.5188829023 5.4833690656 8.1966562996 

