&CONTROL
   calculation      = 'scf'
   tstress          = '.true.'
   tprnfor          = '.true.'
   outdir           = './'
   disk_io          = 'none'
   pseudo_dir       = './'
/
&SYSTEM
   ecutwfc          = 30
   input_dft        = 'PBE'
   ntyp             = 1
   nat              = 64
   ibrav            = 0
/
&ELECTRONS
   electron_maxstep = 1000
   mixing_beta      = 0.5
/
&IONS
/
&CELL
/

ATOMIC_SPECIES
Si 28.085 Si_ONCV_PBE-1.0.upf

K_POINTS gamma

CELL_PARAMETERS angstrom
11.15951035705368 0.00000000000000 0.00000000000000
0.00000000000000 11.00038188430023 0.00000000000000
0.00000000000000 0.00000000000000 10.96753531616629

ATOMIC_POSITIONS angstrom
Si 4.1036686019 4.0929663479 1.3571875015 
Si -0.0057948703 2.7041577004 2.7352306608 
Si 4.1124985988 1.3289403697 4.1805030552 
Si 0.0138225302 0.0028920005 -0.0231345064 
Si 1.3679004488 4.0765862385 4.1784291078 
Si 2.7663418409 2.7602940945 -0.0338588319 
Si 1.3994108031 1.3355442904 1.3992980317 
Si 2.7143214250 -0.0249683810 2.8149597796 
Si 4.1022314633 4.1011814345 6.9753759453 
Si -0.0047543142 2.6930273835 8.3661762998 
Si 4.1943377955 1.3794664951 9.7350064574 
Si -0.0426392662 -0.0146727244 5.5866408674 
Si 1.4189288101 4.0472809994 9.7367116720 
Si 2.7617918423 2.6762259680 5.5926608620 
Si 1.4183090371 1.3445198302 6.9214664425 
Si 2.8068156456 -0.0076291145 8.3732259930 
Si 4.1204118567 9.5693679692 1.3967390894 
Si 0.0434326525 8.1926031997 2.7374777098 
Si 4.1223309448 6.8104227803 4.2012954726 
Si -0.0503247356 5.4076976472 -0.0301993793 
Si 1.4129270499 9.5691240224 4.2112338207 
Si 2.7164207555 8.2051341241 0.0151163792 
Si 1.3893247545 6.8185659285 1.3569774783 
Si 2.7966548830 5.4599950263 2.7919944407 
Si 4.1528322696 9.5532817626 7.0054786623 
Si 0.0193037717 8.1291402503 8.3679479314 
Si 4.1870606151 6.8424761168 9.6971378035 
Si 0.0209659345 5.4294408886 5.5439142121 
Si 1.4297134092 9.4878749565 9.7077457903 
Si 2.7819077400 8.1858944559 5.5961396777 
Si 1.3579735171 6.7910243654 6.9705619557 
Si 2.8024153839 5.3959030028 8.3241695888 
Si 9.6466766075 4.1057787030 1.4144477745 
Si 5.5177084566 2.7165544288 2.8110138097 
Si 9.6664115320 1.3418319524 4.1681330615 
Si 5.5742537965 -0.0031379151 0.0174098960 
Si 6.8596802524 4.1157704136 4.1275074702 
Si 8.2755880655 2.7492982081 -0.0301570468 
Si 6.9246780603 1.3826964665 1.3721033823 
Si 8.3114613190 0.0375215810 2.8053261707 
Si 9.6674445806 4.1289958783 6.9915794452 
Si 5.5136259615 2.7612173701 8.3207643289 
Si 9.6318522202 1.3488964748 9.7633037512 
Si 5.5267440681 -0.0286217007 5.5454325201 
Si 6.9474233008 4.1064646736 9.7119023304 
Si 8.2561854775 2.7124414016 5.6078911907 
Si 6.8726944640 1.3631258105 6.9588548604 
Si 8.3254357900 0.0287889662 8.3859573823 
Si 9.6493192651 9.5556395813 1.4234817328 
Si 5.5063107253 8.1299682966 2.7573425528 
Si 9.6473556853 6.7938404710 4.1749669055 
Si 5.4863421251 5.4087603678 -0.0338495832 
Si 6.8735669342 9.4787316480 4.1285552580 
Si 8.2848557554 8.1289310611 -0.0170216619 
Si 6.8725904136 6.7670960775 1.3770724941 
Si 8.3302248801 5.4047899733 2.8276577840 
Si 9.6651668185 9.5367868677 6.9121804164 
Si 5.5043165283 8.1404043540 8.3479054646 
Si 9.6979921765 6.8193955796 9.7564909930 
Si 5.5011841939 5.4289532691 5.5174857393 
Si 6.9224350566 9.5166009661 9.7681681325 
Si 8.3386792810 8.1171004049 5.5295832168 
Si 6.8964915076 6.8445163691 6.9326930222 
Si 8.2510608162 5.4540714345 8.3689366238 

