&CONTROL
   calculation      = 'scf'
   tstress          = '.true.'
   tprnfor          = '.true.'
   outdir           = './'
   disk_io          = 'none'
   pseudo_dir       = './'
/
&SYSTEM
   ecutwfc          = 30
   input_dft        = 'PBE'
   ntyp             = 1
   nat              = 64
   ibrav            = 0
/
&ELECTRONS
   electron_maxstep = 1000
   mixing_beta      = 0.5
/
&IONS
/
&CELL
/

ATOMIC_SPECIES
Si 28.085 Si_ONCV_PBE-1.0.upf

K_POINTS gamma

CELL_PARAMETERS angstrom
10.99710482451695 0.00000000000000 0.00000000000000
0.00000000000000 10.88491167516436 0.00000000000000
0.00000000000000 0.00000000000000 11.00895984250705

ATOMIC_POSITIONS angstrom
Si 4.0608873057 4.0070277537 1.4361976286 
Si -0.0046523602 2.6352453384 2.8230823879 
Si 4.1082846225 1.3552704724 4.2192764519 
Si 0.0145492761 -0.0162159567 0.0187928397 
Si 1.3995767513 3.9730261885 4.1952674233 
Si 2.7419876648 2.7043282522 0.0088909071 
Si 1.4017276790 1.3582031917 1.4263622291 
Si 2.6920666947 -0.0078172265 2.8135212680 
Si 4.1019623051 3.9731865327 7.0104843717 
Si 0.0246186140 2.6953160100 8.3666053802 
Si 4.0546311508 1.2961633529 9.7677242237 
Si 0.0102249619 0.0214190529 5.6027389245 
Si 1.3508181160 4.0053994835 9.7809526496 
Si 2.7379747607 2.7239685693 5.6358380454 
Si 1.3825489386 1.3138363528 6.9864692263 
Si 2.7593363811 0.0390684524 8.4233477902 
Si 4.1302160259 9.3600455115 1.4088840515 
Si -0.0246643880 7.9909864772 2.7737502718 
Si 4.0901528006 6.6646224479 4.2449330142 
Si 0.0494397436 5.3859337295 0.0173272375 
Si 1.3552963433 9.4285260838 4.2057373842 
Si 2.7260384273 8.0735296475 -0.0104191569 
Si 1.3235315688 6.7469202219 1.3558052793 
Si 2.7500197708 5.3896052348 2.8238806605 
Si 4.0366733415 9.3728462782 7.0009453730 
Si -0.0479380672 8.0027888475 8.3846970987 
Si 4.1231558662 6.6576547613 9.7720414173 
Si -0.0390433272 5.3684761910 5.5768528999 
Si 1.3416741168 9.3412661917 9.7749443445 
Si 2.7220336543 8.0674634265 5.6153516155 
Si 1.4001827336 6.6948505184 7.0201734280 
Si 2.7479946534 5.3704197029 8.3820431705 
Si 9.5386145569 3.9896026511 1.4512516432 
Si 5.4250799988 2.7032739032 2.8338121312 
Si 9.5468094085 1.3670803585 4.1611557015 
Si 5.4901536709 -0.0302284388 -0.0338233957 
Si 6.8243054461 3.9810747592 4.1754156018 
Si 8.1249533772 2.6903057939 0.0242735061 
Si 6.8215479340 1.3140709751 1.4050597888 
Si 8.2044598241 -0.0068961451 2.8003243526 
Si 9.5350505412 4.0063351405 7.0256565046 
Si 5.4785951832 2.6813504774 8.4017937493 
Si 9.5294739343 1.3515464439 9.7570679300 
Si 5.4791082606 -0.0237062940 5.6089015240 
Si 6.8347847591 3.9925053733 9.7613254292 
Si 8.1963407558 2.6984057696 5.5713638169 
Si 6.7687629298 1.2984547167 6.9647680820 
Si 8.1324837977 -0.0338801423 8.4219462770 
Si 9.5728886728 9.4114756945 1.4182914785 
Si 5.4927590126 8.0717655249 2.8132845801 
Si 9.4782737317 6.6903489466 4.1728541387 
Si 5.4548533982 5.3367601739 0.0128069616 
Si 6.7554217319 9.3780975147 4.2053759109 
Si 8.1782390395 7.9912830162 -0.0149066159 
Si 6.8473319021 6.6821321814 1.4023372693 
Si 8.1661114963 5.3243329171 2.8299119178 
Si 9.5425105419 9.3464886680 7.0417016572 
Si 5.4375478719 8.0099308411 8.3615337834 
Si 9.5405067850 6.7123484033 9.7811011456 
Si 5.4522104762 5.3786201646 5.6352620469 
Si 6.8063270390 9.3831748553 9.8518489187 
Si 8.1489248513 8.0468373953 5.6434682314 
Si 6.7695024833 6.7328797683 7.0118386109 
Si 8.1382434847 5.3300673336 8.4498130493 

