&CONTROL
   calculation      = 'scf'
   tstress          = '.true.'
   tprnfor          = '.true.'
   outdir           = './'
   disk_io          = 'none'
   pseudo_dir       = './'
/
&SYSTEM
   ecutwfc          = 30
   input_dft        = 'PBE'
   ntyp             = 1
   nat              = 64
   ibrav            = 0
/
&ELECTRONS
   electron_maxstep = 1000
   mixing_beta      = 0.5
/
&IONS
/
&CELL
/

ATOMIC_SPECIES
Si 28.085 Si_ONCV_PBE-1.0.upf

K_POINTS gamma

CELL_PARAMETERS angstrom
10.75932501057040 0.00000000000000 0.00000000000000
0.00000000000000 10.95516933558581 0.00000000000000
0.00000000000000 0.00000000000000 11.06729418921787

ATOMIC_POSITIONS angstrom
Si 3.9556212506 4.1570925323 1.3555781494 
Si 0.0320174705 2.7157598163 2.8204685372 
Si 3.9424699273 1.3305655898 4.1246058158 
Si 0.0011101890 0.0088051105 -0.0213133662 
Si 1.3414422652 4.1553503996 4.1727037934 
Si 2.6307884807 2.7348262731 0.0183061323 
Si 1.3310599540 1.3832559150 1.4241859779 
Si 2.6326773801 0.0374808612 2.7244646720 
Si 3.9507330753 4.0840870754 6.9559301485 
Si -0.0246620907 2.7517866480 8.2977342951 
Si 4.0092696902 1.3417673134 9.7359463563 
Si 0.0475145652 -0.0443070949 5.5262039004 
Si 1.2835319063 4.1106870750 9.6803986299 
Si 2.6193785656 2.7295631579 5.5611614270 
Si 1.3402579380 1.3505046464 6.9350414077 
Si 2.6001683886 0.0054709554 8.3205187143 
Si 4.0025653455 9.5742528538 1.3399436456 
Si 0.0050737138 8.2678607087 2.7806099328 
Si 4.0165422907 6.9060255314 4.1591102506 
Si 0.0440717243 5.4834060007 -0.0014755112 
Si 1.2773530077 9.5880358068 4.1874616671 
Si 2.6682040308 8.2327699798 -0.0021145588 
Si 1.3188616474 6.8914655964 1.4184004395 
Si 2.6917537541 5.5029868128 2.7273734525 
Si 3.9445674648 9.6536082664 6.8990289177 
Si -0.0432795907 8.2379807050 8.2747520052 
Si 4.0057757383 6.8729868195 9.7171961244 
Si 0.0384584896 5.5167880009 5.5718115555 
Si 1.3238893878 9.5959857166 9.6591561093 
Si 2.6484672600 8.2830691158 5.5825849475 
Si 1.3197945210 6.8881904781 6.8974687646 
Si 2.6680081032 5.4858202886 8.3503057466 
Si 9.2217439053 4.0894731430 1.3546333454 
Si 5.2629048338 2.7703081642 2.8205622773 
Si 9.2361372869 1.3966267510 4.1671762644 
Si 5.2721859599 -0.0286815376 -0.0466898215 
Si 6.6324705911 4.1224772048 4.1583699132 
Si 7.9278727330 2.7133165065 0.0174380786 
Si 6.6435388995 1.3898911351 1.3819790316 
Si 7.9853224743 0.0351789849 2.7997312422 
Si 9.2951093115 4.0997190170 6.9574681042 
Si 5.2713199552 2.7953656416 8.3020107326 
Si 9.2246032303 1.4123940035 9.7033055269 
Si 5.2487080601 -0.0273154945 5.5537980676 
Si 6.6289231146 4.1147359419 9.7515352196 
Si 7.9403253550 2.7824669525 5.5633062190 
Si 6.5938930491 1.4129662779 6.8825651937 
Si 7.9096665511 0.0077642835 8.3392456115 
Si 9.2860400287 9.6577729143 1.3989055375 
Si 5.2652443449 8.2630195391 2.8003324803 
Si 9.2860010776 6.8358787848 4.1890337202 
Si 5.2723449991 5.4821581791 -0.0047134630 
Si 6.6511517743 9.5689898651 4.1445701548 
Si 7.9001975730 8.2785693375 -0.0110971192 
Si 6.6497945839 6.8190398532 1.4142853404 
Si 7.9092394572 5.5325737173 2.7400088322 
Si 9.2841937846 9.6355158651 6.9728554349 
Si 5.2725425518 8.2623566611 8.3235433114 
Si 9.2339892715 6.8876081828 9.7486167082 
Si 5.2546026271 5.4665659671 5.5666031417 
Si 6.5723905583 9.5873707808 9.6736542191 
Si 7.9507857963 8.2680554244 5.5087449389 
Si 6.6018061496 6.8499613123 6.9473707307 
Si 7.9849997899 5.5213806820 8.3314989368 

