&CONTROL
   calculation      = 'scf'
   tstress          = '.true.'
   tprnfor          = '.true.'
   outdir           = './'
   disk_io          = 'none'
   pseudo_dir       = './'
/
&SYSTEM
   ecutwfc          = 30
   input_dft        = 'PBE'
   ntyp             = 1
   nat              = 64
   ibrav            = 0
/
&ELECTRONS
   electron_maxstep = 1000
   mixing_beta      = 0.5
/
&IONS
/
&CELL
/

ATOMIC_SPECIES
Si 28.085 Si_ONCV_PBE-1.0.upf

K_POINTS gamma

CELL_PARAMETERS angstrom
11.15523508818094 0.00000000000000 0.00000000000000
0.00000000000000 10.88955774037609 0.00000000000000
0.00000000000000 0.00000000000000 11.02185826496989

ATOMIC_POSITIONS angstrom
Si 4.1998855162 4.0106183240 1.4251958761 
Si -0.0186849641 2.7399441967 2.8110603316 
Si 4.1998510309 1.3215445883 4.1593118847 
Si -0.0062150893 0.0366102951 -0.0449865834 
Si 1.4052892059 4.0798501195 4.2166417405 
Si 2.8027324444 2.6861034630 0.0027846685 
Si 1.3997436900 1.3521548992 1.3820313196 
Si 2.7761769031 -0.0026584072 2.7840174918 
Si 4.1485078096 4.0561537841 6.9004091971 
Si -0.0100741035 2.6733774140 8.3173511476 
Si 4.1701735167 1.3548256761 9.7316770259 
Si -0.0363281279 -0.0459075740 5.6074758968 
Si 1.3866441599 4.0542401239 9.7193151920 
Si 2.7563145520 2.6715236046 5.5118917084 
Si 1.4322026948 1.3098219808 6.9393381306 
Si 2.8239738710 -0.0102841214 8.3364989947 
Si 4.1659656112 9.4203543814 1.4020309601 
Si -0.0307491537 8.1239853276 2.7482840861 
Si 4.1262635208 6.7724275105 4.2176363031 
Si -0.0289092355 5.3749866575 0.0095110955 
Si 1.4208943129 9.4104688556 4.1727336192 
Si 2.7354838957 8.1194484769 0.0039307585 
Si 1.3938001414 6.7458280949 1.4279559950 
Si 2.7600549151 5.3935625023 2.7381098050 
Si 4.1722234374 9.4635883688 6.9253022436 
Si 0.0447406362 8.0543902072 8.3675871812 
Si 4.1256856396 6.7647474448 9.7642327669 
Si 0.0321975186 5.4294184759 5.5836097146 
Si 1.3475229402 9.4221003846 9.7416622360 
Si 2.8240206758 8.1305552589 5.6026717562 
Si 1.4059661653 6.7697995464 6.9522955212 
Si 2.7897176321 5.4127348014 8.2886405422 
Si 9.6902204264 4.0379503595 1.3612575002 
Si 5.6054567549 2.7076183881 2.7766859487 
Si 9.7689170486 1.3473986451 4.1448500423 
Si 5.5393131755 -0.0346979538 0.0445839794 
Si 6.9918434886 4.0298898087 4.2021809954 
Si 8.3900888486 2.7021462604 0.0427013753 
Si 7.0016299650 1.3826976860 1.4193612610 
Si 8.3282361476 -0.0097224255 2.7572448324 
Si 9.7293625796 4.0301120479 6.9012540411 
Si 5.5912119159 2.6736432015 8.3436400154 
Si 9.7386643022 1.3433815264 9.7758482745 
Si 5.5300904763 0.0181407519 5.6070698741 
Si 6.9994506188 4.0866558084 9.7680240498 
Si 8.3896840271 2.6699665337 5.5283144105 
Si 6.9919664267 1.3187989477 6.9102263806 
Si 8.3645452805 -0.0278765794 8.3062381934 
Si 9.7263977238 9.4969641286 1.3895113677 
Si 5.5167801094 8.0541566140 2.7311048602 
Si 9.7244860276 6.7409651717 4.1268476379 
Si 5.5407187992 5.4210976686 0.0474387738 
Si 6.9471497071 9.4308282504 4.1768155969 
Si 8.3096354517 8.1240606951 0.0275245854 
Si 6.9679497225 6.7695521050 1.4284915723 
Si 8.3716476508 5.4019930592 2.7770008382 
Si 9.7691200762 9.4664456067 6.9994610346 
Si 5.5675569235 8.0860793915 8.2903410971 
Si 9.7685073679 6.7997120930 9.6923908529 
Si 5.5830536520 5.4386479259 5.6052658083 
Si 6.9964831966 9.4268656846 9.7653810945 
Si 8.3200518444 8.0716572980 5.5840832206 
Si 6.9715852511 6.7329258774 6.9584865358 
Si 8.3420424062 5.4081486800 8.2971746767 

