&CONTROL
   calculation      = 'scf'
   tstress          = '.true.'
   tprnfor          = '.true.'
   outdir           = './'
   disk_io          = 'none'
   pseudo_dir       = './'
/
&SYSTEM
   ecutwfc          = 30
   input_dft        = 'PBE'
   ntyp             = 1
   nat              = 64
   ibrav            = 0
/
&ELECTRONS
   electron_maxstep = 1000
   mixing_beta      = 0.5
/
&IONS
/
&CELL
/

ATOMIC_SPECIES
Si 28.085 Si_ONCV_PBE-1.0.upf

K_POINTS gamma

CELL_PARAMETERS angstrom
10.85548291144480 0.00000000000000 0.00000000000000
0.00000000000000 10.92151927342641 0.00000000000000
0.00000000000000 0.00000000000000 10.92489060871256

ATOMIC_POSITIONS angstrom
Si 4.0520826724 4.1042895879 1.3624299251 
Si -0.0222518966 2.7190741775 2.6797787381 
Si 4.1383842290 1.3341570745 4.0277948429 
Si -0.0458579712 0.0331254883 -0.0238944072 
Si 1.4147581773 4.0551724023 4.0297988238 
Si 2.7055182003 2.6999904075 -0.0457745314 
Si 1.3780003683 1.3745568905 1.3631106396 
Si 2.7309355046 0.0137005985 2.7392198191 
Si 4.1144580091 4.0219075201 6.7609669661 
Si -0.0374934404 2.7385247525 8.1198616470 
Si 4.1327882485 1.3754693747 9.4246405520 
Si 0.0393149647 -0.0173098492 5.3976591916 
Si 1.3732659975 4.0791550785 9.4147599954 
Si 2.6991721785 2.7110149972 5.3497156175 
Si 1.3927327152 1.3050689644 6.7323331441 
Si 2.7714617726 0.0041746262 8.1192865469 
Si 4.0576439756 9.4895723307 1.3702254160 
Si -0.0156407549 8.1336128700 2.6895348013 
Si 4.0853486622 6.7814747759 4.0091418687 
Si -0.0330545863 5.4214451978 -0.0286104558 
Si 1.3926164296 9.5222577870 4.0514936466 
Si 2.7371800393 8.0709759424 -0.0462088361 
Si 1.3823736811 6.7692868977 1.3190646537 
Si 2.7184331376 5.4446941146 2.6452672978 
Si 4.0731256966 9.4257731874 6.7380748812 
Si 0.0487379730 8.0867854203 8.0440254913 
Si 4.0574235156 6.7490103766 9.4137496739 
Si -0.0299592681 5.4044935312 5.4004058566 
Si 1.3418719056 9.4700310781 9.4296363695 
Si 2.7228159349 8.1308175962 5.3800188638 
Si 1.4103506344 6.8120315480 6.7614839599 
Si 2.7047626200 5.3796583792 8.0781138696 
Si 9.5879700509 4.0694465032 1.3422542529 
Si 5.4861294492 2.7244541681 2.7230500697 
Si 9.5138937957 1.4015294347 4.0724177309 
Si 5.4771565117 0.0434297398 0.0276147001 
Si 6.8611932051 4.0150978854 4.0390260125 
Si 8.1816767145 2.7065650885 0.0388098819 
Si 6.8005803206 1.3780429681 1.3278771360 
Si 8.1807491986 0.0429402979 2.6547184685 
Si 9.5132077141 4.0173423803 6.7276069493 
Si 5.4384257715 2.6891237825 8.1213468513 
Si 9.5460354020 1.3474818087 9.4514198397 
Si 5.4219350843 -0.0283631083 5.3460870953 
Si 6.8032439110 4.0782367579 9.4642153058 
Si 8.2246854566 2.6706046954 5.4155007791 
Si 6.8197316183 1.3537827089 6.7522518132 
Si 8.1604472958 -0.0285434830 8.1025068156 
Si 9.5944634030 9.4791414356 1.3143751789 
Si 5.4510814163 8.0738074300 2.6763765379 
Si 9.5091066264 6.7635698655 4.0566677864 
Si 5.4371490598 5.4532566941 0.0272879755 
Si 6.8000309400 9.4934265063 4.0572642724 
Si 8.1969349995 8.0865854760 0.0148710846 
Si 6.8319034840 6.8029674606 1.3292467657 
Si 8.2223293000 5.4124126285 2.6467657301 
Si 9.5773423239 9.5064830414 6.7781054851 
Si 5.4445315619 8.1585958166 8.1101423699 
Si 9.5968369681 6.7390246855 9.4556387370 
Si 5.4513894729 5.4599341901 5.3653675842 
Si 6.7787138037 9.4574045745 9.4429025967 
Si 8.1519909423 8.1573636554 5.4252449453 
Si 6.8464185247 6.7514453490 6.7344432660 
Si 8.2132626644 5.4274188708 8.0839280553 

