&CONTROL
   calculation      = 'scf'
   tstress          = '.true.'
   tprnfor          = '.true.'
   outdir           = './'
   disk_io          = 'none'
   pseudo_dir       = './'
/
&SYSTEM
   ecutwfc          = 30
   input_dft        = 'PBE'
   ntyp             = 1
   nat              = 64
   ibrav            = 0
/
&ELECTRONS
   electron_maxstep = 1000
   mixing_beta      = 0.5
/
&IONS
/
&CELL
/

ATOMIC_SPECIES
Si 28.085 Si_ONCV_PBE-1.0.upf

K_POINTS gamma

CELL_PARAMETERS angstrom
10.78051078847604 0.00000000000000 0.00000000000000
0.00000000000000 10.78737384988612 0.00000000000000
0.00000000000000 0.00000000000000 10.87172293904900

ATOMIC_POSITIONS angstrom
Si 4.0653842103 3.9978975110 1.3172742556 
Si 0.0275361156 2.6975454235 2.6752460465 
Si 4.0655380753 1.3467963202 3.9797755415 
Si -0.0393863706 0.0425220406 -0.0117234829 
Si 1.3176314683 4.0234652811 4.0273095772 
Si 2.6853993688 2.6260496688 -0.0228316231 
Si 1.3402844835 1.3057124938 1.3216346809 
Si 2.6760832742 -0.0414995869 2.6427282914 
Si 3.9968770361 4.0234580862 6.6811902296 
Si -0.0148291127 2.7002333146 8.0716292768 
Si 3.9823325603 1.3131963166 9.4157669498 
Si 0.0115207550 -0.0276376400 5.3448057753 
Si 1.3528190096 4.0195677101 9.4195934858 
Si 2.7088347046 2.6669812247 5.3667121173 
Si 1.2973789286 1.3435907420 6.7008206372 
Si 2.6567243047 0.0022511378 8.0814694246 
Si 4.0603390891 9.2532693156 1.3178762599 
Si -0.0096534664 7.9892861744 2.6896365461 
Si 4.0747217476 6.6070661645 4.0568729676 
Si 0.0011095506 5.3210010582 -0.0308171333 
Si 1.3761439207 9.2556456653 4.0172030098 
Si 2.6563508311 7.9765440548 0.0044281654 
Si 1.3660127794 6.6531217711 1.3375799012 
Si 2.6970457554 5.2761502499 2.6648925804 
Si 4.0323671226 9.3438086218 6.7140247848 
Si -0.0191505457 7.9615989062 8.0598111787 
Si 4.0411202673 6.6852700465 9.3993417883 
Si 0.0460766002 5.3561463329 5.3490615693 
Si 1.3786666920 9.3108050494 9.4214718403 
Si 2.7215902982 8.0049239963 5.3743363293 
Si 1.3321940919 6.6853901530 6.7311616100 
Si 2.6956921876 5.2898260299 7.9881890123 
Si 9.3847229487 3.9646346649 1.3666671646 
Si 5.3428948745 2.6328953368 2.6513808101 
Si 9.3592540420 1.3234649364 4.0245481857 
Si 5.3501782970 0.0301648252 0.0298782109 
Si 6.6845812223 3.9967911081 4.0464912255 
Si 8.0908385604 2.6603510024 0.0418635906 
Si 6.7587174948 1.3564672557 1.3018988996 
Si 8.0638949244 -0.0389296014 2.6932628895 
Si 9.4044057248 3.9591372998 6.7239138092 
Si 5.3953927577 2.7009545463 8.0245801816 
Si 9.3959559871 1.3026548755 9.3669259834 
Si 5.3520834162 0.0478408399 5.3991354462 
Si 6.6665453203 3.9574060208 9.3603190976 
Si 8.0583440503 2.6185885113 5.3903957532 
Si 6.6653459561 1.3718613878 6.6882858214 
Si 8.0771187015 -0.0361251605 8.0707021522 
Si 9.3491206939 9.3034534841 1.3209436543 
Si 5.3653912643 7.9807158796 2.6717249369 
Si 9.4410428685 6.6454546646 4.0623111310 
Si 5.3647773924 5.2846238240 0.0316122728 
Si 6.6994285115 9.2903419502 4.0328356402 
Si 8.0165332799 7.9878261475 -0.0125431480 
Si 6.6794534333 6.6007339558 1.3472238176 
Si 8.0411009685 5.3363469651 2.6424825577 
Si 9.4389930337 9.3368472094 6.6598884698 
Si 5.3729467531 7.9850903640 7.9885725923 
Si 9.4058010532 6.6661542527 9.4071961237 
Si 5.3676043005 5.2752341403 5.3698720313 
Si 6.7133989440 9.2725146688 9.4034353569 
Si 8.0415688146 7.9363735969 5.3267945878 
Si 6.7459513531 6.6135260295 6.7219684005 
Si 8.0570429805 5.3429795870 8.0355828677 

