&CONTROL
   calculation      = 'scf'
   tstress          = '.true.'
   tprnfor          = '.true.'
   outdir           = './'
   disk_io          = 'none'
   pseudo_dir       = './'
/
&SYSTEM
   ecutwfc          = 30
   input_dft        = 'PBE'
   ntyp             = 1
   nat              = 64
   ibrav            = 0
/
&ELECTRONS
   electron_maxstep = 1000
   mixing_beta      = 0.5
/
&IONS
/
&CELL
/

ATOMIC_SPECIES
Si 28.085 Si_ONCV_PBE-1.0.upf

K_POINTS gamma

CELL_PARAMETERS angstrom
10.82742873032630 0.00000000000000 0.00000000000000
0.00000000000000 11.10598109861773 0.00000000000000
0.00000000000000 0.00000000000000 10.93417282588606

ATOMIC_POSITIONS angstrom
Si 4.0576432621 4.2365936799 1.3443508107 
Si 0.0380029449 2.8575578938 2.7656899080 
Si 4.0362554707 1.4607304008 4.1044495139 
Si -0.0327830179 -0.0103663765 -0.0014700365 
Si 1.3016704171 4.2317582720 4.1792681370 
Si 2.6857618940 2.8316067710 -0.0152968119 
Si 1.3408178337 1.4474380003 1.3493552895 
Si 2.7258410210 -0.0267632840 2.8014821027 
Si 4.0479382605 4.2281599329 6.9606253355 
Si -0.0024952952 2.8040619050 8.3039244270 
Si 4.0588122482 1.3949154353 9.6403534612 
Si 0.0184811290 -0.0062387173 5.5491689606 
Si 1.2973383575 4.1978848476 9.6956049175 
Si 2.6501561718 2.8363308896 5.4869929319 
Si 1.3737363739 1.4131354120 6.8765392375 
Si 2.7037891181 -0.0154576597 8.2877053618 
Si 3.9873806638 9.9051563100 1.4249939163 
Si 0.0116456777 8.4884542562 2.7790405877 
Si 4.0266132278 7.0432312459 4.1540693848 
Si 0.0176085146 5.6958304519 0.0068843521 
Si 1.3359236309 9.8629434286 4.1039409298 
Si 2.6932011216 8.4632355620 0.0262666440 
Si 1.3144940699 7.0720492865 1.3480272790 
Si 2.7126620133 5.6857243821 2.8030968093 
Si 3.9938777182 9.8755354849 6.9381113148 
Si 0.0019629123 8.4710359260 8.3089910850 
Si 4.0801932992 7.0766387185 9.7132006006 
Si 0.0073456650 5.6308456918 5.5701383213 
Si 1.3844698232 9.8641737382 9.7251735440 
Si 2.6868175500 8.4541063333 5.5464399670 
Si 1.3706714790 7.1176811502 6.9258963690 
Si 2.7243914282 5.6284217475 8.3302811128 
Si 9.4092264680 4.2567261660 1.3708507067 
Si 5.3374455219 2.8182176510 2.7349906138 
Si 9.4350878855 1.3815780666 4.1375495273 
Si 5.4220216778 -0.0315174181 -0.0232281224 
Si 6.7214330561 4.2465891334 4.1177312744 
Si 8.0824185474 2.8297340449 0.0428291265 
Si 6.7362306054 1.4590430134 1.4179347727 
Si 8.0375750515 0.0330263332 2.7614835004 
Si 9.4568605444 4.2625613619 6.9141870164 
Si 5.3582922809 2.7959709684 8.2975697853 
Si 9.4285436508 1.3862166447 9.7220857689 
Si 5.3725581321 -0.0180382410 5.5095812943 
Si 6.7672365699 4.2024453735 9.6390323013 
Si 8.0319859837 2.8187974486 5.5736816950 
Si 6.7183517787 1.3804125479 6.8797588055 
Si 8.1125293411 -0.0445694558 8.2963229878 
Si 9.3779305722 9.8674528369 1.3561754628 
Si 5.3597846811 8.4950304806 2.7217973859 
Si 9.3838676030 7.1098549149 4.1973635974 
Si 5.4234038431 5.6973165100 0.0213508589 
Si 6.7060254920 9.8741726188 4.1729690300 
Si 8.0917471090 8.5103355736 0.0013968465 
Si 6.6766289143 7.0628732832 1.4168072865 
Si 8.0420559697 5.6674236359 2.8028484066 
Si 9.4451018071 9.9234042681 6.8804534044 
Si 5.4186211786 8.4556224911 8.2658882120 
Si 9.4053461319 7.0495641319 9.6623989590 
Si 5.3832481980 5.6354779352 5.4864487644 
Si 6.7469559038 9.9337342813 9.6452632866 
Si 8.0779841373 8.4562786460 5.4883174930 
Si 6.7361426834 7.0372397488 6.9259420304 
Si 8.0859188207 5.6983642472 8.2755823778 

