&CONTROL
   calculation      = 'scf'
   tstress          = .true.
   tprnfor          = .true.
   outdir           = './'
   disk_io          = 'none'
   pseudo_dir       = '/home/ppiaggi/pseudos'
/
&SYSTEM
   ecutwfc          = 30
   input_dft        = 'PBE'
   ntyp             = 1
   nat              = 64
   ibrav            = 0
/
&ELECTRONS
   electron_maxstep = 1000
   mixing_beta      = 0.5
/
&IONS
/
&CELL
/

ATOMIC_SPECIES
Si 28.085 Si_ONCV_PBE_sr.upf

K_POINTS gamma

CELL_PARAMETERS angstrom
11.04843234685948 0.00000000000000 0.00000000000000
0.00000000000000 11.03615491979682 0.00000000000000
0.00000000000000 0.00000000000000 11.04956660193386

ATOMIC_POSITIONS angstrom
Si 0.0093419941 -0.0047578114 0.0067573700 
Si 0.0021322694 2.7758432458 2.7549474224 
Si 2.7410144837 -0.0044115132 2.7712939827 
Si 2.7489044859 2.7749360766 0.0005352455 
Si 1.3699570542 1.3821803231 1.3796090875 
Si 5.5007936415 0.0061687027 0.0098040102 
Si 5.5003570566 2.7616698438 2.7613201104 
Si 6.8653167050 1.3887620306 1.3710354436 
Si 8.2404545596 -0.0033926987 2.7680340876 
Si 8.2459498680 2.7756909148 -0.0009660363 
Si -0.0017214281 5.5378982538 -0.0079393564 
Si 2.7416354887 5.5363307342 2.7630619849 
Si 1.3714821619 6.9240721128 1.3851476539 
Si 4.1167791329 4.1502302032 1.3878807692 
Si 5.4851298282 5.5318874604 0.0074862662 
Si 6.8629164914 6.9245601058 1.3836472278 
Si 9.6056418569 4.1611330325 1.3867307062 
Si 8.2423382264 5.5413668538 2.7523765396 
Si -0.0042066487 8.3024653875 2.7638474143 
Si 2.7473008191 8.3023935687 -0.0047084886 
Si 4.1092595045 9.6901539737 1.3882803795 
Si 5.4952292417 8.3024114298 2.7526754255 
Si 8.2326538515 8.3135053933 0.0083230010 
Si 9.6024019798 9.6863413149 1.3894148923 
Si -0.0046796646 0.0074600032 5.5210793182 
Si 2.7368438655 2.7767744595 5.5203164885 
Si 1.3747682382 1.3853340652 6.9032044787 
Si 4.1268848225 1.3910650217 4.1494365243 
Si 5.4896634602 0.0053783519 5.5176257601 
Si 6.8658664997 1.3866870244 6.9042225942 
Si 9.6094854346 1.3830292940 4.1509513940 
Si 8.2456686874 2.7770280334 5.5312574326 
Si 1.3631662817 4.1543424152 4.1345909311 
Si 0.0072879444 5.5331155699 5.5220783111 
Si 1.3728537006 6.9301040966 6.9102708896 
Si 6.8669345067 4.1508048568 4.1517050058 
Si 4.1205403354 6.9160876609 4.1361434589 
Si 4.1271363017 4.1504863510 6.8992837860 
Si 5.4848711540 5.5419227685 5.5250814632 
Si 6.8611954771 6.9254163367 6.8999865648 
Si 9.6090201461 6.9276375075 4.1436964328 
Si 9.6172718016 4.1624633223 6.8953278200 
Si 1.3714293324 9.6967044404 4.1405705857 
Si 2.7497042401 8.2964713073 5.5290236879 
Si 6.8551880896 9.6972259561 4.1402230388 
Si 4.1083371516 9.6981245016 6.9037525523 
Si 8.2436001488 8.3090207254 5.5245082288 
Si 9.6179211837 9.6946765881 6.9121091706 
Si 0.0033894722 2.7732238975 8.2905150149 
Si 2.7401860297 0.0072389608 8.2921575822 
Si 4.1134695060 1.3744034411 9.6761437988 
Si 5.4948222400 2.7763675720 8.2919380151 
Si 8.2432424183 0.0001480510 8.2864552390 
Si 9.6183484604 1.3886520824 9.6576433573 
Si 1.3716564760 4.1547171837 9.6669586109 
Si 2.7543876305 5.5429646955 8.2895892053 
Si 6.8621261531 4.1434145626 9.6689230157 
Si 4.1190883552 6.9157072850 9.6674892857 
Si 8.2312318371 5.5332288352 8.2930267325 
Si 9.6038732039 6.9296068098 9.6687303275 
Si -0.0051211216 8.3119675246 8.2956849698 
Si 1.3687840481 9.6850251475 9.6682497848 
Si 5.4850160380 8.3028612065 8.2931026439 
Si 6.8635380912 9.6862184550 9.6729149047 

