&CONTROL
   calculation      = 'scf'
   tstress          = .true.
   tprnfor          = .true.
   outdir           = './'
   disk_io          = 'none'
   pseudo_dir       = '/home/ppiaggi/pseudos'
/
&SYSTEM
   ecutwfc          = 30
   input_dft        = 'PBE'
   ntyp             = 1
   nat              = 64
   ibrav            = 0
/
&ELECTRONS
   electron_maxstep = 1000
   mixing_beta      = 0.5
/
&IONS
/
&CELL
/

ATOMIC_SPECIES
Si 28.085 Si_ONCV_PBE_sr.upf

K_POINTS gamma

CELL_PARAMETERS angstrom
11.03664187194753 0.00000000000000 0.00000000000000
0.00000000000000 11.01207732923722 0.00000000000000
0.00000000000000 0.00000000000000 11.01933111994657

ATOMIC_POSITIONS angstrom
Si -0.0065002629 -0.0084308325 -0.0005673631 
Si -0.0025802985 2.7351764052 2.7394934173 
Si 2.7939521807 -0.0095872310 2.7363629459 
Si 2.7830958246 2.7445241565 -0.0088304186 
Si 1.3893869331 1.3782860340 1.3636392677 
Si 5.5665740427 0.0051362917 -0.0056654062 
Si 5.5799564478 2.7402462452 2.7401521995 
Si 6.9617336793 1.3622850226 1.3611570585 
Si 8.3601558813 -0.0068350598 2.7372587193 
Si 8.3650014614 2.7411184172 -0.0019443014 
Si 0.0004356285 5.4754513449 0.0029503440 
Si 2.7839858755 5.4830678527 2.7371633694 
Si 1.3880094492 6.8426723382 1.3619226568 
Si 4.1747421220 4.1040135331 1.3676807083 
Si 5.5744147607 5.4860465549 0.0025188620 
Si 6.9702117141 6.8510991512 1.3593934428 
Si 9.7604785536 4.1021272071 1.3683985306 
Si 8.3597350069 5.4783737437 2.7385143390 
Si 0.0023946854 8.2115983328 2.7319575812 
Si 2.7887788515 8.2232125342 -0.0095766519 
Si 4.1804111900 9.5742126791 1.3776256434 
Si 5.5714603034 8.2134574690 2.7399232704 
Si 8.3662935705 8.2216069099 0.0018901881 
Si 9.7588257329 9.5915720188 1.3711655357 
Si 0.0008808003 0.0053078643 5.4655952595 
Si 2.7927622724 2.7461254844 5.4670865045 
Si 1.4030104722 1.3771452721 6.8359993127 
Si 4.1793342376 1.3601411227 4.0999731652 
Si 5.5646876669 -0.0059653512 5.4761747344 
Si 6.9698836635 1.3627375125 6.8471762986 
Si 9.7570018521 1.3714985983 4.1003228609 
Si 8.3612172854 2.7462673637 5.4787224644 
Si 1.3908365826 4.1056662869 4.1107239087 
Si -0.0054278011 5.4693033996 5.4710332583 
Si 1.3907886606 6.8456992830 6.8439234202 
Si 6.9602990347 4.1053023827 4.1062989039 
Si 4.1831679138 6.8382365929 4.0994629630 
Si 4.1828163829 4.1158287116 6.8353407212 
Si 5.5641766759 5.4670904236 5.4694011389 
Si 6.9728931931 6.8508232444 6.8453383467 
Si 9.7596554674 6.8503385645 4.0956575994 
Si 9.7434516111 4.1017187930 6.8345850777 
Si 1.4008317719 9.5906160760 4.1026226003 
Si 2.7876789243 8.2185681824 5.4758089134 
Si 6.9609693074 9.5924642511 4.0971158809 
Si 4.1767654116 9.5787453964 6.8431761347 
Si 8.3525423036 8.2120718373 5.4726067577 
Si 9.7510404822 9.5900837715 6.8397596770 
Si -0.0099873676 2.7376293358 8.2174948553 
Si 2.7771392744 0.0047960781 8.2165375107 
Si 4.1872818866 1.3741483625 9.5683979309 
Si 5.5659825296 2.7395200688 8.2040602271 
Si 8.3678309810 -0.0008480414 8.2136234418 
Si 9.7464649303 1.3637525104 9.5698629104 
Si 1.3930989848 4.1169994114 9.5780749043 
Si 2.7929378997 5.4837233217 8.2147254644 
Si 6.9583584210 4.1170393636 9.5758425970 
Si 4.1843929465 6.8481013857 9.5867431191 
Si 8.3672107700 5.4737624895 8.2023918799 
Si 9.7583022820 6.8479907082 9.5853382851 
Si -0.0068627048 8.2102490906 8.2010302621 
Si 1.3894436317 9.5911049848 9.5825333646 
Si 5.5702764556 8.2204238113 8.2019551648 
Si 6.9561591335 9.5858636234 9.5691688813 

