&CONTROL
   calculation      = 'scf'
   tstress          = .true.
   tprnfor          = .true.
   outdir           = './'
   disk_io          = 'none'
   pseudo_dir       = '/home/ppiaggi/pseudos'
/
&SYSTEM
   ecutwfc          = 30
   input_dft        = 'PBE'
   ntyp             = 1
   nat              = 64
   ibrav            = 0
/
&ELECTRONS
   electron_maxstep = 1000
   mixing_beta      = 0.5
/
&IONS
/
&CELL
/

ATOMIC_SPECIES
Si 28.085 Si_ONCV_PBE_sr.upf

K_POINTS gamma

CELL_PARAMETERS angstrom
10.99679921690106 0.00000000000000 0.00000000000000
0.00000000000000 11.03845719730602 0.00000000000000
0.00000000000000 0.00000000000000 11.03302308701573

ATOMIC_POSITIONS angstrom
Si 0.0015968128 0.0042248783 -0.0035544466 
Si -0.0069216242 2.7482912149 2.7378515990 
Si 2.7367908349 0.0034871544 2.7478599836 
Si 2.7230551159 2.7484207752 0.0059715573 
Si 1.3717068789 1.3820808815 1.3642454004 
Si 5.4593975200 -0.0057695414 -0.0089562919 
Si 5.4683541515 2.7466761090 2.7462920372 
Si 6.8346943282 1.3782208704 1.3761994116 
Si 8.2052939149 0.0015894496 2.7377759117 
Si 8.2030781583 2.7519560542 0.0012494470 
Si -0.0016327430 5.4881202203 0.0079308380 
Si 2.7406606438 5.4901805629 2.7458540751 
Si 1.3599340493 6.8610480739 1.3766603825 
Si 4.1022913718 4.1163004955 1.3687216606 
Si 5.4690057859 5.4968331163 0.0069165923 
Si 6.8258888374 6.8584417264 1.3744235757 
Si 9.5590138450 4.1267465040 1.3729432588 
Si 8.1959854247 5.4961437605 2.7463105257 
Si 0.0060271690 8.2416848660 2.7319629105 
Si 2.7424437765 8.2475970743 0.0055176573 
Si 4.1079109488 9.6029581190 1.3738507180 
Si 5.4749042467 8.2335413080 2.7442951559 
Si 8.1961084288 8.2323178183 -0.0070136593 
Si 9.5686371836 9.6119029316 1.3749505320 
Si 0.0053830366 -0.0001704577 5.4882632206 
Si 2.7247035928 2.7542489392 5.4750956181 
Si 1.3708373236 1.3725184298 6.8576867817 
Si 4.0891635718 1.3633695212 4.1058275113 
Si 5.4555102041 -0.0012878133 5.4896525737 
Si 6.8289475384 1.3737141624 6.8508948178 
Si 9.5679542147 1.3677783225 4.1073312505 
Si 8.1937812183 2.7512550291 5.4796402079 
Si 1.3661616963 4.1236802569 4.1199751437 
Si 0.0053880311 5.4902414197 5.4825507711 
Si 1.3590931000 6.8737021962 6.8515452554 
Si 6.8409563544 4.1202485110 4.1037351743 
Si 4.0952191685 6.8682432312 4.1133807887 
Si 4.1012827605 4.1182701163 6.8563295342 
Si 5.4627238540 5.4823375516 5.4894010507 
Si 6.8367688520 6.8666627767 6.8482300038 
Si 9.5613075531 6.8638493536 4.1092838992 
Si 9.5661531559 4.1237651627 6.8542785284 
Si 1.3640924613 9.6095378474 4.1207089120 
Si 2.7398411272 8.2379973640 5.4734062162 
Si 6.8390528829 9.6155461615 4.1111501755 
Si 4.0997238119 9.6203722868 6.8453984925 
Si 8.1945037772 8.2470424773 5.4730294161 
Si 9.5590437010 9.6067174757 6.8582193237 
Si -0.0068516334 2.7485355640 8.2193069955 
Si 2.7251740902 -0.0071781303 8.2276576641 
Si 4.0976353398 1.3743322597 9.5858595030 
Si 5.4586030770 2.7550419217 8.2287814200 
Si 8.1957864528 0.0071697989 8.2313949638 
Si 9.5572219236 1.3703011503 9.5955761775 
Si 1.3572824018 4.1180124130 9.5904558987 
Si 2.7358423640 5.5006396271 8.2280718580 
Si 6.8400760480 4.1219125521 9.5988288571 
Si 4.1085460045 6.8569776970 9.6011955091 
Si 8.2039773120 5.4837765274 8.2152900503 
Si 9.5717749864 6.8662672684 9.5936840190 
Si 0.0092836539 8.2362038698 8.2181546962 
Si 1.3644635422 9.6117583201 9.6038178456 
Si 5.4637509044 8.2360796054 8.2143267233 
Si 6.8393182961 9.6192621044 9.6010171458 

