&CONTROL
   calculation      = 'scf'
   tstress          = .true.
   tprnfor          = .true.
   outdir           = './'
   disk_io          = 'none'
   pseudo_dir       = '/home/ppiaggi/pseudos'
/
&SYSTEM
   ecutwfc          = 30
   input_dft        = 'PBE'
   ntyp             = 1
   nat              = 64
   ibrav            = 0
/
&ELECTRONS
   electron_maxstep = 1000
   mixing_beta      = 0.5
/
&IONS
/
&CELL
/

ATOMIC_SPECIES
Si 28.085 Si_ONCV_PBE_sr.upf

K_POINTS gamma

CELL_PARAMETERS angstrom
11.08204618019592 0.00000000000000 0.00000000000000
0.00000000000000 10.96157002317445 0.00000000000000
0.00000000000000 0.00000000000000 11.00276080885680

ATOMIC_POSITIONS angstrom
Si -0.0027218409 -0.0011554175 0.0088858139 
Si 0.0073049393 2.7324422575 2.7379577355 
Si 2.7917931788 -0.0008036845 2.7330198467 
Si 2.7906273548 2.7362616921 -0.0089770136 
Si 1.3925828979 1.3664484594 1.3648626775 
Si 5.5766568018 -0.0065094433 -0.0088812107 
Si 5.5732227532 2.7479818108 2.7374674506 
Si 6.9728282175 1.3739022628 1.3649989058 
Si 8.3577717483 -0.0089830385 2.7220762445 
Si 8.3587522901 2.7429970817 0.0000920926 
Si -0.0078463217 5.4784833164 -0.0051346181 
Si 2.7880695940 5.4773611291 2.7377925443 
Si 1.4020682128 6.8444987107 1.3745666156 
Si 4.1898398404 4.1134925852 1.3709527912 
Si 5.5731234177 5.4769091298 0.0053761938 
Si 6.9812679000 6.8545127969 1.3730751546 
Si 9.7708074115 4.1054251754 1.3655662863 
Si 8.3750757005 5.4693673813 2.7342650338 
Si 0.0055261038 8.2127106819 2.7211704011 
Si 2.7874501445 8.2219062329 0.0055370980 
Si 4.1769250295 9.5814751127 1.3559176564 
Si 5.5868412177 8.2208866844 2.7231370360 
Si 8.3697067325 8.2221639310 -0.0046968227 
Si 9.7578224396 9.5781508985 1.3711896762 
Si -0.0032999353 -0.0003544980 5.4533866881 
Si 2.7865058170 2.7361878414 5.4567139363 
Si 1.3962335492 1.3653644170 6.8324473480 
Si 4.1915272753 1.3702625322 4.0963133724 
Si 5.5839488164 0.0010125643 5.4587869463 
Si 6.9770145705 1.3717669832 6.8317730771 
Si 9.7574548795 1.3635021400 4.0936729583 
Si 8.3627097665 2.7308807186 5.4541709988 
Si 1.4031339429 4.1145038564 4.1028656126 
Si -0.0098795238 5.4732120107 5.4629626404 
Si 1.3991349835 6.8564054665 6.8248812424 
Si 6.9817639963 4.1029425185 4.0895310466 
Si 4.1844165915 6.8562134484 4.1008963637 
Si 4.1867379140 4.1007650954 6.8339045852 
Si 5.5762067943 5.4795880747 5.4632671198 
Si 6.9691582189 6.8478272185 6.8325827454 
Si 9.7553813307 6.8556683495 4.0985920569 
Si 9.7701092047 4.1042257516 6.8268340245 
Si 1.3927166299 9.5868512169 4.0883801055 
Si 2.7990012509 8.2241460063 5.4648198620 
Si 6.9802663097 9.5771183936 4.1006986773 
Si 4.1900549781 9.5852405627 6.8315828258 
Si 8.3599395610 8.2079224653 5.4500833410 
Si 9.7530869763 9.5772287923 6.8261497888 
Si 0.0006305881 2.7306697704 8.1930153497 
Si 2.7868154893 0.0001517553 8.1942926735 
Si 4.1937140227 1.3761003143 9.5510836627 
Si 5.5840507186 2.7353558593 8.1802614270 
Si 8.3663618526 0.0043660296 8.1968076807 
Si 9.7716412171 1.3641862841 9.5620171306 
Si 1.3935922200 4.1004354216 9.5602019991 
Si 2.7865617841 5.4833660997 8.1893879873 
Si 6.9641637182 4.1090975004 9.5600761347 
Si 4.1813773633 6.8389580788 9.5601327264 
Si 8.3674405894 5.4822284915 8.1929305475 
Si 9.7609820161 6.8386428535 9.5547298797 
Si 0.0020759995 8.2133524430 8.1827544992 
Si 1.3856894202 9.5916396659 9.5576816101 
Si 5.5690545121 8.2102377538 8.1880660798 
Si 6.9800028215 9.5793768745 9.5479242723 

