&CONTROL
   calculation      = 'scf'
   tstress          = .true.
   tprnfor          = .true.
   outdir           = './'
   disk_io          = 'none'
   pseudo_dir       = '/home/ppiaggi/pseudos'
/
&SYSTEM
   ecutwfc          = 30
   input_dft        = 'PBE'
   ntyp             = 1
   nat              = 64
   ibrav            = 0
/
&ELECTRONS
   electron_maxstep = 1000
   mixing_beta      = 0.5
/
&IONS
/
&CELL
/

ATOMIC_SPECIES
Si 28.085 Si_ONCV_PBE_sr.upf

K_POINTS gamma

CELL_PARAMETERS angstrom
11.00856656327166 0.00000000000000 0.00000000000000
0.00000000000000 10.99062136731152 0.00000000000000
0.00000000000000 0.00000000000000 10.92789126908274

ATOMIC_POSITIONS angstrom
Si 0.0017850547 -0.0008685155 -0.0081232390 
Si 0.0032842814 2.7297835545 2.7498005138 
Si 2.7449237792 0.0018073383 2.7529175809 
Si 2.7351643146 2.7300561801 -0.0056490745 
Si 1.3814074322 1.3541423608 1.3832607211 
Si 5.4877974544 -0.0030611924 0.0032566915 
Si 5.4920383634 2.7184902602 2.7464271856 
Si 6.8678594117 1.3704420669 1.3702456646 
Si 8.2276309275 0.0040029559 2.7422134146 
Si 8.2220063169 2.7284571347 -0.0023988511 
Si 0.0075609106 5.4415409199 -0.0054988219 
Si 2.7389151282 5.4593161994 2.7577208835 
Si 1.3743412376 6.8188628704 1.3841072729 
Si 4.1059478455 4.0810141506 1.3676219574 
Si 5.4928247615 5.4411704155 -0.0078186852 
Si 6.8510705823 6.8104902382 1.3701919289 
Si 9.5924988063 4.0944190896 1.3643824271 
Si 8.2241447549 5.4429205524 2.7424747483 
Si 0.0028455470 8.1767596349 2.7397532392 
Si 2.7531583367 8.1748841503 -0.0009982482 
Si 4.1228204877 9.5356719647 1.3719544959 
Si 5.4959811102 8.1754518949 2.7533683372 
Si 8.2396222635 8.1775356418 -0.0046902264 
Si 9.5998562008 9.5284785417 1.3666674642 
Si 0.0052463327 0.0024754283 5.4917317902 
Si 2.7423148565 2.7187772343 5.4877257632 
Si 1.3759003944 1.3632832536 6.8737019703 
Si 4.1218050708 1.3583555826 4.1287171442 
Si 5.4951429946 0.0096241556 5.4903799295 
Si 6.8604284723 1.3658802231 6.8717459048 
Si 9.6056633461 1.3622574438 4.1276586402 
Si 8.2276804672 2.7216939883 5.4882169611 
Si 1.3731382811 4.0945488046 4.1205588080 
Si 0.0081679743 5.4537138314 5.5021966739 
Si 1.3775918918 6.8190396608 6.8625265203 
Si 6.8601290776 4.0819599442 4.1129694847 
Si 4.1132277484 6.8047834258 4.1214116177 
Si 4.1060446556 4.0931181718 6.8627477557 
Si 5.4944089929 5.4454171266 5.5024337351 
Si 6.8531469795 6.8164187253 6.8659876323 
Si 9.6048931819 6.8226365873 4.1133181663 
Si 9.5943856887 4.0833514216 6.8774746009 
Si 1.3716577667 9.5403268444 4.1227557230 
Si 2.7418634208 8.1807123720 5.5028031809 
Si 6.8558042380 9.5307591576 4.1201367435 
Si 4.1141219050 9.5284437895 6.8700780714 
Si 8.2311289589 8.1765781680 5.4979506920 
Si 9.6106098210 9.5414866400 6.8804286200 
Si 0.0001144749 2.7273879921 8.2446986989 
Si 2.7371899851 0.0061086832 8.2423185833 
Si 4.1052295114 1.3550983367 9.6172105705 
Si 5.4826847967 2.7157809406 8.2542808427 
Si 8.2297128584 -0.0013793181 8.2408830882 
Si 9.5994636417 1.3580353621 9.6154661908 
Si 1.3793175274 4.0780069063 9.6123310460 
Si 2.7506571041 5.4450698264 8.2416385892 
Si 6.8593001348 4.0884989510 9.6104445359 
Si 4.1235999565 6.8200269534 9.6119640760 
Si 8.2320046733 5.4600035194 8.2430143364 
Si 9.6106224247 6.8163615327 9.6247240154 
Si -0.0066009681 8.1830271217 8.2446959458 
Si 1.3806892392 9.5286488020 9.6258912680 
Si 5.4824250226 8.1766418748 8.2484575974 
Si 6.8579200102 9.5326967352 9.6216752825 

