&CONTROL
   calculation      = 'scf'
   tstress          = .true.
   tprnfor          = .true.
   outdir           = './'
   disk_io          = 'none'
   pseudo_dir       = '/home/ppiaggi/pseudos'
/
&SYSTEM
   ecutwfc          = 30
   input_dft        = 'PBE'
   ntyp             = 1
   nat              = 64
   ibrav            = 0
/
&ELECTRONS
   electron_maxstep = 1000
   mixing_beta      = 0.5
/
&IONS
/
&CELL
/

ATOMIC_SPECIES
Si 28.085 Si_ONCV_PBE_sr.upf

K_POINTS gamma

CELL_PARAMETERS angstrom
10.94526857483738 0.00000000000000 0.00000000000000
0.00000000000000 10.94099809608573 0.00000000000000
0.00000000000000 0.00000000000000 11.00550446802949

ATOMIC_POSITIONS angstrom
Si 0.0005758836 -0.0000098927 0.0066741137 
Si -0.0017852787 2.7390406521 2.7664410585 
Si 2.7255118649 -0.0088940016 2.7722541254 
Si 2.7260899191 2.7497167395 0.0039120391 
Si 1.3544836953 1.3770068574 1.3899304871 
Si 5.4394095865 0.0007249841 -0.0046183968 
Si 5.4431048213 2.7444636486 2.7642406906 
Si 6.8048395697 1.3742416499 1.3845178228 
Si 8.1522496962 -0.0060654187 2.7726326490 
Si 8.1516853565 2.7526037923 0.0023295678 
Si -0.0046481252 5.4928911207 0.0020125406 
Si 2.7239319050 5.4986740715 2.7702168494 
Si 1.3681690573 6.8520854417 1.3756606545 
Si 4.0762169993 4.1211246275 1.3849844861 
Si 5.4285121517 5.4942706545 0.0001542339 
Si 6.8022578565 6.8674180083 1.3772959820 
Si 9.5260351912 4.1219297532 1.3860441497 
Si 8.1616421740 5.4967102468 2.7717493311 
Si -0.0029185061 8.2322344368 2.7648828673 
Si 2.7205467916 8.2398831112 -0.0097811817 
Si 4.0811791099 9.6092141360 1.3762349613 
Si 5.4366027478 8.2361146741 2.7766561016 
Si 8.1591818000 8.2388944273 0.0075605503 
Si 9.5162640039 9.5975940047 1.3842742421 
Si -0.0095468250 -0.0016292966 5.5344063734 
Si 2.7239005444 2.7363344992 5.5388568104 
Si 1.3647741282 1.3801583183 6.9271759871 
Si 4.0877588268 1.3705320599 4.1478632688 
Si 5.4386857511 -0.0055479550 5.5311490822 
Si 6.8048654175 1.3801063681 6.9183814669 
Si 9.5126385277 1.3642326840 4.1477578806 
Si 8.1635446272 2.7502302125 5.5373850948 
Si 1.3639272957 4.1090283321 4.1523148246 
Si -0.0096492686 5.4891859960 5.5458587653 
Si 1.3683543772 6.8622708101 6.9232742771 
Si 6.8040726280 4.1201665972 4.1625239839 
Si 4.0785726993 6.8711115958 4.1623395068 
Si 4.0710735304 4.1220179790 6.9264893035 
Si 5.4294243973 5.4818171667 5.5356327889 
Si 6.8001580333 6.8675212452 6.9224250111 
Si 9.5171836528 6.8592485226 4.1621137154 
Si 9.5172792965 4.1266516401 6.9259128386 
Si 1.3619626515 9.6095266729 4.1471239618 
Si 2.7286648194 8.2430556820 5.5440663533 
Si 6.7967021882 9.6134667393 4.1626600185 
Si 4.0817518243 9.6071215109 6.9242775974 
Si 8.1539369903 8.2304702129 5.5319016525 
Si 9.5161247812 9.6001263238 6.9269343252 
Si -0.0046641340 2.7533601447 8.3193687371 
Si 2.7105757602 0.0068914653 8.3130620625 
Si 4.0712376901 1.3735764966 9.6952141521 
Si 5.4428883642 2.7423286291 8.3061174585 
Si 8.1659191895 0.0002237713 8.3064387475 
Si 9.5223627417 1.3652436260 9.6926493165 
Si 1.3634191780 4.1086655595 9.6971840766 
Si 2.7141260314 5.4864001689 8.3055730741 
Si 6.7964881121 4.1151822335 9.6917607310 
Si 4.0717808025 6.8518885478 9.6973058593 
Si 8.1562953219 5.4793002788 8.3083200296 
Si 9.5235159572 6.8689033085 9.6959496729 
Si 0.0008655379 8.2285843336 8.3080760255 
Si 1.3532084398 9.6113862895 9.6972876301 
Si 5.4281793723 8.2382322780 8.3161710810 
Si 6.8032131972 9.6104338401 9.7043208382 

