&CONTROL
   calculation      = 'scf'
   tstress          = .true.
   tprnfor          = .true.
   outdir           = './'
   disk_io          = 'none'
   pseudo_dir       = '/home/ppiaggi/pseudos'
/
&SYSTEM
   ecutwfc          = 30
   occupations      = 'smearing'
   degauss          = 0.01
   smearing         = 'fermi-dirac'
   input_dft        = 'PBE'
   ntyp             = 1
   nat              = 64
   ibrav            = 0
/
&ELECTRONS
   electron_maxstep = 1000
   mixing_beta      = 0.5
/
&IONS
/
&CELL
/

ATOMIC_SPECIES
Si 28.085 Si_ONCV_PBE_sr.upf

K_POINTS gamma

CELL_PARAMETERS angstrom
11.24895889218059 0.00000000000000 0.00000000000000
0.00000000000000 10.70366421810716 0.00000000000000
0.00000000000000 0.00000000000000 10.87694644690957

ATOMIC_POSITIONS angstrom
Si 0.0100403349 0.0866248200 0.0714815842 
Si -0.0835682623 2.7617461909 2.7244068967 
Si 2.7582540315 -0.0371063706 2.7575870881 
Si 2.6585142007 2.6805264100 0.0247886965 
Si 1.3275474660 1.2839792305 1.4298760706 
Si 5.3774808002 -0.0202791396 -0.0012086492 
Si 5.4366695065 2.7618706713 2.6634889981 
Si 6.8603320690 1.3489984423 1.4092561374 
Si 8.2613364938 0.0064227913 2.7475095567 
Si 8.2211448670 2.6302185519 -0.0699393326 
Si -0.0201544535 5.3837942344 -0.0530407960 
Si 2.7359122530 5.3130906273 2.7785320438 
Si 1.3249884024 6.6259142997 1.3340981643 
Si 4.0676361570 3.9660800196 1.3341915716 
Si 5.3716839355 5.3802518401 -0.0028677942 
Si 6.8667548714 6.7822467234 1.4441684808 
Si 9.4986009669 3.9615989235 1.2669820815 
Si 8.1819053755 5.3549649593 2.7876096800 
Si -0.0218366642 7.9413585883 2.6470460707 
Si 2.6850357899 8.0075965935 -0.0558938318 
Si 4.1644834949 9.4437770122 1.2540718109 
Si 5.5562725814 7.9949960987 2.8024955304 
Si 8.1548437903 7.9502017297 -0.0632537105 
Si 9.6455087250 9.3441818692 1.4500018518 
Si -0.0391810474 -0.0931587202 5.3197883999 
Si 2.7828537301 2.7514695711 5.4490147440 
Si 1.4380368053 1.4231687003 6.7079342159 
Si 4.1413188413 1.3642959569 3.9958518290 
Si 5.4631057519 0.0693044676 5.3290241318 
Si 6.9003854029 1.4134543206 6.7303150816 
Si 9.4917734798 1.3102130101 3.9685334581 
Si 8.1838670682 2.7351789775 5.5004050579 
Si 1.3922977525 3.9274437714 4.0672331785 
Si -0.0114749545 5.4044340833 5.3241029101 
Si 1.4064482228 6.7460038848 6.7659837453 
Si 6.8379650353 3.9952572302 4.0533324910 
Si 4.0389535017 6.7437446191 4.0892355182 
Si 4.1930356345 4.1103174926 6.6965116834 
Si 5.3776254710 5.4497609627 5.3565760827 
Si 6.7978817497 6.6953232558 6.6829963901 
Si 9.5210281673 6.6064602384 4.0283420701 
Si 9.4709976559 4.0091437475 6.7732441333 
Si 1.2791761340 9.4295565484 4.0718455463 
Si 2.6742045242 7.9830537152 5.4132379415 
Si 6.7691449319 9.4470850387 3.9971473785 
Si 4.1270174367 9.2850845390 6.7190938121 
Si 8.2075675125 8.0484344116 5.4161106936 
Si 9.6386423351 9.3170059006 6.7737731444 
Si 0.0837608441 2.7269936999 8.0207981386 
Si 2.8204260229 0.0926453093 8.2080616442 
Si 4.0356810920 1.2887191685 9.4471381739 
Si 5.5311611212 2.6952551484 8.1508949390 
Si 8.1318917187 0.0293256530 8.0292308409 
Si 9.6000218720 1.2876458210 9.4201291921 
Si 1.2751434214 4.0021573597 9.5261258403 
Si 2.7599498947 5.2929088114 8.1120050252 
Si 6.8680503383 3.9796148289 9.3983936196 
Si 4.1015655887 6.7604608313 9.5286882857 
Si 8.2316381146 5.3664660339 8.0791627379 
Si 9.6457180894 6.7445796110 9.5046182471 
Si -0.0771114150 8.1307481265 8.0578292897 
Si 1.2910309467 9.3137481151 9.5412370602 
Si 5.4503239129 8.1216447494 8.1521348590 
Si 6.8268525378 9.3123739579 9.3900838490 

