&CONTROL
   calculation      = 'scf'
   tstress          = .true.
   tprnfor          = .true.
   outdir           = './'
   disk_io          = 'none'
   pseudo_dir       = '/home/ppiaggi/pseudos'
/
&SYSTEM
   ecutwfc          = 30
   occupations      = 'smearing'
   degauss          = 0.01
   smearing         = 'fermi-dirac'
   input_dft        = 'PBE'
   ntyp             = 1
   nat              = 64
   ibrav            = 0
/
&ELECTRONS
   electron_maxstep = 1000
   mixing_beta      = 0.5
/
&IONS
/
&CELL
/

ATOMIC_SPECIES
Si 28.085 Si_ONCV_PBE_sr.upf

K_POINTS gamma

CELL_PARAMETERS angstrom
11.06903268801000 0.00000000000000 0.00000000000000
0.00000000000000 10.77792118226442 0.00000000000000
0.00000000000000 0.00000000000000 11.24066086141653

ATOMIC_POSITIONS angstrom
Si 0.0000898323 0.0402579260 -0.0278154998 
Si -0.0761684853 2.6438580085 2.7801437357 
Si 2.7570168120 0.0577896585 2.8120154969 
Si 2.8360430444 2.5521343450 -0.0572476452 
Si 1.4861228458 1.3030582759 1.4691638318 
Si 5.6493455582 -0.0581389599 -0.0050333430 
Si 5.5982929166 2.6035883732 2.7722561188 
Si 6.9709522504 1.3933847442 1.5034204948 
Si 8.3935690316 0.0565280104 2.8132860815 
Si 8.4586503752 2.5684483414 0.0504624655 
Si 0.0646617014 5.3132162120 -0.0661140443 
Si 2.8223145826 5.3402187750 2.8205122724 
Si 1.4661812825 6.5984033309 1.3302252391 
Si 4.3449090318 3.9304300804 1.4481955244 
Si 5.6496672705 5.3158148135 -0.0350510351 
Si 7.0420326631 6.5435791034 1.3694045332 
Si 9.8808589832 3.8623057375 1.4835182888 
Si 8.4175738695 5.2751786683 2.8092263198 
Si -0.0153717814 7.9399987832 2.7430662148 
Si 2.7620325829 7.9425473399 0.0811197540 
Si 4.2472209595 9.1822196931 1.3933260065 
Si 5.6600764749 7.9111246015 2.7449368593 
Si 8.4074182315 7.8672079650 0.0080459905 
Si 9.9954561833 9.2232236049 1.3820582998 
Si 0.0316912677 0.0214881497 5.5959679162 
Si 2.8775722972 2.5756505058 5.6944543992 
Si 1.3519216462 1.3080667805 7.0105532669 
Si 4.3243566106 1.2717525033 4.2326211120 
Si 5.6001295638 0.0681476856 5.6970450751 
Si 7.0417815248 1.3059425966 6.9548087498 
Si 9.7996806786 1.2892006608 4.1737422123 
Si 8.5549603803 2.7213091516 5.5359169533 
Si 1.3642855638 3.9910009085 4.2125807728 
Si 0.0959553044 5.1861592474 5.5752908597 
Si 1.3581228007 6.4857915044 7.0632457113 
Si 6.9964941432 3.9321470712 4.1956852748 
Si 4.1632997128 6.5053118623 4.1166094415 
Si 4.1421823843 4.0215672590 7.0762752155 
Si 5.6008997856 5.1941436155 5.6406142049 
Si 6.9889173073 6.6703301530 7.0639940068 
Si 9.8412971387 6.5332511282 4.1671776088 
Si 9.8271591323 4.0272965064 6.9870592888 
Si 1.4170738833 9.1422024156 4.2516781559 
Si 2.7349665986 7.9173829322 5.7097565688 
Si 6.9822459721 9.2627672794 4.3088665855 
Si 4.2935142425 9.1253810464 7.1154803410 
Si 8.4324124879 7.9696033244 5.6812287198 
Si 9.9488652464 9.2857156380 6.9381779552 
Si 0.0029608960 2.6180998489 8.3699573305 
Si 2.8984074646 -0.0776586367 8.4362779364 
Si 4.3005186043 1.3550679422 9.9186073194 
Si 5.6588881780 2.5997931530 8.4108244032 
Si 8.4580666536 0.0213701614 8.3530931652 
Si 9.9022893172 1.2938455787 9.7740698169 
Si 1.4960972775 3.9273881831 9.7530489799 
Si 2.7679958820 5.3146109893 8.3405081797 
Si 7.0169343976 4.0025252503 9.7248641822 
Si 4.2747551045 6.4858075852 9.9017791189 
Si 8.4372473085 5.2107666878 8.4363493675 
Si 9.9518458816 6.6001521850 9.7567752548 
Si -0.0638557487 7.8394252027 8.4974116100 
Si 1.3588610652 9.2071950852 9.9087241970 
Si 5.6865648591 7.9160341378 8.3806017119 
Si 7.0957123799 9.2165902281 9.8918497470 

