&CONTROL
   calculation      = 'scf'
   tstress          = .true.
   tprnfor          = .true.
   outdir           = './'
   disk_io          = 'none'
   pseudo_dir       = '/home/ppiaggi/pseudos'
/
&SYSTEM
   ecutwfc          = 30
   occupations      = 'smearing'
   degauss          = 0.01
   smearing         = 'fermi-dirac'
   input_dft        = 'PBE'
   ntyp             = 1
   nat              = 64
   ibrav            = 0
/
&ELECTRONS
   electron_maxstep = 1000
   mixing_beta      = 0.5
/
&IONS
/
&CELL
/

ATOMIC_SPECIES
Si 28.085 Si_ONCV_PBE_sr.upf

K_POINTS gamma

CELL_PARAMETERS angstrom
11.19538541041798 0.00000000000000 0.00000000000000
0.00000000000000 11.29948996504588 0.00000000000000
0.00000000000000 0.00000000000000 10.82186238431230

ATOMIC_POSITIONS angstrom
Si 0.0457253145 -0.0799572229 0.0259264438 
Si 0.0041604566 2.8366582859 2.6871852979 
Si 2.8604854483 -0.0531155133 2.7891684658 
Si 2.9336789952 2.8531074922 0.0155277029 
Si 1.3891573661 1.3117054826 1.4862314251 
Si 5.6804305576 -0.0739175410 0.0028514206 
Si 5.6705716885 2.7661903557 2.8635098503 
Si 7.0497064865 1.4702113798 1.4782306133 
Si 8.6397478373 -0.0686361843 2.7397289209 
Si 8.5086646219 2.8875666771 0.0455850033 
Si -0.0712337870 5.6564066384 -0.0955883580 
Si 2.8400829696 5.7182215845 2.7529479288 
Si 1.3671218386 7.1335763385 1.3617213674 
Si 4.2828250529 4.2638578346 1.2991346126 
Si 5.6413851221 5.6061114265 0.0350364294 
Si 7.0636040408 7.0115078787 1.4586966655 
Si 10.0346032408 4.3389956394 1.3204588939 
Si 8.6552442624 5.6990786718 2.7984086393 
Si -0.0662527794 8.5000659315 2.7811427657 
Si 2.9457375935 8.5579026298 0.0259315087 
Si 4.3416344369 9.9735279328 1.4247540711 
Si 5.6488699442 8.4160891713 2.7991940990 
Si 8.5417590014 8.5090984250 0.0261895429 
Si 10.0877733597 9.8544529774 1.2993573509 
Si 0.0337133417 0.0821467239 5.5542273469 
Si 2.8154638785 2.8823346454 5.4900463818 
Si 1.4123367852 1.4194650679 6.9037127239 
Si 4.2245013320 1.4581756013 4.0802584426 
Si 5.7756934364 -0.0665427812 5.6483437057 
Si 7.1200121338 1.3680022486 6.8517087356 
Si 9.9842750594 1.3140849706 4.1466512458 
Si 8.5780868923 2.7623081668 5.4955908529 
Si 1.4585461766 4.2040477828 4.1601181489 
Si -0.0646840353 5.5860227264 5.5697149739 
Si 1.4832385134 7.0411974113 6.8800911675 
Si 7.0577280015 4.3244482615 4.2243864681 
Si 4.3832856725 7.1500595797 4.2131161161 
Si 4.3024365018 4.1905114152 6.9191609322 
Si 5.6413258262 5.6991636616 5.6082858194 
Si 7.0715645173 7.1379023658 6.9594937295 
Si 10.0312706723 7.0019824073 4.1293588631 
Si 10.0776021440 4.1767293179 6.8737698608 
Si 1.4115416801 9.9156894932 4.0827004312 
Si 2.9613289318 8.5437691666 5.5916886009 
Si 7.0861055734 9.9454831073 4.2620298901 
Si 4.1922390260 9.7971706084 7.0408982224 
Si 8.6427912994 8.5849322246 5.6352764090 
Si 10.0865060703 9.8080259232 6.8545837383 
Si -0.0760814649 2.8013379623 8.2756344639 
Si 2.7918153546 -0.0905398183 8.2740860816 
Si 4.3562570384 1.4165776389 9.7812571850 
Si 5.6699259212 2.7332540558 8.4290710130 
Si 8.6185861800 0.0890407668 8.4194742724 
Si 9.9802598663 1.4112773156 9.8036933754 
Si 1.4727939703 4.3405881283 9.7797169511 
Si 2.9455522155 5.5709177386 8.2551083629 
Si 7.0655042341 4.2305804018 9.7536685571 
Si 4.1847164156 7.0223815297 9.7056150333 
Si 8.6570316923 5.6548097867 8.2874250847 
Si 10.0146360257 7.1669002226 9.6542069634 
Si 0.0209364364 8.5485082359 8.3143949431 
Si 1.5190245665 9.8644838923 9.7572828417 
Si 5.7895008603 8.4351353718 8.3436505874 
Si 7.1714215493 9.9321549805 9.7036527823 

