&CONTROL
   calculation      = 'scf'
   tstress          = .true.
   tprnfor          = .true.
   outdir           = './'
   disk_io          = 'none'
   pseudo_dir       = '/home/ppiaggi/pseudos'
/
&SYSTEM
   ecutwfc          = 30
   occupations      = 'smearing'
   degauss          = 0.01
   smearing         = 'fermi-dirac'
   input_dft        = 'PBE'
   ntyp             = 1
   nat              = 64
   ibrav            = 0
/
&ELECTRONS
   electron_maxstep = 100
   mixing_beta      = 0.5
/
&IONS
/
&CELL
/

ATOMIC_SPECIES
Si 28.085 Si_ONCV_PBE_sr.upf

K_POINTS gamma

CELL_PARAMETERS angstrom
10.71420681537813 0.00000000000000 0.00000000000000
0.00000000000000 10.71420681537813 0.00000000000000
0.00000000000000 0.00000000000000 10.71420681537813

ATOMIC_POSITIONS angstrom
Si 7.1799006990 0.1626309453 7.5197124823 
Si 9.2942958430 9.4559625096 5.5384627865 
Si 10.5681186055 8.1284079999 4.0294310417 
Si 8.9889838056 5.9692596141 5.4552133995 
Si 1.7417443167 0.6732164710 1.8146116373 
Si 5.0761554766 8.5250157936 10.4526087418 
Si 3.9007319895 9.0806438449 4.0787056789 
Si 4.8385893689 4.0239025110 0.8210693108 
Si 3.7121405211 0.3924924668 9.5050014342 
Si 10.6830284735 9.7481817863 8.4329593287 
Si 10.6083933089 7.2693428975 8.4070523766 
Si 9.3576275194 7.2153968662 2.3516719681 
Si 7.9650699170 0.9165168222 0.1311022489 
Si 9.5354404958 2.7814080893 5.6573154827 
Si 8.1455721593 4.4743706224 8.4029595496 
Si 2.7393655417 10.5115583077 5.7239257064 
Si 4.3976997584 0.6319271322 2.6033058294 
Si 9.0169585995 4.7051332088 2.4099465390 
Si 5.1310765007 9.5756616281 7.9914268658 
Si 7.2618000959 3.8264503936 1.0405026949 
Si 5.5769696457 0.6566137362 5.6707618122 
Si 10.2529602120 1.5519314288 9.0640046817 
Si 2.9812280464 8.7403820648 2.1130130113 
Si 2.3923645256 2.0037388160 6.3070999834 
Si 3.8944856069 4.5123739140 3.3282397767 
Si 0.8067176308 5.7212685831 6.1692831411 
Si 10.3697236379 10.5810827957 0.0437592849 
Si 7.2394502605 9.7955171520 4.0666843388 
Si 5.6003801876 0.2275386816 0.5065548412 
Si 9.7793601281 0.6351338943 6.9302382518 
Si 4.2721078261 4.7838719147 9.2647139179 
Si 2.2435549071 3.1012271627 4.2131796886 
Si 2.4191607568 9.2990850934 8.3380850273 
Si 6.6842829201 2.3065973000 8.7581569339 
Si 10.0494224251 4.7165866959 9.8141063008 
Si 6.2868501325 6.1966043685 9.9184733894 
Si 4.1729156994 2.4430641522 7.7137574820 
Si 8.7601283480 8.3786597285 9.3073243185 
Si 7.6236402884 4.0941555651 5.7839145504 
Si 10.5213725211 1.8247258485 3.5855843102 
Si 1.2678228067 10.0855078737 3.8003398716 
Si 9.5330083708 2.8581110959 0.1705155300 
Si 2.6671839304 2.5898702140 0.2500395873 
Si 1.3212759845 4.4436315630 0.9907812754 
Si 2.7874616161 6.2332469558 1.7384121984 
Si 3.4503174492 6.8902099751 5.0501628108 
Si 8.3522813513 6.5387839916 0.2725683500 
Si 0.3597648507 3.8327717757 7.7003325808 
Si 8.2934174991 0.6380278016 2.7455904959 
Si 6.2571074944 7.0062662633 4.0719343002 
Si 2.0688490508 5.4299064430 8.5800225314 
Si 0.3834657476 4.0666629104 2.9936779547 
Si 4.5671020824 2.3434541715 4.0388059727 
Si 2.2132872729 9.5016371733 10.6709535625 
Si 7.8339708824 2.8987286539 3.7062798500 
Si 1.7488264074 2.1972373911 8.9075344053 
Si 5.7450326939 8.3552920435 2.1609483726 
Si 6.2329898148 7.2591001158 7.2674143403 
Si 3.8601251457 6.3000821779 7.3782313813 
Si 8.4042773970 7.7074896710 7.1472116540 
Si 3.2913721911 7.0452124051 9.8715773062 
Si 1.6378379390 8.4082630820 5.9774559823 
Si 8.5476549126 9.3962843776 1.1982126050 
Si 6.0198306703 5.3939602791 2.3792074796 

