&CONTROL
   calculation      = 'scf'
   tstress          = .true.
   tprnfor          = .true.
   outdir           = './'
   disk_io          = 'none'
   pseudo_dir       = '/home/ppiaggi/pseudos'
/
&SYSTEM
   ecutwfc          = 30
   occupations      = 'smearing'
   degauss          = 0.01
   smearing         = 'fermi-dirac'
   input_dft        = 'PBE'
   ntyp             = 1
   nat              = 64
   ibrav            = 0
/
&ELECTRONS
   electron_maxstep = 100
   mixing_beta      = 0.5
/
&IONS
/
&CELL
/

ATOMIC_SPECIES
Si 28.085 Si_ONCV_PBE_sr.upf

K_POINTS gamma

CELL_PARAMETERS angstrom
10.80766058250212 0.00000000000000 0.00000000000000
0.00000000000000 10.80766058250212 0.00000000000000
0.00000000000000 0.00000000000000 10.80766058250212

ATOMIC_POSITIONS angstrom
Si 6.8047408713 0.1128643995 7.2731232656 
Si 9.2468722795 9.9836305014 4.9069048653 
Si 0.1217861233 8.2771441261 4.0413733676 
Si 9.6314304583 5.6347791902 4.7885393666 
Si 1.8008372522 0.8894553352 1.9025157230 
Si 5.5714571069 8.5369927094 10.7349898727 
Si 4.7610230628 9.1206604192 5.3709533878 
Si 4.6030474881 3.7361326097 0.2372692189 
Si 4.1870498246 10.3928841847 9.5521994986 
Si 0.3765907715 9.5363554682 7.7243214796 
Si 10.1821023803 7.1968644125 8.4052905576 
Si 9.3768452056 7.1975885258 2.4953699442 
Si 7.7835474596 1.4489722466 0.7089403843 
Si 9.3201914489 2.8046527671 5.9608571177 
Si 8.1478304672 3.8692721805 8.1428805586 
Si 2.7926994945 0.0892318285 5.9804189833 
Si 4.9796944594 0.0310016663 2.5852032190 
Si 8.5978614538 4.9617969734 2.8773342845 
Si 5.4013121063 9.1111172549 7.6753843925 
Si 6.7547554411 3.6061272606 1.0641849454 
Si 5.9597223133 0.8960934003 5.1125098002 
Si 0.2761260010 1.0107237715 9.2269753763 
Si 3.0457068288 8.8713384972 2.3805493582 
Si 2.0829712317 2.2484581306 6.4940746678 
Si 3.6591388358 4.9135839996 3.8060905967 
Si 0.4845971275 6.1457869979 6.4211661895 
Si 10.7934268935 0.1007672769 0.7252588710 
Si 7.0415907529 9.7365349575 4.1321793318 
Si 5.6820735129 0.2209701860 0.4080983444 
Si 9.8573321798 0.4337362768 6.9056628058 
Si 4.4735176760 4.9488385884 8.6839877010 
Si 2.2528352331 2.9912470271 4.1958364526 
Si 2.9076713878 9.3537600426 7.8859068130 
Si 6.8316951768 1.4518903150 9.3356247882 
Si 10.6097290866 5.7401214579 9.9705964627 
Si 6.4895462580 5.9572041284 9.1923800548 
Si 4.5112147961 2.1004580265 8.8799954333 
Si 8.9255497227 8.8841671903 9.0880753225 
Si 7.0532846417 4.6386803450 5.9566961683 
Si 0.0200856049 1.2786867465 3.8947674518 
Si 1.5694344315 10.2146658617 3.9353826402 
Si 9.5153777990 3.3237555126 0.7334499970 
Si 2.5402757740 3.0426914915 0.7400707699 
Si 1.1936520730 4.9857899799 0.7885917621 
Si 2.8509960157 6.5850211316 1.7479445613 
Si 3.3614742480 6.8555692990 5.2376084715 
Si 7.9794146923 6.3991726003 0.1899889461 
Si 0.4539379560 3.9202086848 6.6936165052 
Si 8.7712379449 0.7513431599 2.7660261882 
Si 5.8220975635 6.8755310481 4.6215069723 
Si 1.8339519242 5.5037471133 8.4616525075 
Si 10.7026533523 3.7525386385 2.6925773269 
Si 4.5615244561 2.3729731881 3.9166421568 
Si 1.8295856294 9.1576010031 0.4730253653 
Si 7.2369176026 2.6929447873 4.4431373421 
Si 2.0490135622 2.4776994192 9.0274983850 
Si 5.5898625529 8.3621571842 2.5860570242 
Si 6.8657284999 7.1476679416 6.7837848174 
Si 3.7326201201 7.1421128040 7.5663783278 
Si 8.9870777344 8.0593157270 6.6470679110 
Si 2.7949799109 7.6347908193 10.1926074264 
Si 1.7460748360 8.3481396484 5.8094093699 
Si 8.8660211282 9.6721753387 1.1570032960 
Si 5.4554260629 5.4514920744 2.0876941794 

