&CONTROL
   calculation      = 'scf'
   tstress          = .true.
   tprnfor          = .true.
   outdir           = './'
   disk_io          = 'none'
   pseudo_dir       = '/home/ppiaggi/pseudos'
/
&SYSTEM
   ecutwfc          = 30
   occupations      = 'smearing'
   degauss          = 0.01
   smearing         = 'fermi-dirac'
   input_dft        = 'PBE'
   ntyp             = 1
   nat              = 64
   ibrav            = 0
/
&ELECTRONS
   electron_maxstep = 100
   mixing_beta      = 0.5
/
&IONS
/
&CELL
/

ATOMIC_SPECIES
Si 28.085 Si_ONCV_PBE_sr.upf

K_POINTS gamma

CELL_PARAMETERS angstrom
11.00448778819879 0.00000000000000 0.00000000000000
0.00000000000000 11.00448778819879 0.00000000000000
0.00000000000000 0.00000000000000 11.00448778819879

ATOMIC_POSITIONS angstrom
Si 6.6679933035 10.9628798199 8.0839517516 
Si 8.8076728955 0.1925609291 4.9445914754 
Si 0.0978749048 9.0918968061 3.2595402874 
Si 0.4691290176 6.6834986267 3.5268723092 
Si 2.8446050708 1.7809773081 2.3245329779 
Si 6.0562758363 8.1252736033 0.1815201265 
Si 5.7710725263 9.4902592641 5.7784455331 
Si 4.4553429529 3.9290753334 10.2673191602 
Si 4.8409842229 9.6439479405 9.8736226051 
Si 0.6072452433 9.2836059879 7.7218160675 
Si 10.3431400811 7.9808617100 9.9005175733 
Si 9.1497804119 7.7390380909 2.8512077635 
Si 8.1975620836 2.7069719420 2.2017889212 
Si 8.7132103724 3.0427848914 5.8192941918 
Si 8.2982421423 3.0116091775 9.0128075524 
Si 3.1948008857 0.4285741787 6.2362432296 
Si 4.8707293534 0.3545722997 2.5610414295 
Si 8.9933296090 5.3601429433 2.5446887606 
Si 6.7407329677 7.7974939300 8.6426495967 
Si 5.6302480961 4.0416182300 1.6283120490 
Si 5.7496247796 1.0813262804 5.8502388114 
Si 0.0730558232 0.3137379468 8.9421587408 
Si 4.0359289098 8.9801022147 2.8171488738 
Si 3.1357508042 2.6952851760 6.9248710619 
Si 4.3483463181 5.1062474010 4.2447280611 
Si 0.3710724287 5.6737598408 6.2116702083 
Si 0.6275518246 10.9833481672 0.3770984862 
Si 6.8732159962 9.5012637518 2.9077598262 
Si 6.3066609469 10.4114999592 0.4911379931 
Si 8.8180391230 1.2966477916 7.2622686575 
Si 3.4461213778 4.5787912969 8.0379639972 
Si 2.9720700529 3.0618556687 4.4199745291 
Si 2.9509304318 9.5044550533 7.8039095464 
Si 8.2060905616 1.1367635885 10.5155143778 
Si 10.6393808924 5.5646393399 10.4108727034 
Si 6.4578736136 5.1978597619 10.1440688970 
Si 3.9725320556 1.0815958903 10.5536009101 
Si 8.7918154286 10.0358727731 9.0693926286 
Si 7.7274393608 5.1287955965 5.4055804734 
Si 10.8496766540 0.9358040343 4.0568814545 
Si 1.9312766023 10.8251146373 3.9894239444 
Si 8.6521134562 4.3456062006 10.5542831883 
Si 2.0619218814 3.1989715866 0.3895830776 
Si 0.9180923112 4.8436142955 1.5532174244 
Si 2.0316265265 7.1949321967 2.1399877177 
Si 3.4259831651 6.8584809871 5.5360936985 
Si 8.3653805223 7.2212219180 0.2089730222 
Si 10.7858616293 3.6699306504 4.9463521935 
Si 9.2647112823 0.3375175445 2.0738507461 
Si 5.7989909118 7.0312954633 5.0182555167 
Si 1.5399900301 5.9432487422 8.8017744901 
Si 10.1439368432 2.9918671264 3.0063270233 
Si 4.9814014871 2.4410154812 3.0674019306 
Si 1.8920566079 9.6555026527 1.6222265673 
Si 6.8407307483 2.7757940087 4.3652492113 
Si 2.2297293156 1.9586777769 9.0922159363 
Si 5.8249945164 7.3261937270 2.3526274353 
Si 7.9116214729 7.2422845077 6.4250032086 
Si 3.3976025911 7.1267703993 7.8060003991 
Si 10.1114736042 8.6499895900 5.9606248284 
Si 2.8637968975 8.1836854245 10.3973812014 
Si 1.4251802090 8.2592862556 5.5018257236 
Si 8.5852721973 9.6206294309 0.7332037110 
Si 3.8086972414 5.5748515045 1.9865741535 

