&CONTROL
   calculation      = 'scf'
   tstress          = .true.
   tprnfor          = .true.
   outdir           = './'
   disk_io          = 'none'
   pseudo_dir       = '/home/ppiaggi/pseudos'
/
&SYSTEM
   ecutwfc          = 30
   occupations      = 'smearing'
   degauss          = 0.01
   smearing         = 'fermi-dirac'
   input_dft        = 'PBE'
   ntyp             = 1
   nat              = 64
   ibrav            = 0
/
&ELECTRONS
   electron_maxstep = 100
   mixing_beta      = 0.5
/
&IONS
/
&CELL
/

ATOMIC_SPECIES
Si 28.085 Si_ONCV_PBE_sr.upf

K_POINTS gamma

CELL_PARAMETERS angstrom
10.92309639798583 0.00000000000000 0.00000000000000
0.00000000000000 10.92309639798583 0.00000000000000
0.00000000000000 0.00000000000000 10.92309639798583

ATOMIC_POSITIONS angstrom
Si 7.0505638013 8.2272434377 5.6887922965 
Si 6.7618991328 3.2631002794 3.8570327229 
Si 0.1166062387 9.8820816189 4.2105368916 
Si 8.6937470386 5.7818789240 3.1140983214 
Si 3.6009844202 2.6389873205 4.5814415529 
Si 2.1475025980 8.7420489709 10.6512314517 
Si 7.8065076106 10.4961234829 4.9277146318 
Si 2.6301177662 0.5615345396 10.1716092120 
Si 6.5854037412 10.3448822902 8.6093770421 
Si 1.0746437160 9.4482053068 8.7899358255 
Si 9.9444088069 10.6941810668 6.5242453245 
Si 10.6458572883 9.0196485428 1.5094736143 
Si 7.8451316795 4.1133977954 1.1804917970 
Si 9.0082557532 1.9190678831 6.6250327349 
Si 9.9302415509 3.6696360811 8.2757747550 
Si 3.4787440484 9.8200712006 5.6997590852 
Si 6.3811527616 1.0283592796 2.6883706393 
Si 7.8021383721 5.2326874833 9.5475727148 
Si 9.0832100407 7.4922501272 7.4626157667 
Si 5.1346308469 1.5575898540 9.4545188566 
Si 4.3974747634 1.0459498341 6.4980845086 
Si 9.7929819216 10.3539266140 9.2044454876 
Si 3.9312333167 9.4785387455 3.4589077054 
Si 3.9575798252 4.6595307691 9.1128007089 
Si 3.7824607438 5.6559028532 3.1107121615 
Si 0.7269517269 3.3847071116 2.3348773936 
Si 10.4553366409 1.0514091976 10.4181653439 
Si 9.1081365467 0.1089038172 3.0281990913 
Si 5.8908586567 8.2236388159 1.1360347947 
Si 6.6198333410 1.1575642177 7.2103250092 
Si 2.3345060084 5.6840298264 10.7479554703 
Si 1.2488922267 4.3696864061 4.5008400246 
Si 4.5433745620 7.8538373873 7.1540710628 
Si 7.3305227620 1.3398925428 0.1105941664 
Si 10.0981076963 7.6101758760 10.5293078497 
Si 5.9533606143 3.6754690146 9.0094682169 
Si 4.8227327523 9.9771890192 10.4325510618 
Si 8.5786394488 10.4109014848 0.5900285289 
Si 4.2448135681 4.8133279664 5.3672928002 
Si 0.3703672449 1.9874683127 5.9444036753 
Si 1.2525405409 9.6722489371 6.4164343630 
Si 0.5389925456 4.8793908534 9.7841014442 
Si 0.8334846860 0.3616648140 1.3983966471 
Si 10.8336580847 7.6534204146 3.3314024011 
Si 2.2734131302 7.5800062837 2.3299401541 
Si 2.9193722819 6.0925208624 7.1437705829 
Si 4.4489116243 6.7796710106 0.0857453236 
Si 1.4420016479 3.8114506416 7.5672481071 
Si 9.4795436704 2.4836390435 0.9490728921 
Si 6.2848001283 9.5900526367 3.1277521919 
Si 1.4025911161 6.9475699254 8.8387183740 
Si 1.5257053356 1.7038719609 3.7104338461 
Si 4.9739957913 2.8293331983 2.3906944162 
Si 2.6003195592 9.8651289733 1.6395458462 
Si 5.8879531131 2.9796896202 6.0349342982 
Si 1.0088178602 2.2871434624 9.2626874376 
Si 6.2039582919 7.1983096032 3.6261730805 
Si 9.2033531780 5.2379851850 6.5230656300 
Si 5.7588093444 6.7332369278 9.1168094852 
Si 9.5292109897 7.4681865459 5.1987712689 
Si 7.2994793220 8.5991639469 9.9632948406 
Si 0.4751197394 6.4195037531 6.7651542155 
Si 8.0429380322 6.7134770465 0.7231898125 
Si 5.2084054400 4.8133061202 1.2616176340 

