&CONTROL
   calculation      = 'scf'
   tstress          = .true.
   tprnfor          = .true.
   outdir           = './'
   disk_io          = 'none'
   pseudo_dir       = '/home/ppiaggi/pseudos'
/
&SYSTEM
   ecutwfc          = 30
   occupations      = 'smearing'
   degauss          = 0.01
   smearing         = 'fermi-dirac'
   input_dft        = 'PBE'
   ntyp             = 1
   nat              = 64
   ibrav            = 0
/
&ELECTRONS
   electron_maxstep = 100
   mixing_beta      = 0.5
/
&IONS
/
&CELL
/

ATOMIC_SPECIES
Si 28.085 Si_ONCV_PBE_sr.upf

K_POINTS gamma

CELL_PARAMETERS angstrom
11.03404484427095 0.00000000000000 0.00000000000000
0.00000000000000 11.03404484427095 0.00000000000000
0.00000000000000 0.00000000000000 11.03404484427095

ATOMIC_POSITIONS angstrom
Si 6.9292698218 10.0488260142 8.3570090203 
Si 8.5089367838 0.0100758484 5.1156590409 
Si 0.3119467920 9.6818667848 3.3348855776 
Si 0.3001833968 6.5991312000 3.8786102053 
Si 2.8971098484 1.6710950576 2.5537745090 
Si 5.7810781493 7.4548765479 10.9889707711 
Si 6.7251510262 9.6878472371 6.1182454576 
Si 4.0638056140 3.3590391017 9.9612046641 
Si 4.7605393417 10.3404668534 9.4227874118 
Si 0.5883242371 9.3195970245 7.4729172112 
Si 0.3740254317 8.4177073010 9.6996315970 
Si 9.0755129185 8.1676096406 3.0711608717 
Si 7.8216040624 3.0257999134 2.0121794518 
Si 8.8991006095 3.4432178298 6.2744544305 
Si 7.9032228921 2.6480824903 8.8364603369 
Si 3.2006674561 10.7398992768 6.5463112273 
Si 4.9116616198 10.9455959408 2.0324710603 
Si 9.4888041021 5.6806462731 1.9627910671 
Si 6.6794369784 6.9032074078 8.7578758695 
Si 4.8281449344 4.3140136149 1.0147448307 
Si 5.7052963293 0.8684720152 6.5216391031 
Si 0.3521559548 0.1853333342 9.1372704675 
Si 4.0091870920 8.8246980451 2.8517157879 
Si 3.1816888989 2.2250261769 6.8957042573 
Si 4.1576280973 5.0838258215 4.3836274038 
Si 0.7456597859 5.6373817833 5.9563980878 
Si 0.4077587136 0.2046451195 0.5699768273 
Si 7.2915175140 9.9481513890 2.6678444646 
Si 6.3165603456 10.9718128313 0.1498688107 
Si 8.3888863759 0.8414617768 7.3377280938 
Si 3.0805839460 4.7255393514 8.3174188674 
Si 3.0825369720 2.9385868229 4.5730819538 
Si 3.0532415829 9.3313262141 8.1710191604 
Si 8.3146824243 1.2617981982 11.0193254284 
Si 10.9259994772 6.1667621528 10.4089882719 
Si 6.3812860527 4.9962817098 10.5983214474 
Si 3.7411701428 0.8458555335 0.0122258320 
Si 9.2318542999 9.8864379762 9.0671822146 
Si 6.9072679363 5.4385482952 5.4112169661 
Si 10.7216158645 0.9380008420 4.1443541414 
Si 1.9369603681 11.0082031112 4.2817500678 
Si 8.7760710095 4.6066033820 10.7896297169 
Si 1.8960240618 2.5878697076 0.2990524072 
Si 0.6413152374 5.0781212204 1.6485856061 
Si 2.3124158121 7.4345959735 1.4195078011 
Si 3.6488372555 7.4510918705 5.4424764152 
Si 8.1362177830 6.6965618160 0.5569147250 
Si 0.2760011841 3.2572610721 5.2241678379 
Si 9.7487882668 0.7745910515 1.8421779229 
Si 6.0062388684 7.5263109542 5.3246659184 
Si 1.1676557276 6.3130294512 8.0622124442 
Si 10.8534506323 2.8696130086 2.2222566316 
Si 5.1875568771 2.3679060236 3.2260898954 
Si 2.1115410257 9.9349877735 1.4063441856 
Si 7.1458460540 3.2871743676 4.4495668558 
Si 2.1543641537 1.6229976561 9.1985094163 
Si 5.5158748815 7.1395566484 2.6558394238 
Si 8.2147360461 7.4337684201 6.1316628561 
Si 3.7079797359 7.1959957878 7.9525781747 
Si 9.8256403891 9.2060898051 6.0265966811 
Si 2.3757291614 8.4932353380 10.4189078782 
Si 1.2876509652 8.3413737788 5.4497368167 
Si 8.6881627742 9.3806263265 0.2883383497 
Si 3.0963626302 5.4010656449 2.3281944962 

