&CONTROL
   calculation      = 'scf'
   tstress          = .true.
   tprnfor          = .true.
   outdir           = './'
   disk_io          = 'none'
   pseudo_dir       = '/home/ppiaggi/pseudos'
/
&SYSTEM
   ecutwfc          = 30
   occupations      = 'smearing'
   degauss          = 0.01
   smearing         = 'fermi-dirac'
   input_dft        = 'PBE'
   ntyp             = 1
   nat              = 64
   ibrav            = 0
/
&ELECTRONS
   electron_maxstep = 100
   mixing_beta      = 0.5
/
&IONS
/
&CELL
/

ATOMIC_SPECIES
Si 28.085 Si_ONCV_PBE_sr.upf

K_POINTS gamma

CELL_PARAMETERS angstrom
10.70760759895963 0.00000000000000 0.00000000000000
0.00000000000000 10.70760759895963 0.00000000000000
0.00000000000000 0.00000000000000 10.70760759895963

ATOMIC_POSITIONS angstrom
Si 7.2289414574 0.1979311972 7.5956556025 
Si 9.2447877868 9.4261746596 5.6114074231 
Si 10.5647895288 8.2111610101 4.1368734883 
Si 8.9715617637 6.1085830591 5.5633302650 
Si 1.7448581963 0.6492397254 1.7586388873 
Si 5.0506393055 8.4764526960 10.4071735449 
Si 3.9168000293 9.1007383418 3.9890656730 
Si 4.8121594691 3.9594484303 0.8513244036 
Si 3.6179828240 0.5639878952 9.4683733411 
Si 10.5751223701 9.7575322843 8.5583337713 
Si 10.6425160524 7.2540829201 8.4366203957 
Si 9.4019540512 7.0920018638 2.3633938568 
Si 7.9829604769 0.8790164183 0.0917290762 
Si 9.6236978969 2.7888713524 5.7112130335 
Si 8.1519372325 4.4015548405 8.4169398129 
Si 2.7642866854 10.4862171042 5.6915752812 
Si 4.3304242032 0.6927715040 2.5696009640 
Si 9.1062848825 4.7556447162 2.4402530642 
Si 5.1303467365 9.6584012532 8.0329757120 
Si 7.2804343424 3.8206778359 1.0427186064 
Si 5.5154458438 0.6138907004 5.6672797195 
Si 10.1666806783 1.6684594161 9.0147134223 
Si 2.8867388859 8.6293466249 2.0206433376 
Si 2.4459602190 2.0397028791 6.3539800101 
Si 3.9517389529 4.5626615044 3.2608519878 
Si 0.7736856824 5.5965238485 6.1272035887 
Si 10.4106642250 10.5670381264 10.7060978263 
Si 7.2553357102 9.7294997676 4.1397752499 
Si 5.4936451547 0.2091163641 0.5930665451 
Si 9.6188366431 0.5815226734 6.8854414057 
Si 4.3572788831 4.7862470587 9.3557507244 
Si 2.2617144151 3.1327675857 4.2820793549 
Si 2.4119742725 9.2481606832 8.3463980941 
Si 6.7551405288 2.4448680431 8.6955624703 
Si 10.1178111572 4.5984998671 9.7237711976 
Si 6.1415731981 6.3080872039 9.9366598518 
Si 4.1846187105 2.4216325346 7.5823781691 
Si 8.7102104774 8.3110308662 9.2375922745 
Si 7.7334196818 4.0307075589 5.7578232494 
Si 10.4854889869 1.8333672807 3.5236166782 
Si 1.1338713991 10.0577521862 3.7191054702 
Si 9.5703525959 2.8275151082 0.0962910524 
Si 2.7309860257 2.6189309122 0.1475883093 
Si 1.3081805432 4.4204216451 0.9466060498 
Si 2.7484715489 6.2158304568 1.7086450674 
Si 3.4720167172 6.8708362289 5.0616681414 
Si 8.3864552541 6.5737001180 0.2687705876 
Si 0.3318180519 3.8447699530 7.7728986311 
Si 8.3438603911 0.6588979874 2.6857142608 
Si 6.3158180966 7.0654577046 4.1118926397 
Si 1.9501551568 5.4768984564 8.5411694763 
Si 0.3657376112 4.1254698862 3.0241924446 
Si 4.6142721731 2.3112478078 4.0297759970 
Si 2.2625603161 9.5160329025 10.6110678088 
Si 7.8322187772 2.9658252756 3.5889544998 
Si 1.7119215953 2.1507621851 8.9441074578 
Si 5.8392438976 8.3532937934 2.1097199252 
Si 6.1535121806 7.2290164107 7.3246460541 
Si 3.7979027545 6.1447319424 7.3507297863 
Si 8.4779196382 7.5937710635 7.1809178373 
Si 3.3570063040 7.0342557361 9.9130281619 
Si 1.6062375083 8.3289982317 6.0114329354 
Si 8.4555621535 9.4523654677 1.3052680739 
Si 6.1002418328 5.4193664808 2.4329611834 

