&CONTROL
   calculation      = 'scf'
   tstress          = .true.
   tprnfor          = .true.
   outdir           = './'
   disk_io          = 'none'
   pseudo_dir       = '/home/ppiaggi/pseudos'
/
&SYSTEM
   ecutwfc          = 30
   occupations      = 'smearing'
   degauss          = 0.01
   smearing         = 'fermi-dirac'
   input_dft        = 'PBE'
   ntyp             = 1
   nat              = 64
   ibrav            = 0
/
&ELECTRONS
   electron_maxstep = 100
   mixing_beta      = 0.5
/
&IONS
/
&CELL
/

ATOMIC_SPECIES
Si 28.085 Si_ONCV_PBE_sr.upf

K_POINTS gamma

CELL_PARAMETERS angstrom
10.77867344684091 0.00000000000000 0.00000000000000
0.00000000000000 10.77867344684091 0.00000000000000
0.00000000000000 0.00000000000000 10.77867344684091

ATOMIC_POSITIONS angstrom
Si 6.9223658904 0.1751555992 7.3432191951 
Si 9.2636446645 9.7907325747 5.0537211683 
Si 0.1115366350 8.1184752828 4.0160367182 
Si 9.4205390352 5.6636647413 4.8788910850 
Si 1.6907858316 0.7046600881 1.8673836173 
Si 5.4622652280 8.6461775774 10.6726867508 
Si 4.4850599146 9.1478817117 5.0294044810 
Si 4.6398847800 3.8896891081 0.3394753981 
Si 4.1337290536 10.4462914938 9.5253724131 
Si 0.3450609067 9.5621708043 7.8140963233 
Si 10.3268961280 7.2006712388 8.3265575737 
Si 9.2679669126 7.2793986697 2.3280102271 
Si 7.7662066772 1.3154616435 0.4546724705 
Si 9.3432020532 2.6603814015 5.8235663619 
Si 7.9568921892 4.2684085783 8.1966206653 
Si 2.8007197298 10.6958608987 6.0760244514 
Si 4.8231761220 0.0238869416 2.5380003432 
Si 8.6894755087 4.8921704107 2.7401220276 
Si 5.2197342967 9.1380515615 7.7702594584 
Si 6.9143357787 3.6079884776 0.9935544052 
Si 5.8773411637 0.7782342351 5.1660780603 
Si 0.1054618824 1.1025828429 9.3222914267 
Si 3.1072328666 8.9300878360 2.2066962574 
Si 2.0300984717 2.2323063855 6.4528684324 
Si 3.7183620937 4.9895557253 3.7565509337 
Si 0.6447435981 6.3360599483 6.4040949351 
Si 0.0360265303 10.7172242295 0.6519782437 
Si 6.9680998019 9.8837525266 4.2048682983 
Si 5.7475012634 0.2326684450 0.2943030555 
Si 9.9801138672 0.6238825535 6.8629430637 
Si 4.5396862316 4.7612310857 8.8672805058 
Si 2.2134652643 2.9123436720 4.2336796925 
Si 2.8783477359 9.4886386940 7.9767465057 
Si 6.6003853572 1.6247017847 9.1704091392 
Si 10.3575614539 5.6311239262 10.0166643488 
Si 6.4772282344 5.7890530495 9.3469206956 
Si 4.4860515526 2.2602231498 8.6343641513 
Si 8.9575303386 8.7251421391 9.2933614672 
Si 7.0935743394 4.4657014171 6.0938092626 
Si 10.7433086193 1.3668651371 3.8283368988 
Si 1.5490354971 10.2671283837 3.8731761804 
Si 9.3863706404 3.0376888655 0.6341363056 
Si 2.5785928274 2.8139020474 0.7911621761 
Si 1.2011969263 4.8949405298 0.7238913972 
Si 2.8802124464 6.5133367905 1.8130267671 
Si 3.3798901901 6.7056498821 5.0307949299 
Si 8.1601671917 6.4235827767 0.2597498621 
Si 0.4822809647 3.7822688485 6.9878463316 
Si 8.6299341165 0.8090881879 2.7878715510 
Si 5.9204019641 6.8757589064 4.3827918609 
Si 1.9083102404 5.3833761170 8.4923982434 
Si 0.0823485262 3.8207487127 2.8554538335 
Si 4.5774223674 2.3011174368 4.1152328500 
Si 1.7931508933 9.3386750104 0.3971348338 
Si 7.4801406839 2.6743397836 4.2492656543 
Si 2.1039539421 2.4262362782 8.7660903195 
Si 5.4482313951 8.4667342219 2.4949718788 
Si 6.6249822900 7.3522732808 6.9442681549 
Si 3.9349164219 7.0607640575 7.4075139823 
Si 8.7465701419 8.0514966060 6.7262479271 
Si 2.8550442439 7.5446079298 10.1178006418 
Si 1.6619528801 8.3287348657 5.8814478383 
Si 8.8992931660 9.4677065102 1.0502006457 
Si 5.5890439850 5.4453427107 2.1987092604 

