&CONTROL
   calculation      = 'scf'
   tstress          = .true.
   tprnfor          = .true.
   outdir           = './'
   disk_io          = 'none'
   pseudo_dir       = '/home/ppiaggi/pseudos'
/
&SYSTEM
   ecutwfc          = 30
   occupations      = 'smearing'
   degauss          = 0.01
   smearing         = 'fermi-dirac'
   input_dft        = 'PBE'
   ntyp             = 1
   nat              = 64
   ibrav            = 0
/
&ELECTRONS
   electron_maxstep = 100
   mixing_beta      = 0.5
/
&IONS
/
&CELL
/

ATOMIC_SPECIES
Si 28.085 Si_ONCV_PBE_sr.upf

K_POINTS gamma

CELL_PARAMETERS angstrom
10.70307035852267 0.00000000000000 0.00000000000000
0.00000000000000 10.70307035852267 0.00000000000000
0.00000000000000 0.00000000000000 10.70307035852267

ATOMIC_POSITIONS angstrom
Si 7.2634139343 0.2650208658 7.6703018571 
Si 9.1602227663 9.3723897301 5.6800980331 
Si 10.5600131201 8.2722104248 4.2524047749 
Si 8.9722982570 6.2200037143 5.6407535465 
Si 1.7542011226 0.6309524195 1.6890194241 
Si 5.0679038148 8.4671882576 10.3726023581 
Si 3.9627903941 9.1397799020 3.9156112600 
Si 4.7801410651 3.8832879875 0.8838788157 
Si 3.5415175448 0.7412357861 9.4336005894 
Si 10.4892230128 9.7617139143 8.6572533810 
Si 0.0069581731 7.2173051072 8.4520113038 
Si 9.4539043139 6.9967897486 2.3557136767 
Si 7.9722354719 0.8599349770 0.0484688541 
Si 9.7514710760 2.7523480580 5.7767467585 
Si 8.1299345106 4.3283965745 8.4096271452 
Si 2.7836117266 10.4554334196 5.6478175729 
Si 4.2387690633 0.6942129168 2.5123638145 
Si 9.1257267706 4.8273737146 2.4554127771 
Si 5.1321543461 9.7258693317 8.0740323741 
Si 7.3138789111 3.8060118195 1.0517479119 
Si 5.4645167900 0.5543269982 5.6685922325 
Si 10.0794880733 1.7424598544 8.9237598329 
Si 2.7729193593 8.5012668336 1.9146936626 
Si 2.4377098987 2.0642262586 6.3821873394 
Si 4.0073472760 4.6358208644 3.1929720586 
Si 0.7237062975 5.4930832848 6.0805427075 
Si 10.4779526797 10.5469553743 0.0040261312 
Si 7.2641524462 9.6690681373 4.2273167780 
Si 5.3880754615 0.1708445497 0.6542369490 
Si 9.4466904445 0.5477510317 6.8598760726 
Si 4.4468367511 4.7577395388 9.4330868421 
Si 2.2781057135 3.1832643738 4.3458104700 
Si 2.4113589395 9.1980046047 8.3082262566 
Si 6.8169567605 2.5641987842 8.6310094525 
Si 10.2021131504 4.5959412242 9.6540303235 
Si 6.0228424552 6.4369014351 9.9386142612 
Si 4.2901438010 2.4099782434 7.5082680749 
Si 8.6394541750 8.2677365414 9.2448733498 
Si 7.8335343831 3.9971472500 5.7510165773 
Si 10.4483907993 1.8184623570 3.4636955202 
Si 1.0188295487 10.0730448249 3.6293790494 
Si 9.5600787719 2.7585772450 0.1181651077 
Si 2.8124243920 2.6614468815 0.1073539363 
Si 1.2912291111 4.4085197592 0.8672537365 
Si 2.7057682958 6.2013482627 1.6765289410 
Si 3.5003214270 6.8486806610 5.0697768521 
Si 8.4182645229 6.6028632441 0.2539581722 
Si 0.3077378899 3.8349422187 7.7912679583 
Si 8.4045967021 0.7108326445 2.6544363704 
Si 6.3785911078 7.1435181402 4.1806406882 
Si 1.8093754502 5.5385927399 8.5105999109 
Si 0.4210973190 4.1414139353 3.0968691898 
Si 4.6739773102 2.3101078939 4.0555217957 
Si 2.2840673237 9.5462611080 10.5919296759 
Si 7.8213756952 3.0223544140 3.4556254052 
Si 1.6892441885 2.0984225684 8.9182905640 
Si 5.9355375103 8.3665579900 2.0578472286 
Si 6.0386401871 7.2054675114 7.3943874063 
Si 3.7802388261 5.9966734482 7.2893260677 
Si 8.5510896261 7.4971154756 7.1789238969 
Si 3.3813353938 7.0134865384 9.9756254785 
Si 1.5742289945 8.2299011877 6.0515480899 
Si 8.3822379881 9.4703549331 1.4087595267 
Si 6.1745370714 5.4538244227 2.4863660566 

