&CONTROL
   calculation      = 'scf'
   tstress          = .true.
   tprnfor          = .true.
   outdir           = './'
   disk_io          = 'none'
   pseudo_dir       = '/home/ppiaggi/pseudos'
/
&SYSTEM
   ecutwfc          = 30
   occupations      = 'smearing'
   degauss          = 0.01
   smearing         = 'fermi-dirac'
   input_dft        = 'PBE'
   ntyp             = 1
   nat              = 64
   ibrav            = 0
/
&ELECTRONS
   electron_maxstep = 100
   mixing_beta      = 0.5
/
&IONS
/
&CELL
/

ATOMIC_SPECIES
Si 28.085 Si_ONCV_PBE_sr.upf

K_POINTS gamma

CELL_PARAMETERS angstrom
10.95179794784153 0.00000000000000 0.00000000000000
0.00000000000000 10.95179794784153 0.00000000000000
0.00000000000000 0.00000000000000 10.95179794784153

ATOMIC_POSITIONS angstrom
Si 6.6281376360 0.3442730540 7.4902631705 
Si 9.0624923321 10.7368579613 5.1460965305 
Si 10.7092265751 8.8840656399 3.7137327805 
Si 10.7103546103 5.9061732117 3.6421299255 
Si 2.4690280884 1.6012733298 2.3307068803 
Si 6.2387355082 8.0748372895 0.0830310561 
Si 5.4060484066 9.5205293776 5.6363428139 
Si 4.5776982170 4.0589772590 10.7802818402 
Si 4.5457408706 9.8092735305 9.7384811086 
Si 0.3890845257 9.2549701810 7.7262087055 
Si 9.9904491240 7.7245878394 9.2739386950 
Si 9.0457032258 7.4334890499 2.3490073346 
Si 7.8421225349 2.2066449131 1.3103716727 
Si 8.7738138900 2.8217745485 5.8197087669 
Si 8.3256334625 2.8948558962 8.5488420565 
Si 3.5598052604 0.4704049110 6.0842603981 
Si 5.0117398733 0.0289808668 2.7604116246 
Si 8.4255905224 4.9900772170 3.1003554329 
Si 6.7984928531 8.3669655480 8.6912263816 
Si 6.5605540909 4.0489016049 1.2860258258 
Si 5.6516424756 0.8677668056 5.5817700047 
Si 10.9135214140 0.6516056936 8.7579337829 
Si 3.9095180724 8.9462499486 2.8170214681 
Si 2.8612557801 2.6687231721 6.6111842528 
Si 4.0099132042 4.9448900986 4.1559444781 
Si 0.2913868217 6.1703962890 6.4201958484 
Si 0.2966842064 0.2961300454 0.2588961228 
Si 6.9016478380 9.3577309011 3.3206398968 
Si 6.2118050370 10.8624969874 0.7147953774 
Si 9.1671805686 0.8700612072 7.3497735064 
Si 3.8944264949 4.6369693475 8.4771953943 
Si 2.6201190928 3.2054926932 4.3592317516 
Si 3.0125439169 9.7992416836 7.6464139056 
Si 7.8322659168 1.0006274472 10.4449158834 
Si 10.8645778290 5.3980207387 10.6074843722 
Si 6.7545104325 5.9748957438 9.5858568524 
Si 4.2771699295 1.3912835559 10.0132617191 
Si 8.1962708252 10.0504649767 9.0719875409 
Si 7.8300755572 5.0779215883 5.1777472266 
Si 10.9054061317 1.2097903603 3.9688001547 
Si 1.8885280381 10.5651009141 3.7039747285 
Si 8.4190961062 4.4006733550 0.2884933567 
Si 2.4435870617 3.3125903253 0.2429579712 
Si 1.1113994075 5.0577812319 1.6457923884 
Si 2.2853335814 7.0172878725 1.9482043851 
Si 3.3866354312 6.6256406261 5.5330783110 
Si 8.2171997111 7.0039157272 0.3807403508 
Si 0.1399125043 3.7947651335 5.4566128577 
Si 9.1440175160 0.5177878648 2.4502895621 
Si 5.6746960103 6.6779354613 4.6830983205 
Si 1.6404698146 5.6235182585 8.7856527835 
Si 10.3869042097 3.4084076055 2.9461103106 
Si 4.7443407746 2.6404784852 3.2022838164 
Si 1.8754077842 9.3336150421 1.5213909155 
Si 6.7510715680 2.5786446340 4.5287436802 
Si 1.9021739784 2.1657180442 9.1299992146 
Si 5.6878162642 7.3171481003 2.3904708417 
Si 7.8615838799 7.1696273819 6.6702034919 
Si 3.3625305239 7.3136216214 8.0124777520 
Si 9.8062727379 8.4737565298 5.8270574233 
Si 3.1439654923 7.6769365665 10.2408181769 
Si 1.5144365238 8.3293023148 5.7086794393 
Si 8.7515926919 9.4651789908 0.9675135909 
Si 4.5316459067 5.5035632155 1.6328583150 

