&CONTROL
   calculation      = 'scf'
   tstress          = .true.
   tprnfor          = .true.
   outdir           = './'
   disk_io          = 'none'
   pseudo_dir       = '/home/ppiaggi/pseudos'
/
&SYSTEM
   ecutwfc          = 30
   occupations      = 'smearing'
   degauss          = 0.01
   smearing         = 'fermi-dirac'
   input_dft        = 'PBE'
   ntyp             = 1
   nat              = 64
   ibrav            = 0
/
&ELECTRONS
   electron_maxstep = 100
   mixing_beta      = 0.5
/
&IONS
/
&CELL
/

ATOMIC_SPECIES
Si 28.085 Si_ONCV_PBE_sr.upf

K_POINTS gamma

CELL_PARAMETERS angstrom
10.86352419711009 0.00000000000000 0.00000000000000
0.00000000000000 10.86352419711009 0.00000000000000
0.00000000000000 0.00000000000000 10.86352419711009

ATOMIC_POSITIONS angstrom
Si 6.9822151355 8.1262963228 5.3525126895 
Si 6.4322600865 3.3763507299 2.4781436857 
Si 10.2913206506 10.5078306878 4.2234014386 
Si 8.2835349720 5.2341654569 2.4666392136 
Si 4.0808176835 2.4831626339 4.8400911167 
Si 1.9816697664 7.1182481855 10.7575070645 
Si 8.3898128292 0.3749252061 5.8154617732 
Si 3.7156294541 10.6794417796 10.6253414291 
Si 7.4025900678 9.2681504876 7.5986658161 
Si 0.7463425803 10.1227622092 9.8433523668 
Si 10.8505205586 0.7386316509 6.5463053636 
Si 0.4128171785 8.5853671283 1.1013549466 
Si 7.5179281042 4.7916180717 10.4140241564 
Si 8.5537759999 2.5831831012 6.8864423062 
Si 9.8392785452 3.1922683124 8.9222884678 
Si 3.2185254504 9.0883048445 6.3031688285 
Si 5.6750941770 0.6153534646 2.6815849034 
Si 7.7048024475 4.7713250085 8.1908473836 
Si 8.9026146254 7.2928141558 7.1829513356 
Si 5.8557002668 0.9688069152 9.4203375981 
Si 3.7043205254 0.4855278324 6.4785278361 
Si 8.6626936935 0.4740353101 8.1155305703 
Si 3.4594132359 8.9548355863 4.0150824986 
Si 3.9433615118 4.0799920557 10.4850390141 
Si 3.4622160251 4.4042356624 2.6239647710 
Si 0.6055665157 2.7780747253 2.0280570147 
Si 10.2879746851 0.8827134859 9.9632422198 
Si 8.1266548191 0.2277776845 3.2595787083 
Si 6.8558071679 8.2599502610 1.6939384645 
Si 5.9344064996 1.7828564101 6.8589901805 
Si 0.4737007136 5.7603185244 2.3717680568 
Si 0.2549440995 3.7675896903 4.6721844867 
Si 5.2783256828 8.0187691603 6.9052253395 
Si 6.5366476905 2.4758406186 0.2628038593 
Si 10.3802168691 8.0116318249 8.9989089039 
Si 5.1747419796 3.3426629414 8.4622833992 
Si 5.2658760841 9.3433152115 9.0171270340 
Si 8.8244298418 0.7286915262 0.8405086944 
Si 4.2096482170 5.5094580236 4.6816466163 
Si 0.7021432458 2.9572142393 7.0994542886 
Si 0.9713478935 9.8113810151 7.3102392486 
Si 10.8001355334 4.3198478064 10.7173120249 
Si 1.7737527768 1.2531944243 0.6986886451 
Si 9.9967887826 8.6143292838 3.2714851308 
Si 2.3463800008 7.1916421550 2.7538599299 
Si 4.1744938527 5.8952434949 7.0401285830 
Si 4.1613272613 7.0062778416 9.8303813189 
Si 2.8920982753 3.8541937052 7.6189371522 
Si 8.7899164254 3.0827422614 1.4641423372 
Si 5.6937359846 9.4431401354 3.8490009407 
Si 0.7385621243 5.9024242844 9.0451331994 
Si 1.7051496215 1.1323159906 3.2314530441 
Si 4.2934711697 2.4209363673 2.0109469641 
Si 2.4312349883 9.7223327073 1.8461038480 
Si 6.1909812141 3.6929029615 5.2321339779 
Si 1.8650172436 2.7459404207 9.5171859163 
Si 5.7096510475 7.0180430383 3.6287973052 
Si 9.8830585477 5.2385869113 6.1769455409 
Si 6.5123351234 6.7119632440 9.5712536762 
Si 8.6407928288 6.8158293989 4.6078832870 
Si 8.5257263805 8.7668640271 10.4777604529 
Si 1.3786464018 5.3213343751 6.6497587045 
Si 9.4117662775 7.0540664845 1.5876823344 
Si 4.4615733431 5.7111719409 0.9327400149 

