&CONTROL
   calculation      = 'scf'
   tstress          = .true.
   tprnfor          = .true.
   outdir           = './'
   disk_io          = 'none'
   pseudo_dir       = '/home/ppiaggi/pseudos'
/
&SYSTEM
   ecutwfc          = 30
   occupations      = 'smearing'
   degauss          = 0.01
   smearing         = 'fermi-dirac'
   input_dft        = 'PBE'
   ntyp             = 1
   nat              = 64
   ibrav            = 0
/
&ELECTRONS
   electron_maxstep = 100
   mixing_beta      = 0.5
/
&IONS
/
&CELL
/

ATOMIC_SPECIES
Si 28.085 Si_ONCV_PBE_sr.upf

K_POINTS gamma

CELL_PARAMETERS angstrom
10.68823098944593 0.00000000000000 0.00000000000000
0.00000000000000 10.68823098944593 0.00000000000000
0.00000000000000 0.00000000000000 10.68823098944593

ATOMIC_POSITIONS angstrom
Si 0.6219118213 1.7124683691 5.6395488875 
Si 3.3893021761 2.4534620472 5.1938282788 
Si 6.8900291603 8.9931523721 0.4468214965 
Si 9.2388854908 3.4549706673 7.2662014500 
Si 1.0448322957 9.0533591773 2.7510972155 
Si 2.0460480583 6.3705597578 2.1048653934 
Si 10.6203393462 8.2339245720 6.6760721524 
Si 6.4686884065 1.3533651843 8.4336662328 
Si 8.6550515612 5.5038511069 8.5592850116 
Si 9.6639564373 8.8174912958 4.1795044697 
Si 9.5456804731 3.1236034420 9.9622970289 
Si 0.8582638796 10.2769371727 7.5447046849 
Si 1.3533972490 2.8904503712 1.9294287700 
Si 9.3440149308 2.9901181251 2.9227715817 
Si 0.6192055612 1.6962436345 8.5639237038 
Si 7.2166721876 3.4709388844 6.1328107477 
Si 4.9499976652 2.5383372895 2.9508602527 
Si 6.9322690492 5.0057261016 4.1415719379 
Si 2.0371020090 4.2971818928 4.0027852585 
Si 4.5819804958 10.6235351273 7.0241985240 
Si 10.2075171125 10.4362452556 1.0923692718 
Si 9.7914777212 7.4841986093 1.4781075282 
Si 3.0904806141 9.8337282983 8.7241189099 
Si 0.5953675996 5.3515865682 9.1712076122 
Si 9.0192209675 6.1287171552 3.6413841040 
Si 6.9845131223 8.9851789518 3.7256180525 
Si 6.6534665439 1.8455261567 1.0614450131 
Si 5.2254654425 8.1966226459 7.1174212746 
Si 7.8137167707 6.5898181283 10.6872049193 
Si 10.4254608306 4.2723424440 4.7303972713 
Si 1.5358560403 1.3845748188 0.1108369554 
Si 5.3594958591 6.1578105199 1.2636161087 
Si 3.2590019521 7.4261935797 8.7589411665 
Si 5.9844687898 6.9931278365 4.7861898371 
Si 9.4582614319 0.2823071763 4.1038638589 
Si 7.7649998138 0.0464002828 1.9443174758 
Si 7.4565374675 4.4472980971 1.7807447887 
Si 10.6552150439 5.7741992215 6.5540125545 
Si 3.8856208704 3.6458945375 8.8974178872 
Si 4.8009930370 5.6652433948 9.5497420009 
Si 4.7881885363 8.8436453971 2.1608289709 
Si 1.8932918610 3.6252341870 7.9425847717 
Si 6.9177544315 2.1040103350 4.2550916392 
Si 3.7758741146 5.1203787554 5.7609458151 
Si 2.4718564927 10.4497231149 5.5816828049 
Si 2.8928124702 10.1293006381 0.7401129678 
Si 10.4156810992 4.8368734284 1.2026931921 
Si 1.2101215126 0.8843324750 3.3819272968 
Si 6.1294439549 5.7507599309 7.5825730873 
Si 10.5123027074 8.9640055662 9.8914233692 
Si 6.7258365559 10.6113398557 5.7748298271 
Si 3.8337508854 7.0798307663 3.7580888982 
Si 8.9062998071 0.6570782389 6.8433964085 
Si 8.8926402479 8.1729375260 8.2836996638 
Si 6.9309864615 3.6466534019 9.6473148616 
Si 1.6320073662 7.0373343598 10.5090214204 
Si 4.1762659357 4.6161721467 2.3246367990 
Si 2.0481643280 8.3237912182 4.8838909565 
Si 5.1088354660 2.9247061515 7.0312955093 
Si 2.2841070271 6.2440645440 7.1043816328 
Si 4.0486912106 2.7353748277 0.1542675132 
Si 4.8085068634 0.5550077706 10.3107654238 
Si 7.1518053137 9.5656140239 8.4433711465 
Si 3.7314217619 0.2435473754 3.0406520813 

