&CONTROL
   calculation      = 'scf'
   tstress          = .true.
   tprnfor          = .true.
   outdir           = './'
   disk_io          = 'none'
   pseudo_dir       = '/home/ppiaggi/pseudos'
/
&SYSTEM
   ecutwfc          = 30
   occupations      = 'smearing'
   degauss          = 0.01
   smearing         = 'fermi-dirac'
   input_dft        = 'PBE'
   ntyp             = 1
   nat              = 64
   ibrav            = 0
/
&ELECTRONS
   electron_maxstep = 100
   mixing_beta      = 0.5
/
&IONS
/
&CELL
/

ATOMIC_SPECIES
Si 28.085 Si_ONCV_PBE_sr.upf

K_POINTS gamma

CELL_PARAMETERS angstrom
10.84073569533889 0.00000000000000 0.00000000000000
0.00000000000000 10.84073569533889 0.00000000000000
0.00000000000000 0.00000000000000 10.84073569533889

ATOMIC_POSITIONS angstrom
Si 6.4299764037 4.8400632659 2.4674056479 
Si 4.9011724930 9.6374465554 8.6662575666 
Si 0.0806041221 2.9066397361 9.1693327473 
Si 0.1050193018 2.8053005388 6.0246954997 
Si 3.6975798124 9.1268695856 6.7416258735 
Si 8.4865398503 10.0576226302 10.4527891277 
Si 0.0380046923 7.0492859525 3.3412990338 
Si 0.8712699278 5.3026808210 7.4940162937 
Si 2.8197187173 2.6955055677 7.8167883583 
Si 3.8823926746 6.6056180034 7.3629843213 
Si 6.1173729492 6.3738539150 7.4236165561 
Si 0.8176006976 5.2346118415 10.6425345246 
Si 6.8843983626 3.6339013310 6.8767448032 
Si 3.3186744184 4.8095682764 9.1876102277 
Si 5.9368963813 9.5509158030 4.1501805277 
Si 10.1553518625 7.2958476452 0.7537975477 
Si 1.8714470438 10.4946668897 6.4205558044 
Si 0.7495067845 1.2745561364 7.7323498679 
Si 8.8168245447 4.8907437053 6.5795785563 
Si 1.5432112484 3.1504478819 3.8996728073 
Si 6.9839596792 0.9324962349 7.4939946122 
Si 10.4688876203 9.9059173749 1.2691791315 
Si 1.4038644318 9.0923960461 3.0625186747 
Si 3.6297493292 0.7215994786 1.8768890931 
Si 2.6359574065 9.4719735657 0.7720262448 
Si 5.5241678920 1.0179971173 3.4461939924 
Si 4.3716675987 1.0256354997 5.8241744116 
Si 2.1724509111 5.8142768199 4.2473352010 
Si 10.6880656145 1.6669582464 0.8192311443 
Si 3.3994270586 3.3767157173 5.6057877910 
Si 3.7495936623 0.9073142899 9.1400736017 
Si 10.5610121922 9.8007080349 8.7724100506 
Si 2.0150325881 0.5265020105 4.1855430076 
Si 10.6328645884 4.4272263691 2.0380257885 
Si 8.7250251948 9.6060192626 5.0665153938 
Si 1.7047165288 7.2394541381 6.0979680323 
Si 9.0491523514 6.7151853191 4.8691055968 
Si 5.9643884871 7.3360559339 1.6499599728 
Si 3.7508403469 7.6312274854 9.8905343709 
Si 8.9162232503 1.2763014949 5.8398392747 
Si 9.5048535171 5.8313835008 8.8694671572 
Si 3.3697668057 7.1042268010 2.0497879867 
Si 5.4102642820 3.9049088826 0.4449417355 
Si 5.5566684176 3.7069136859 4.7012259638 
Si 8.3894610621 3.4145824071 10.2945469088 
Si 7.4924985907 1.5016912307 9.7570957552 
Si 1.1622461146 7.9734261483 9.7335388366 
Si 1.6932795527 0.4438403168 10.1003676510 
Si 3.8238635426 8.6060806428 4.2310957789 
Si 8.7144121146 10.4509678841 2.9601821297 
Si 3.0393520225 4.8038985716 0.7300617569 
Si 10.6892147325 8.8673315323 6.4799738767 
Si 6.6727546796 8.2484339315 9.9886755512 
Si 4.7783144354 6.2230484408 4.9278732250 
Si 8.1207192242 7.9154065309 7.9510075069 
Si 7.8230217813 1.7711160350 3.6793998987 
Si 6.5787655011 4.6462742746 9.5454845945 
Si 6.6176945830 9.4617832742 6.7146974860 
Si 8.5138801857 3.4438849157 1.7938165355 
Si 6.6902949900 10.0541210725 1.4480512705 
Si 6.8929842253 7.3146237994 3.9253436694 
Si 5.4054618361 1.1632651438 0.0194912092 
Si 2.0873511359 2.4598821774 1.2704366569 
Si 7.8507632239 6.3393370126 0.3098694210 

