&CONTROL
   calculation      = 'scf'
   tstress          = .true.
   tprnfor          = .true.
   outdir           = './'
   disk_io          = 'none'
   pseudo_dir       = '/home/ppiaggi/pseudos'
/
&SYSTEM
   ecutwfc          = 30
   occupations      = 'smearing'
   degauss          = 0.01
   smearing         = 'fermi-dirac'
   input_dft        = 'PBE'
   ntyp             = 1
   nat              = 64
   ibrav            = 0
/
&ELECTRONS
   electron_maxstep = 100
   mixing_beta      = 0.5
/
&IONS
/
&CELL
/

ATOMIC_SPECIES
Si 28.085 Si_ONCV_PBE_sr.upf

K_POINTS gamma

CELL_PARAMETERS angstrom
10.71116698709186 0.00000000000000 0.00000000000000
0.00000000000000 10.71116698709186 0.00000000000000
0.00000000000000 0.00000000000000 10.71116698709186

ATOMIC_POSITIONS angstrom
Si 7.6268007638 7.3291267221 10.5337579283 
Si 3.5917756258 10.4285421350 2.3036506839 
Si 5.1221657426 5.6917748918 3.1564416659 
Si 6.9291931691 2.8385556521 5.0919388293 
Si 2.5759178376 6.7586392572 8.1865020836 
Si 1.9465725101 3.3558728841 8.1276656433 
Si 8.3582663574 1.3147207695 8.7795258438 
Si 3.0881686875 4.3548070284 3.4025307275 
Si 9.4811608373 4.9601057860 7.7961121804 
Si 4.2875623221 3.6909931656 0.9916794710 
Si 9.4689715293 9.4744342244 0.0643512988 
Si 8.1126914319 7.2965326409 5.8589654973 
Si 5.3943257845 0.9439248041 1.2607471990 
Si 0.3277649232 4.8965885658 5.6715307862 
Si 4.1603565030 3.6672036637 9.0562167094 
Si 7.1075340995 10.0478779714 1.6486092668 
Si 2.4814025001 8.1862021709 3.6050360505 
Si 1.4355320219 9.8109469577 9.0212233269 
Si 8.5041952964 7.2324691512 8.2928746829 
Si 8.8913611383 9.7324769483 5.0452595636 
Si 10.0305687256 9.1126645594 8.2667715690 
Si 9.7442699432 0.4542038227 6.9689423098 
Si 2.6742035058 5.2054771994 6.0584716936 
Si 0.4916479203 5.1334767349 2.8960853300 
Si 0.5946700666 4.4407641435 9.5568994991 
Si 4.9261728090 5.7678348885 8.2209063519 
Si 5.1359403033 0.3878727789 9.9289625955 
Si 0.3255680628 9.7458016400 3.3801015438 
Si 6.8458924235 4.1086108552 3.1110156067 
Si 5.9629066617 8.4976400622 5.3496816405 
Si 1.7248620646 6.9523185786 1.3851359813 
Si 9.0027679862 1.3647097858 0.2761778007 
Si 4.0756418833 7.0168640709 4.9603092982 
Si 8.3784140625 6.2597880771 3.4929543992 
Si 6.5051594904 5.1453018633 10.3580198115 
Si 9.3407588604 4.2944924471 1.1538711749 
Si 9.5491660365 6.6200474675 1.0533436593 
Si 6.6642524537 7.8973648419 2.8612633261 
Si 7.0824913910 10.0104317316 9.4520800189 
Si 4.9506156921 1.6383801023 5.5501839754 
Si 9.1724221601 2.6805445167 6.1648550041 
Si 1.0083728247 8.1516479462 6.5617572968 
Si 4.6785520506 10.1349490479 4.5394675473 
Si 7.0327380204 3.2316447693 1.1049746976 
Si 2.7598392859 1.2967902760 10.0115349818 
Si 7.2787306814 3.6453314607 8.0810185111 
Si 5.6826489775 1.8899532814 8.0131954017 
Si 10.4366076437 3.0561744318 3.9681339002 
Si 7.2235681714 0.3394304551 3.9047452140 
Si 1.3255176258 0.9338723739 7.2236752831 
Si 9.1188877475 1.0997797816 2.8615418164 
Si 2.3835024338 10.0554293441 5.3381242914 
Si 10.5909769823 7.2229362126 4.5188057062 
Si 0.3175786034 2.8174974978 0.5420546721 
Si 0.8990642945 9.4655439558 1.1111014851 
Si 2.6383960746 5.6077243644 10.5430552212 
Si 5.7973762871 8.5578046872 7.8478256946 
Si 3.5197751613 8.6509489953 0.6174505766 
Si 3.6049289388 8.6971783920 8.9251548702 
Si 2.2707888236 1.9008144047 1.6905006409 
Si 6.4887606938 5.3055302102 6.2442783073 
Si 2.9939104181 2.5977471959 5.4028304511 
Si 5.0115729434 6.7864561579 0.8419309298 
Si 1.5436505415 1.4813329720 4.0040270208 

