&CONTROL
   calculation      = 'scf'
   tstress          = .true.
   tprnfor          = .true.
   outdir           = './'
   disk_io          = 'none'
   pseudo_dir       = '/home/ppiaggi/pseudos'
/
&SYSTEM
   ecutwfc          = 30
   occupations      = 'smearing'
   degauss          = 0.01
   smearing         = 'fermi-dirac'
   input_dft        = 'PBE'
   ntyp             = 1
   nat              = 64
   ibrav            = 0
/
&ELECTRONS
   electron_maxstep = 100
   mixing_beta      = 0.5
/
&IONS
/
&CELL
/

ATOMIC_SPECIES
Si 28.085 Si_ONCV_PBE_sr.upf

K_POINTS gamma

CELL_PARAMETERS angstrom
10.76582840997636 0.00000000000000 0.00000000000000
0.00000000000000 10.76582840997636 0.00000000000000
0.00000000000000 0.00000000000000 10.76582840997636

ATOMIC_POSITIONS angstrom
Si 3.0987499229 10.3434634298 5.7065134753 
Si 2.2852946941 6.0643265484 3.4687929770 
Si 1.5926643575 4.3716691766 8.8240067055 
Si 9.3622012335 10.2409404458 0.7576785484 
Si 8.4904490439 5.5643076479 3.7780736956 
Si 5.1501892922 0.6743714916 7.1925961316 
Si 7.7206277176 10.4133767195 7.8749881653 
Si 1.8530143859 10.2856293996 2.7885218114 
Si 7.7822297877 3.4900554881 2.6211993063 
Si 10.5217563141 8.1379542901 1.5532721913 
Si 3.6876407369 8.0852986233 9.8147643624 
Si 7.1763289648 6.4119013186 0.5586054621 
Si 3.5339154731 2.3039303430 1.1977630056 
Si 5.5747074381 4.7135272919 1.6273949199 
Si 5.9008043807 0.7376788690 4.5683177983 
Si 0.3439402265 0.7137249008 4.5524274356 
Si 8.8729481614 2.0553043017 7.9951240446 
Si 6.1687873814 0.8497037731 2.0586309427 
Si 9.5490960147 10.2453436697 6.1808020459 
Si 10.6553602447 2.8563465304 3.9740225385 
Si 6.4070782275 8.3388231165 6.8190326516 
Si 3.6251881663 1.0024568826 3.4682223881 
Si 9.0267810836 8.8165136889 9.3575396298 
Si 5.8095639849 7.5253894194 3.2929547016 
Si 3.2622613248 7.7374224099 5.2479430142 
Si 0.4848250869 3.5576541247 1.4841663388 
Si 5.2800144170 2.7524024571 10.6429903078 
Si 4.5007945226 2.9332037794 6.5142951126 
Si 9.8653206926 4.9100251921 5.6040873838 
Si 0.8348264748 6.6857516958 9.0268133811 
Si 5.3682834442 9.2383619093 4.8094615889 
Si 2.5419520434 4.7748171531 0.7530557017 
Si 8.1704347944 2.0571775559 10.3731448187 
Si 0.1397490654 8.6938693717 3.8180149190 
Si 1.5213622759 4.9956135279 6.4012539143 
Si 6.9458218127 10.1347463144 0.3335770401 
Si 2.5903121446 2.8530521869 4.8307025684 
Si 5.4944266557 0.4165417436 9.5645772760 
Si 5.7274099483 5.2851820147 4.4483434065 
Si 3.2879162939 8.1500012521 2.2885998034 
Si 9.0335204922 7.6420909993 5.7307258234 
Si 3.9120974934 4.4196309422 3.4619351443 
Si 8.2655508884 10.1730834294 4.0470256209 
Si 8.1158197469 7.8625966968 2.6978089413 
Si 2.2744212074 0.5088113526 0.6280956548 
Si 5.0722985237 6.8650458022 8.3791411439 
Si 0.7257266463 2.0877202111 8.6437759721 
Si 2.0130914886 7.1200990431 0.2789609160 
Si 0.2242091425 8.9833624976 7.8462541693 
Si 9.5322582591 6.5340396419 10.4754632519 
Si 1.0064639240 7.4828213338 6.1150981952 
Si 5.5569330554 8.3668358021 0.4790944364 
Si 8.3884320539 6.6524099253 8.0625288962 
Si 7.9018273756 4.0228348045 7.1352035003 
Si 1.8837185286 0.1099610948 7.8647390967 
Si 8.8456567864 1.2880560085 2.4678723781 
Si 6.5622030490 5.1431484405 9.3070155971 
Si 0.1219962144 5.7840489715 2.6546917985 
Si 6.7919888906 3.2368539697 4.9972391680 
Si 4.2153493481 5.7458625782 6.4213537159 
Si 4.2046804121 3.9297103887 8.8727543765 
Si 3.3958114262 10.3035437381 9.5474165455 
Si 9.3037535511 4.1959816228 0.8532801813 
Si 0.0753033093 1.5707128334 0.0277301902 

