&CONTROL
   calculation      = 'scf'
   tstress          = .true.
   tprnfor          = .true.
   outdir           = './'
   disk_io          = 'none'
   pseudo_dir       = '/home/ppiaggi/pseudos'
/
&SYSTEM
   ecutwfc          = 30
   occupations      = 'smearing'
   degauss          = 0.01
   smearing         = 'fermi-dirac'
   input_dft        = 'PBE'
   ntyp             = 1
   nat              = 64
   ibrav            = 0
/
&ELECTRONS
   electron_maxstep = 100
   mixing_beta      = 0.5
/
&IONS
/
&CELL
/

ATOMIC_SPECIES
Si 28.085 Si_ONCV_PBE_sr.upf

K_POINTS gamma

CELL_PARAMETERS angstrom
10.66340620285557 0.00000000000000 0.00000000000000
0.00000000000000 10.66340620285557 0.00000000000000
0.00000000000000 0.00000000000000 10.66340620285557

ATOMIC_POSITIONS angstrom
Si 8.8983245643 6.2212444469 8.7228262250 
Si 4.9099333959 6.9106123311 8.4531806724 
Si 7.7897568555 3.4848971177 0.6859395991 
Si 5.3439446917 3.5693726217 7.1251600639 
Si 6.9499069829 9.9987560942 9.3419329258 
Si 1.3374044060 6.2232491672 2.6764403131 
Si 9.9147071265 4.3229555380 2.2234908078 
Si 10.3211641808 2.8426828158 7.0732506025 
Si 2.5167344784 7.2987496534 6.2073393652 
Si 8.4078825228 6.1927198353 0.5595729039 
Si 5.4361298384 3.1054184812 3.8262967307 
Si 9.8336865662 0.2075024203 1.0286198872 
Si 7.9360587886 1.4154178857 2.3174247530 
Si 9.3253513291 0.3260837627 9.3304484373 
Si 6.1475069930 7.0049941394 6.4073208851 
Si 2.0086764898 9.9789434855 10.0903120999 
Si 4.9670039459 6.1980195482 1.9287435969 
Si 0.7655248650 4.4279687623 0.2280572021 
Si 1.7991298945 8.1711442417 4.2858148942 
Si 6.8117199019 4.7829322280 2.5257237298 
Si 5.0448894648 1.4912133770 1.8999950538 
Si 10.5169229918 4.4265505293 5.3949904172 
Si 1.1955811035 0.1536394229 4.0242308767 
Si 4.3862641807 9.6720186648 9.5475020705 
Si 7.1073201853 5.1583694336 5.5058151979 
Si 8.6298626498 10.0007288244 6.5398883510 
Si 4.7588542568 7.4289178530 4.3984631174 
Si 2.0989742136 0.8509931320 7.2849192156 
Si 0.6428071874 1.9462849001 1.9168645624 
Si 0.7151402707 9.2659881468 1.7264374545 
Si 3.7349326664 9.8709978245 3.8414387675 
Si 3.2902899545 4.1496431970 1.5347520646 
Si 2.3682998640 4.8375182044 5.9684470760 
Si 2.1388020357 6.4273147717 9.9685999815 
Si 7.3693200757 2.0526630404 4.9947714556 
Si 2.8936858876 1.8861966062 3.4480977029 
Si 4.4607374096 9.7300489213 1.5029004702 
Si 6.7723506062 9.3404507123 5.1406255257 
Si 0.1154548316 0.6361244307 6.1687271713 
Si 6.0199833182 7.2852391178 0.0397618157 
Si 5.1186375821 0.1003030911 5.7234233283 
Si 6.7396246126 9.9793380315 2.6865492222 
Si 3.8214342175 5.0111824378 4.0977763893 
Si 1.7169790132 3.1073485577 8.5012619709 
Si 1.0555044669 7.6160712952 8.1857211180 
Si 9.5610232696 3.3079912088 9.7058003356 
Si 9.9330481852 7.4255588800 2.1126020467 
Si 7.7575853590 9.0677340987 0.8036092202 
Si 3.8267019402 2.1686489097 5.7282858415 
Si 9.6226790843 2.4622018191 4.1193591234 
Si 3.5141041873 9.2691765052 7.3023858750 
Si 10.2354730485 6.5740645679 6.8760202414 
Si 7.6097905490 1.4914159817 7.3457966016 
Si 2.6766002642 7.3857950383 1.3554255624 
Si 5.1167608226 1.1316326565 8.5137061660 
Si 9.0129668444 6.0648975851 4.0289654290 
Si 0.4084692390 9.8541496427 8.4575100153 
Si 4.7287407977 2.6053687107 10.4289285639 
Si 9.9717456863 8.4293372961 5.1850599393 
Si 2.3717761345 1.8332421310 10.5097038658 
Si 7.6334739742 8.0962658034 7.9232627011 
Si 6.1084469361 4.3447302135 9.6710696216 
Si 3.6375757678 4.8039817919 8.5350009882 
Si 7.9778593409 4.0341691713 7.7374635114 

