&CONTROL
   calculation      = 'scf'
   tstress          = .true.
   tprnfor          = .true.
   outdir           = './'
   disk_io          = 'none'
   pseudo_dir       = '/home/ppiaggi/pseudos'
/
&SYSTEM
   ecutwfc          = 30
   occupations      = 'smearing'
   degauss          = 0.01
   smearing         = 'fermi-dirac'
   input_dft        = 'PBE'
   ntyp             = 1
   nat              = 64
   ibrav            = 0
/
&ELECTRONS
   electron_maxstep = 100
   mixing_beta      = 0.5
/
&IONS
/
&CELL
/

ATOMIC_SPECIES
Si 28.085 Si_ONCV_PBE_sr.upf

K_POINTS gamma

CELL_PARAMETERS angstrom
10.63177200749637 0.00000000000000 0.00000000000000
0.00000000000000 10.63177200749637 0.00000000000000
0.00000000000000 0.00000000000000 10.63177200749637

ATOMIC_POSITIONS angstrom
Si 5.3542241736 5.2954411062 6.8007299141 
Si 5.6701898059 1.6522411606 1.2897189987 
Si 5.5256508655 3.7454988558 3.4096199146 
Si 8.0204599576 8.1157844255 10.0516281044 
Si 1.8257942068 0.1926944886 2.9931627733 
Si 8.3551375087 5.7234018248 2.4926295789 
Si 0.1720018707 5.6812043217 1.5896625506 
Si 7.8401982633 7.1112627109 7.0357664979 
Si 2.3961356162 3.9633757596 6.0615984924 
Si 3.3315720763 6.2628366729 6.4737816613 
Si 1.5247130554 4.9808363407 8.9238947840 
Si 10.0677990296 6.6307704068 6.7132410622 
Si 10.0377217466 0.4765255900 4.6784581130 
Si 3.5431018121 9.4800746730 7.5363741146 
Si 5.3590722616 1.9087539238 4.8984932665 
Si 8.0919798879 0.2084911754 6.2429339957 
Si 3.9184565229 3.7438084041 9.4110638409 
Si 2.0586831727 7.9878842082 4.3507018456 
Si 4.7447578433 8.4140906845 5.6016148764 
Si 2.8445731277 7.0922424708 9.0133717772 
Si 1.0024293819 0.2263568051 6.3325810973 
Si 6.0513494641 3.1340869112 8.2151170713 
Si 1.4614114848 7.3340940204 0.6668980995 
Si 5.4518876313 6.7716413859 3.9136190666 
Si 8.2526791218 10.6278276201 0.1045860171 
Si 3.8827231371 9.5117998807 3.2955835280 
Si 10.3478399043 2.3961249844 3.2904802775 
Si 6.0990010663 1.0006272965 9.6752740071 
Si 1.3139913342 8.3873517779 6.5386992612 
Si 0.1628383464 9.0279585684 3.2678983937 
Si 4.4653017161 8.1139026018 1.3384018827 
Si 3.9672776199 10.5776669198 0.1116144689 
Si 5.9538029560 0.2170263620 3.2425628810 
Si 9.4234604871 2.9857099011 10.4073671957 
Si 9.5224210209 7.1564583737 4.1060754035 
Si 0.4895973537 8.6694020574 8.9027588212 
Si 7.0113984764 7.7339230703 1.7993529899 
Si 2.7786986683 1.8110904662 4.7743992236 
Si 6.3366318024 6.2107409901 8.8451027216 
Si 0.9793722579 5.5423321157 3.9409746160 
Si 9.9390589023 6.2254022037 9.5718906561 
Si 7.3445982111 2.6381891695 6.1524895112 
Si 3.0304483977 3.6175880068 3.0751124719 
Si 7.6642743319 8.5026852406 5.0319007417 
Si 7.7619590531 4.7752816607 9.7194809151 
Si 7.9929768270 9.7083281862 3.0190298746 
Si 9.1341168119 2.7060942973 7.8811731126 
Si 5.1126703136 8.3145666667 9.5077172802 
Si 0.1087162478 9.4821691321 0.9205870641 
Si 9.9224201792 0.4291015078 8.5499540989 
Si 7.0343843675 5.3868849772 5.0958189550 
Si 6.5811412950 9.5669149868 7.8744219374 
Si 1.9424779046 0.2555112503 9.4521450079 
Si 0.8466462793 3.6870028463 0.3227646505 
Si 10.6107636260 4.2302119734 6.6688215188 
Si 3.2619446014 2.5403343399 1.2356883333 
Si 8.3870859836 1.5258825503 2.0670822726 
Si 4.5526842502 1.2360817089 7.2178674888 
Si 3.2530032811 6.3070648445 2.7493230823 
Si 9.2079969956 4.0595720327 4.3568789051 
Si 6.9935264677 4.1692812881 1.3278126378 
Si 4.8497572236 5.2990771722 0.6010938099 
Si 2.3573828072 2.1113423394 8.1332205316 
Si 0.6539103269 0.9543620774 0.9051614261 

