&CONTROL
   calculation      = 'scf'
   tstress          = .true.
   tprnfor          = .true.
   outdir           = './'
   disk_io          = 'none'
   pseudo_dir       = '/home/ppiaggi/pseudos'
/
&SYSTEM
   ecutwfc          = 30
   occupations      = 'smearing'
   degauss          = 0.01
   smearing         = 'fermi-dirac'
   input_dft        = 'PBE'
   ntyp             = 1
   nat              = 64
   ibrav            = 0
/
&ELECTRONS
   electron_maxstep = 100
   mixing_beta      = 0.5
/
&IONS
/
&CELL
/

ATOMIC_SPECIES
Si 28.085 Si_ONCV_PBE_sr.upf

K_POINTS gamma

CELL_PARAMETERS angstrom
10.61937324930132 0.00000000000000 0.00000000000000
0.00000000000000 10.61937324930132 0.00000000000000
0.00000000000000 0.00000000000000 10.61937324930132

ATOMIC_POSITIONS angstrom
Si 8.6333805417 2.9112056019 3.3585148419 
Si 2.6848111836 5.6057653702 0.1116021793 
Si 0.7592087278 7.7070101357 2.1960970073 
Si 2.2209144826 8.9371689523 7.5234330303 
Si 5.5978220790 8.8583413446 5.0400394991 
Si 5.4994654440 8.9932392430 8.3028631687 
Si 2.5091348920 1.0492121300 1.0288070043 
Si 3.5218408025 1.6533939374 8.1333142554 
Si 3.7597572408 8.7840269706 10.6113662419 
Si 7.8598547749 1.7453046129 10.4973885088 
Si 6.6358339560 1.4921068965 2.0873440059 
Si 8.5987189074 10.1497633255 8.8122745035 
Si 10.2402191468 1.3074572345 10.5437420730 
Si 4.8074539862 1.0607511409 10.1313174741 
Si 5.4767081271 5.7924539519 8.7033303533 
Si 9.0868702569 7.0043049690 2.0269622496 
Si 10.1445916907 4.1698455776 5.4556923875 
Si 0.4299200163 5.1413483199 9.1924480658 
Si 5.9306650948 9.7508678081 2.4757794406 
Si 7.0344533697 3.7740721559 5.0592818034 
Si 3.6960728594 2.8352346057 3.4718023158 
Si 7.4737662216 7.5031181693 10.5757063865 
Si 5.6414146062 6.3339464133 4.8336732188 
Si 8.1601175535 9.3589385996 2.4979845501 
Si 4.8823311870 3.5747996169 7.5382151979 
Si 4.9329855974 6.5660434350 0.6296067109 
Si 10.5538517164 8.3173055163 6.9070952263 
Si 0.6168698346 2.5542459895 3.8802871272 
Si 4.1682845297 3.4670448366 10.4685993879 
Si 3.1392460231 9.8636561714 2.2365143419 
Si 9.8327856534 7.9809899655 9.0931569259 
Si 8.7296451602 4.4652553026 1.4716008868 
Si 1.6929829609 10.5822373010 9.7408962166 
Si 6.7318012321 9.9021195413 10.3580198543 
Si 6.9537673717 4.1604792904 10.3815311466 
Si 2.1838634893 5.8126413805 3.0435654701 
Si 9.7560500623 1.5683115189 7.7456327962 
Si 0.9915935346 9.8440528084 3.9053807062 
Si 2.6727794337 8.1807297570 5.0141176090 
Si 5.4395615595 3.4232930188 1.8859475922 
Si 7.9014190018 8.4688333532 5.3506455473 
Si 8.5064684120 3.8071408842 7.3188932822 
Si 1.3386463337 7.9229338520 10.5408960810 
Si 8.6158479565 6.2363225150 4.3911533161 
Si 10.1942054025 10.5649277227 5.9302084617 
Si 2.2942624936 5.0752958183 7.0492780147 
Si 6.4686531630 5.3690383017 2.5768971127 
Si 0.9946774006 6.0672833316 5.2017725537 
Si 4.1487024054 10.3742887341 6.8946599402 
Si 3.7079134606 0.6077233684 4.3726118904 
Si 6.7716451205 2.5329435268 8.0684405042 
Si 4.2100611441 4.4119141908 5.4427048940 
Si 6.9539479011 0.1032168036 7.0365666250 
Si 1.8940820321 3.2474892946 1.8483656303 
Si 1.7004589997 1.5007723051 5.6887132947 
Si 10.3150751088 0.4600482402 2.2928501170 
Si 0.0670272539 3.6779562087 0.2589374876 
Si 6.2398800050 1.3197650880 4.7823391685 
Si 8.4496760039 0.3184219069 4.5963302266 
Si 4.1755694197 7.3043872183 3.1132391780 
Si 3.2103958239 6.8381330164 8.4900402416 
Si 8.5373814075 5.9602931461 8.6530688597 
Si 1.2741654993 2.9695484386 7.7470982697 
Si 6.7583815233 7.3726166914 7.2514921202 

