&CONTROL
   calculation      = 'scf'
   tstress          = .true.
   tprnfor          = .true.
   outdir           = './'
   disk_io          = 'none'
   pseudo_dir       = '/home/ppiaggi/pseudos'
/
&SYSTEM
   ecutwfc          = 30
   occupations      = 'smearing'
   degauss          = 0.01
   smearing         = 'fermi-dirac'
   input_dft        = 'PBE'
   ntyp             = 1
   nat              = 64
   ibrav            = 0
/
&ELECTRONS
   electron_maxstep = 100
   mixing_beta      = 0.5
/
&IONS
/
&CELL
/

ATOMIC_SPECIES
Si 28.085 Si_ONCV_PBE_sr.upf

K_POINTS gamma

CELL_PARAMETERS angstrom
10.63318532535526 0.00000000000000 0.00000000000000
0.00000000000000 10.63318532535526 0.00000000000000
0.00000000000000 0.00000000000000 10.63318532535526

ATOMIC_POSITIONS angstrom
Si 4.4213741570 9.6454581073 6.3288293729 
Si 7.1190026408 2.5253815148 3.6056280783 
Si 4.9641451019 0.1091209378 8.4861644440 
Si 4.7954070840 5.0215855690 4.6431930360 
Si 6.9575164553 4.0366442455 5.6942834054 
Si 4.8209054624 2.6169438736 8.1808750601 
Si 10.5674935064 0.7692822487 2.6112870190 
Si 3.6232578996 4.8225855056 8.4523828142 
Si 1.8942169002 9.4756248713 3.1560995355 
Si 5.1076612042 0.4234612890 4.9128718822 
Si 5.6819170109 9.0932129942 0.0422105558 
Si 2.9016686771 1.0955370841 4.0343474775 
Si 1.7986883633 9.7532998729 6.5378777964 
Si 4.9594027012 6.9996132360 8.5397344317 
Si 2.5031262579 1.2142353319 9.5020589700 
Si 5.4847671218 7.4151368521 3.6064255672 
Si 8.4426428165 8.3039648135 3.5687628248 
Si 1.0821180042 1.2361077941 7.3161099972 
Si 7.5825776214 10.1500984497 8.7502077020 
Si 2.2150626342 2.9665630071 6.1780189054 
Si 0.5899174253 4.8155250706 6.0100252105 
Si 10.6034017733 6.7118473415 4.6047540711 
Si 9.8999421317 1.4286641471 0.2984937151 
Si 9.9121383953 1.1991255755 5.3947572080 
Si 0.0222111292 9.5943975514 4.9014731076 
Si 2.8450788648 10.2966875425 0.6755145672 
Si 1.5329012629 7.0814993962 0.6097578858 
Si 10.5340627718 5.2424687278 1.9035209374 
Si 1.2775772168 2.9233178424 3.3329825734 
Si 7.2065669220 2.2716949793 7.5354726104 
Si 0.1172925407 4.2320077595 9.9717267658 
Si 9.5192847302 1.6362026583 8.5716127213 
Si 4.7582334681 4.0596757249 2.4754693429 
Si 10.3146469926 8.1713796256 1.5984973831 
Si 7.5605137619 0.7092866271 5.7559984131 
Si 9.1904109413 3.2853033704 1.9646723862 
Si 8.7014013814 8.1811727893 9.8075078517 
Si 4.5361806589 2.7612468317 5.5863672076 
Si 7.8053109544 0.1848483570 2.9019026071 
Si 5.5603478031 10.0165137424 2.4690468989 
Si 6.0377778242 7.6025892762 6.1854834015 
Si 8.2301705073 5.9538500924 5.2234353260 
Si 0.2944616113 9.9018029391 10.3243976235 
Si 7.5967516575 7.7226379385 1.2399251076 
Si 9.9076830906 7.4080338843 7.0757362097 
Si 2.9846819549 7.8766808944 5.0037643504 
Si 3.0635376573 5.8119077015 6.1008645127 
Si 5.4316437279 6.3180366898 0.2603056934 
Si 3.1558762386 5.0864692659 0.7241135407 
Si 3.8114333803 7.8083201459 1.9011072043 
Si 3.9856581219 1.8948761577 2.0096932929 
Si 2.2454948106 5.8698053956 3.0781051212 
Si 8.2342111177 8.9965998724 6.3531793673 
Si 3.2453970259 8.5520582935 9.5094171342 
Si 7.0630827192 4.6201190239 0.3183905315 
Si 9.7345004012 3.4355183795 4.5230380418 
Si 5.7130190780 2.4225798790 10.5843790047 
Si 8.3362896969 4.3738544517 9.1273774187 
Si 7.3742947873 5.6405964527 2.6645699107 
Si 1.6499513669 2.9212869040 0.8081242114 
Si 7.4696212937 0.8834975455 0.4074594084 
Si 1.0560507504 8.6335510258 8.4276287588 
Si 7.6385081762 6.4894117377 8.3912632650 
Si 1.1874184385 5.8076863269 8.4271289991 

