&CONTROL
   calculation      = 'scf'
   tstress          = .true.
   tprnfor          = .true.
   outdir           = './'
   disk_io          = 'none'
   pseudo_dir       = '/home/ppiaggi/pseudos'
/
&SYSTEM
   ecutwfc          = 30
   occupations      = 'smearing'
   degauss          = 0.01
   smearing         = 'fermi-dirac'
   input_dft        = 'PBE'
   ntyp             = 1
   nat              = 64
   ibrav            = 0
/
&ELECTRONS
   electron_maxstep = 100
   mixing_beta      = 0.5
/
&IONS
/
&CELL
/

ATOMIC_SPECIES
Si 28.085 Si_ONCV_PBE_sr.upf

K_POINTS gamma

CELL_PARAMETERS angstrom
10.59197270941425 0.00000000000000 0.00000000000000
0.00000000000000 10.59197270941425 0.00000000000000
0.00000000000000 0.00000000000000 10.59197270941425

ATOMIC_POSITIONS angstrom
Si 6.7947081252 10.1831225628 3.0628701564 
Si 9.1568451431 8.9539453138 3.0798914566 
Si 0.2577694254 5.0031289013 5.6989791404 
Si 9.6086033711 10.0836745311 7.9607360329 
Si 5.7703372605 3.8228441983 6.7294086134 
Si 7.9270853356 6.8667123557 8.3066486776 
Si 10.0946584068 3.7416885034 8.7671558751 
Si 7.9486505920 2.4631844375 9.3380843881 
Si 0.1468100377 10.5903733215 10.5058917472 
Si 1.0947121554 3.6773210853 3.7745977626 
Si 4.7736008527 9.7372852475 5.2508009991 
Si 6.5405961079 4.3100749429 9.3480832103 
Si 5.1246929721 0.6286356987 10.2409759178 
Si 4.3289498383 5.8649553527 9.6987410589 
Si 7.7323307334 4.4785614528 5.2668478378 
Si 6.2532888482 7.2028803855 0.2110206947 
Si 0.1156812891 6.5117435743 3.6128689313 
Si 5.7403619778 5.1568925691 1.7014733121 
Si 8.1146585803 1.2176955506 0.8602069388 
Si 8.8750563011 5.5050189361 10.1059918176 
Si 6.7008102871 6.2983788760 3.9586332884 
Si 9.6655670003 7.5809820353 0.0690614627 
Si 2.4059348250 7.9864321587 10.4836803804 
Si 10.1454680998 0.9319707315 2.5471575972 
Si 7.0484282395 1.4882992693 7.3437853985 
Si 6.8006608139 8.1974136631 5.4463817752 
Si 2.8881661585 8.5450104315 6.5903677877 
Si 0.9470494639 2.2112755506 9.9206640711 
Si 3.3301479958 0.6214734068 2.4110825238 
Si 5.8172279237 2.7337246045 1.0508116061 
Si 0.7788203389 8.6276172266 5.2549318685 
Si 8.7787434933 6.5678280698 2.5033703820 
Si 1.9804340973 6.6577539181 2.1138823615 
Si 9.2278007683 6.6602006638 6.5728380729 
Si 3.5947884339 4.1731207358 3.5912718990 
Si 3.3335480190 8.0648233487 3.6583614541 
Si 0.2454128301 7.7722518785 8.3063415104 
Si 0.9865119766 9.0246361397 1.8186840821 
Si 3.1063184285 4.8977705487 1.1887900570 
Si 5.5863123267 1.8226348879 3.3198314143 
Si 7.0832970136 9.7244265927 8.6905017686 
Si 7.9741242864 2.5535869246 3.6704045271 
Si 8.5803240685 0.6895384826 5.1518084222 
Si 0.9481277267 0.9178950590 7.4177703279 
Si 9.7118856970 2.9153451605 6.5489002145 
Si 5.6284683781 6.7090402499 7.1739113402 
Si 2.4286334225 9.9698955602 8.5003123066 
Si 4.6484355111 0.4895991097 7.2996698321 
Si 4.1216013806 2.1728266896 5.3916000924 
Si 5.2857333251 8.3302899607 2.2174506707 
Si 0.3779734869 3.2537375046 1.5601340283 
Si 3.3592865127 2.3956923874 0.7612768545 
Si 2.2719887381 6.2197440706 6.6706125729 
Si 3.7808893944 4.3980518683 7.8172571706 
Si 1.7570493929 1.9314356316 5.2849707031 
Si 8.5233922152 4.1229889290 1.5055430009 
Si 3.0928030713 2.3638317335 8.8545396500 
Si 4.4067161019 6.1050647821 4.6376105150 
Si 9.1213196666 8.9511384411 5.8438455511 
Si 7.8281139426 9.2689293983 0.3092061633 
Si 4.8204597399 8.4481150651 8.6437593931 
Si 1.3013509510 5.5471008437 9.1470475683 
Si 1.5481227312 10.5256881442 3.6606069523 
Si 3.9696701240 9.5286445691 0.7027826853 

