&CONTROL
   calculation      = 'scf'
   tstress          = .true.
   tprnfor          = .true.
   outdir           = './'
   disk_io          = 'none'
   pseudo_dir       = '/home/ppiaggi/pseudos'
/
&SYSTEM
   ecutwfc          = 30
   occupations      = 'smearing'
   degauss          = 0.01
   smearing         = 'fermi-dirac'
   input_dft        = 'PBE'
   ntyp             = 1
   nat              = 64
   ibrav            = 0
/
&ELECTRONS
   electron_maxstep = 100
   mixing_beta      = 0.5
/
&IONS
/
&CELL
/

ATOMIC_SPECIES
Si 28.085 Si_ONCV_PBE_sr.upf

K_POINTS gamma

CELL_PARAMETERS angstrom
10.67121507429268 0.00000000000000 0.00000000000000
0.00000000000000 10.67121507429268 0.00000000000000
0.00000000000000 0.00000000000000 10.67121507429268

ATOMIC_POSITIONS angstrom
Si 10.2086072296 3.9604507354 2.5856140701 
Si 1.0513675926 5.1532151291 0.4938478268 
Si 3.6938837828 10.2434914317 1.1606973924 
Si 1.7154511793 2.9637912611 10.0828149463 
Si 4.4733626879 3.6974372974 1.9163474743 
Si 4.6224929186 8.7686868236 9.8275274681 
Si 6.9814076956 4.1125689063 2.1573995516 
Si 1.6163902897 1.7733745347 5.9082249380 
Si 0.0815313912 3.5896046691 5.5032950108 
Si 10.4951293544 0.2690288019 6.8068266170 
Si 8.5399493284 3.6580178290 0.4759682060 
Si 6.7148514143 6.0106472603 7.2322132635 
Si 10.4083403622 7.0391496404 6.7282544604 
Si 9.2235687085 5.4256085651 5.1335480797 
Si 10.5620058592 1.3234867784 9.1961970419 
Si 2.7118972293 1.0193475447 3.6094211155 
Si 5.0522227496 8.3950342277 7.3280621173 
Si 3.2305289531 5.8055251642 1.6799587179 
Si 1.9684656887 6.9204110303 9.5406852069 
Si 1.7157393021 8.0162594487 6.0648143480 
Si 4.3748140167 2.7389807731 4.1362696749 
Si 6.4041376450 0.1777685706 8.8699353122 
Si 6.6800952668 0.0045098262 4.9014171382 
Si 2.4298783573 0.1155351114 9.3310705292 
Si 7.5200372765 3.2371984625 5.7985995456 
Si 1.0971503066 9.2480164623 8.1602141400 
Si 9.9948841341 6.7053220192 0.4334167358 
Si 4.1019297048 6.7239219471 3.5113846626 
Si 6.5868181758 5.2949181941 4.4605358874 
Si 0.7435019706 8.2717390088 3.5145113286 
Si 8.5877777144 1.1069251397 0.2348958533 
Si 8.1149788593 0.6585644342 6.6364393259 
Si 4.9553921440 3.4110218849 6.2616128964 
Si 6.4939359198 5.8846949088 0.6526845947 
Si 5.5879604312 2.5090907868 9.0767968164 
Si 2.8370919245 4.7509103208 5.7944164293 
Si 6.6791882135 1.8558096711 3.3382548693 
Si 7.8655498782 7.1272938769 9.8132280399 
Si 0.0587123851 5.2602474163 8.3080638249 
Si 1.2632264268 9.4563932790 1.5297293521 
Si 10.1167920951 0.6442842142 2.0316392819 
Si 3.8038079693 1.3716566432 7.2069438262 
Si 8.2024081244 8.6927397859 4.5801388660 
Si 8.6345923349 9.6022047618 8.7522531523 
Si 1.2807485620 2.0658191838 1.9988039531 
Si 1.3206909200 5.5817070992 3.5000945171 
Si 4.6011931733 6.6121729828 10.4276339190 
Si 8.1392452024 7.8764878736 6.7283825150 
Si 5.4649426638 9.7624864122 2.8325566581 
Si 6.2145528380 1.1311701403 0.9722650766 
Si 9.2896662147 6.8217556469 2.8078421240 
Si 9.3605657677 1.9922518271 4.2463112448 
Si 9.4518793550 3.2556703358 7.7585816183 
Si 3.8008520427 6.7267391479 5.9416578549 
Si 10.2512920899 10.1662318345 4.2921014287 
Si 6.8112978561 9.0562974122 0.2251839805 
Si 1.9320768453 3.9063263325 7.8370150491 
Si 0.0045941075 8.8998467280 10.3357334148 
Si 7.4496819555 4.0087806685 8.8904347163 
Si 4.7787515209 10.1918000659 5.9198352200 
Si 3.8011081519 2.0715389551 0.3003296099 
Si 6.4064426274 7.5124073577 2.5502176497 
Si 3.0664483501 9.3651757326 4.2676323325 
Si 4.4633851018 5.0341030264 8.3998256033 

