&CONTROL
   calculation      = 'scf'
   tstress          = .true.
   tprnfor          = .true.
   outdir           = './'
   disk_io          = 'none'
   pseudo_dir       = '/home/ppiaggi/pseudos'
/
&SYSTEM
   ecutwfc          = 30
   occupations      = 'smearing'
   degauss          = 0.01
   smearing         = 'fermi-dirac'
   input_dft        = 'PBE'
   ntyp             = 1
   nat              = 64
   ibrav            = 0
/
&ELECTRONS
   electron_maxstep = 100
   mixing_beta      = 0.5
/
&IONS
/
&CELL
/

ATOMIC_SPECIES
Si 28.085 Si_ONCV_PBE_sr.upf

K_POINTS gamma

CELL_PARAMETERS angstrom
10.71808153116609 0.00000000000000 0.00000000000000
0.00000000000000 10.71808153116609 0.00000000000000
0.00000000000000 0.00000000000000 10.71808153116609

ATOMIC_POSITIONS angstrom
Si 8.7709598136 4.6990213049 8.4959445596 
Si 2.5645796765 1.9249888792 1.7532209045 
Si 6.9807508097 9.0092334842 7.4284557934 
Si 3.9488949328 3.6674488298 0.2927000885 
Si 8.6653545563 8.6896846014 1.7399090473 
Si 6.7614052712 0.4671679479 6.5130244498 
Si 10.6725725570 3.0956498982 7.0440196450 
Si 8.8267581461 1.3607140408 6.1209248731 
Si 9.6902711027 0.7315133517 4.2008770296 
Si 1.9531988698 9.1150638212 3.9960116192 
Si 9.4643875345 6.3650077439 1.2998674919 
Si 7.6907272484 3.7677700730 5.6640237756 
Si 6.8386933571 1.0394717011 2.5088027802 
Si 5.3728242184 2.0928447540 5.0577662118 
Si 0.4686749102 6.9135162843 10.3073753650 
Si 0.5342706409 9.0197907945 8.1506294089 
Si 0.4865280186 9.3145273185 2.0345812628 
Si 2.8061437980 1.9102407990 3.8604064517 
Si 3.8753688935 6.0010002589 3.8255405324 
Si 6.7029488545 3.4955629563 3.2818122564 
Si 1.1363095678 3.2688326596 9.4943445723 
Si 7.4173089886 5.2935318513 10.6461417679 
Si 2.3061988850 4.2814662846 4.5998576146 
Si 3.8420785322 0.0646446082 7.0402361622 
Si 4.7854733505 8.6646793172 7.9716803196 
Si 10.6255952056 7.6750145409 4.4722159816 
Si 4.2301695464 5.7112797970 7.6390339412 
Si 8.3194927834 9.8940003965 10.4385861191 
Si 6.2928429009 7.1053806618 1.5818280628 
Si 5.2042180779 4.9543903155 2.0652349760 
Si 6.3701845772 8.7128249394 3.6793459003 
Si 4.5459671006 10.4932912072 4.5056992683 
Si 3.7888418213 8.6661048220 2.3563273523 
Si 7.0422833158 7.3219502172 5.8352129738 
Si 9.0058465704 9.1501762563 4.2119380897 
Si 3.2266248545 2.0681395761 8.9726741081 
Si 0.5194496778 4.7359558139 5.5560176680 
Si 1.3635972047 0.6651041186 4.8973486855 
Si 6.4234963148 2.9149859159 10.5804399281 
Si 2.7328106842 6.5151787842 0.9846862274 
Si 9.0015700559 6.1754263177 5.9832082436 
Si 9.3295540688 2.9346750317 3.0575149642 
Si 9.7884272934 7.0741588903 8.3404787870 
Si 10.6881888018 0.7979461647 10.0945892923 
Si 1.3813356297 6.4091019313 6.9038700109 
Si 2.2735623267 8.6149259827 6.2395954719 
Si 3.6696674727 3.5892389889 6.6361859247 
Si 10.4339773440 5.4328776293 3.1981790662 
Si 6.2885985406 0.2167131777 10.2565073500 
Si 5.1356759465 7.0590463953 9.9339681225 
Si 9.2997899564 10.3899260289 8.0897185515 
Si 2.3595427768 5.4844423195 9.1404871106 
Si 7.7586477311 7.6719491696 9.4812042044 
Si 1.5068229282 9.3650416368 10.3928520652 
Si 4.4841773606 7.0257345979 5.7891680955 
Si 9.9631213043 3.8446508718 0.2677087378 
Si 3.7659479991 9.3469066428 10.4291649254 
Si 1.3155373271 0.7120385976 7.2862268515 
Si 8.4091066631 2.0014302366 0.8683382369 
Si 6.3177838766 3.8326894928 7.5020568593 
Si 4.4914013476 0.2614418756 1.6440679622 
Si 1.6428461009 4.5304258824 1.7886763182 
Si 0.3371811987 1.1186247332 1.8641423303 
Si 5.7146881470 1.7345607246 8.3138979448 

