&CONTROL
   calculation      = 'scf'
   tstress          = .true.
   tprnfor          = .true.
   outdir           = './'
   disk_io          = 'none'
   pseudo_dir       = '/home/ppiaggi/pseudos'
/
&SYSTEM
   ecutwfc          = 30
   occupations      = 'smearing'
   degauss          = 0.01
   smearing         = 'fermi-dirac'
   input_dft        = 'PBE'
   ntyp             = 1
   nat              = 64
   ibrav            = 0
/
&ELECTRONS
   electron_maxstep = 100
   mixing_beta      = 0.5
/
&IONS
/
&CELL
/

ATOMIC_SPECIES
Si 28.085 Si_ONCV_PBE_sr.upf

K_POINTS gamma

CELL_PARAMETERS angstrom
10.83396917137326 0.00000000000000 0.00000000000000
0.00000000000000 10.83396917137326 0.00000000000000
0.00000000000000 0.00000000000000 10.83396917137326

ATOMIC_POSITIONS angstrom
Si 6.1049307941 8.3213767091 8.3495125270 
Si 10.4950392798 9.9482488557 7.0978315667 
Si 6.2986854988 7.4063288389 2.2636711866 
Si 0.6037597676 6.5331867615 3.1870828810 
Si 2.5275975096 8.9691938957 6.5515070033 
Si 9.4509913387 5.0804164994 3.6300405445 
Si 1.9955412836 8.9599850219 0.5595560900 
Si 2.7885336571 4.1032574840 7.2065829493 
Si 3.5316031006 5.1411842325 0.9780788194 
Si 7.0276816164 4.0061634523 1.0149565671 
Si 1.9042542593 6.6229353621 5.4330946978 
Si 7.7721161400 10.6098793530 4.5006258052 
Si 5.3309087006 5.1524732284 2.3957264368 
Si 9.5512597234 7.8257659554 6.8306442190 
Si 4.9812640136 8.5735156736 5.7006720684 
Si 0.5183859237 6.1764783265 7.4454394676 
Si 1.5842513119 4.1517719979 3.1974834914 
Si 7.3908687649 9.6047903651 9.9487580523 
Si 9.2178551561 8.2383993392 4.1758775793 
Si 8.1364625233 7.8236208295 0.5346303771 
Si 4.3635760952 7.4925238976 9.6058087582 
Si 10.2717295073 5.8116877505 0.1146840641 
Si 8.1192581802 2.9660807439 3.5478757223 
Si 1.0493284177 2.1780828302 1.6333291923 
Si 0.0065589608 4.1690630127 5.7433795749 
Si 0.5632764750 9.6726435140 4.4771485940 
Si 10.4504466627 1.5631900759 6.3679578976 
Si 4.9908087404 4.2520187147 7.9604755280 
Si 2.7805165199 3.0063072714 5.2449519892 
Si 10.3426161675 1.1605781135 10.0135560219 
Si 1.8152857045 0.0570296887 2.5574667626 
Si 5.3090674188 5.4408843217 10.0244766628 
Si 8.8723707132 10.7257053174 8.4349600419 
Si 2.1073045096 7.8277810736 8.9421414747 
Si 7.0550698904 0.7934235655 6.6173558680 
Si 3.6167364304 2.4581192653 0.5101358562 
Si 4.9824665841 2.1050185421 2.3693240540 
Si 5.2325145926 10.3327139197 7.5388824517 
Si 9.9066030782 1.0923999455 4.0640276816 
Si 7.3304043830 6.8212836697 6.4709889445 
Si 7.5869527729 6.2160873178 4.1777193541 
Si 5.6361557820 0.0015765267 10.8214126011 
Si 3.9626975679 0.4188455818 3.6944051554 
Si 7.6069956159 2.2622627706 8.8476909314 
Si 5.2515823783 1.6501651804 9.1715616058 
Si 10.0640314843 8.3810718792 1.8999531736 
Si 4.4314292441 8.9250021354 1.0017662096 
Si 5.0063771541 3.8921575947 4.5678614179 
Si 1.2447038841 10.1814283742 9.2663588361 
Si 10.0255492258 0.0014375052 1.6021815309 
Si 4.2502094418 6.2264770942 5.6965118243 
Si 9.6791330615 5.0785530567 8.4663568845 
Si 2.9007194079 0.7853067558 8.3734989348 
Si 1.4515893594 6.6506703232 1.0988136553 
Si 7.3866868528 4.5619352368 7.2165502009 
Si 5.5584003853 9.3832031936 3.6526185363 
Si 1.8877974602 2.7039961956 9.0861574269 
Si 6.8590617202 3.0502065145 5.6856345192 
Si 6.8331468659 0.9546611951 2.3288916810 
Si 9.8588361082 3.8051174863 1.4853263394 
Si 8.2929808759 1.8856415003 0.5700953752 
Si 7.5533241326 6.2487625688 9.8747187070 
Si 2.1475310371 0.6274818265 5.8863337981 
Si 10.3498965948 2.9233515694 8.3337924378 

