&CONTROL
   calculation      = 'scf'
   tstress          = .true.
   tprnfor          = .true.
   outdir           = './'
   disk_io          = 'none'
   pseudo_dir       = '/home/ppiaggi/pseudos'
/
&SYSTEM
   ecutwfc          = 30
   occupations      = 'smearing'
   degauss          = 0.01
   smearing         = 'fermi-dirac'
   input_dft        = 'PBE'
   ntyp             = 1
   nat              = 64
   ibrav            = 0
/
&ELECTRONS
   electron_maxstep = 100
   mixing_beta      = 0.5
/
&IONS
/
&CELL
/

ATOMIC_SPECIES
Si 28.085 Si_ONCV_PBE_sr.upf

K_POINTS gamma

CELL_PARAMETERS angstrom
10.66128839448742 0.00000000000000 0.00000000000000
0.00000000000000 10.66128839448742 0.00000000000000
0.00000000000000 0.00000000000000 10.66128839448742

ATOMIC_POSITIONS angstrom
Si 6.4057498415 3.9254970481 10.6478551711 
Si 8.6814978009 8.0206365172 3.4518693112 
Si 6.3928816664 2.0398029859 1.9419750036 
Si 4.7692953794 2.3348434810 7.4995234018 
Si 5.5833806999 10.0573477295 7.1683091552 
Si 9.3797482230 6.4581500740 1.7943161594 
Si 1.7454661359 8.2960922255 2.3884271164 
Si 0.6280639622 10.1655704680 2.9994681995 
Si 6.3408012726 6.9112335082 3.7063009587 
Si 7.1503129004 3.9817566670 5.6220918381 
Si 6.8651127746 0.7460876231 10.0798110642 
Si 1.7187702698 1.2641622714 8.8004991020 
Si 2.5692319063 2.1994237958 4.1315797528 
Si 4.7655959123 6.8062518013 8.9958139054 
Si 6.5778763426 7.6457323108 6.5009444856 
Si 2.0363380672 1.1728483363 1.8843294173 
Si 3.7566648851 4.5315912934 3.2175661762 
Si 9.7276047408 0.0797035788 1.1630506122 
Si 1.4286979352 8.1912171315 10.4384781283 
Si 9.0333842857 7.4035184998 6.8401546984 
Si 3.8016448609 8.4985607534 1.0612139855 
Si 5.7976832579 9.1487287648 2.8430990826 
Si 4.4497659049 10.0774975646 4.7434417551 
Si 6.3326347257 5.8197308023 1.4833157156 
Si 2.4969057259 7.5001310952 8.2427111545 
Si 0.1324814341 4.9199287231 4.3840284007 
Si 10.4967527307 2.6572195194 2.8561804835 
Si 9.3386489563 2.9018427817 8.7123835534 
Si 4.2448879259 0.2719246895 1.3205711483 
Si 1.6234157064 0.0891515060 5.4970988929 
Si 8.2977340639 0.2828663698 8.1505976227 
Si 1.3823959597 5.9122921082 2.4725660044 
Si 7.1070707147 5.9225482676 8.5211200396 
Si 4.2635558418 6.4831188114 4.7840399413 
Si 1.5684887486 5.1465450692 8.4598709378 
Si 6.8514556641 3.1894097135 8.2509949756 
Si 4.0423127851 3.2752757302 0.6871317644 
Si 10.0781798870 6.5821941644 10.3857260734 
Si 7.0682849475 7.8426569688 10.5546435267 
Si 4.8818679236 1.8375050387 4.9134253372 
Si 1.0371621189 6.9097409278 5.9937336902 
Si 1.4354038856 4.6648573983 0.1159287177 
Si 8.9515055908 2.1924299906 0.4923457610 
Si 8.5573151137 4.1609089572 2.2863132962 
Si 2.6745227905 8.1673465068 4.7113299544 
Si 0.2461915377 10.0172186400 9.6326233225 
Si 4.3019791252 6.1404543411 0.3659327322 
Si 6.9232167963 0.6082627513 3.8607083986 
Si 8.9413240604 2.4738560203 4.9933956615 
Si 10.4441712563 1.5397885602 6.5295273998 
Si 7.7676548049 9.6986913266 1.7921732404 
Si 6.2524405144 3.8208884864 3.4164631725 
Si 9.0228722553 8.5616116129 9.1202844474 
Si 3.0128054713 10.0254171708 7.3723555538 
Si 4.1979036279 1.0148352487 9.5364478399 
Si 5.4807124927 9.2524844235 9.6306829680 
Si 1.3428852249 3.3497341684 5.5853423770 
Si 0.6208633280 2.6884357719 10.6609792171 
Si 3.1905717940 3.7283378419 7.2363708203 
Si 10.0636378897 9.0532142821 5.2375071818 
Si 9.7294278211 5.3252602466 8.2956870965 
Si 8.6558147572 5.7649957477 4.9003545976 
Si 5.0603698752 5.2800137387 6.7644169057 
Si 8.0459464159 10.3631987710 5.8859054194 

