&CONTROL
   calculation      = 'scf'
   tstress          = .true.
   tprnfor          = .true.
   outdir           = './'
   disk_io          = 'none'
   pseudo_dir       = '/home/ppiaggi/pseudos'
/
&SYSTEM
   ecutwfc          = 30
   occupations      = 'smearing'
   degauss          = 0.01
   smearing         = 'fermi-dirac'
   input_dft        = 'PBE'
   ntyp             = 1
   nat              = 64
   ibrav            = 0
/
&ELECTRONS
   electron_maxstep = 100
   mixing_beta      = 0.5
/
&IONS
/
&CELL
/

ATOMIC_SPECIES
Si 28.085 Si_ONCV_PBE_sr.upf

K_POINTS gamma

CELL_PARAMETERS angstrom
10.65359182260477 0.00000000000000 0.00000000000000
0.00000000000000 10.65359182260477 0.00000000000000
0.00000000000000 0.00000000000000 10.65359182260477

ATOMIC_POSITIONS angstrom
Si 7.7246530908 2.8452228073 5.4444754866 
Si 5.1934129417 7.0901358154 10.3666479805 
Si 2.7275432320 9.8588232190 6.0654946611 
Si 7.0029468199 5.0198552773 8.0082943195 
Si 1.0558444594 6.0863757011 5.3813742622 
Si 10.2249658628 7.5567737908 6.4693403663 
Si 3.4445299617 1.7050221425 4.4924279069 
Si 8.0765625359 6.3826733968 6.0943019734 
Si 0.3683095843 9.8512698224 5.8369751165 
Si 0.4902314199 1.0871457775 7.5052317136 
Si 7.0985734601 7.4132699090 8.7646673781 
Si 0.1840120340 7.7957018946 1.0338256158 
Si 5.2931305611 8.8851914624 7.9683966181 
Si 3.1865425821 10.2978683916 9.0026153514 
Si 2.7851685102 4.7585333235 7.8848724582 
Si 6.7794131563 0.5121607733 8.3801472884 
Si 3.0285604690 7.7525015798 7.1752260533 
Si 4.0019791538 1.7943738171 0.4315226714 
Si 9.0772544158 1.7999349920 8.3972782641 
Si 4.7902171056 10.5323219869 4.7189871906 
Si 2.7573413283 4.9786258769 0.6323428773 
Si 9.3489955824 4.2822112331 0.2908675600 
Si 1.6031631511 1.6114836063 3.0716435943 
Si 8.2742505857 3.4876770086 2.7578740079 
Si 8.7567091450 9.3055502349 7.8411394638 
Si 5.9748432483 5.3887891621 1.6372120305 
Si 4.2658153553 3.7070664250 2.2578902901 
Si 7.5171104685 9.3167365063 0.0273470245 
Si 9.1101314001 7.6418214144 3.8354741672 
Si 0.5823913813 10.1309905293 3.2737954991 
Si 0.1261971219 4.6683932831 8.8088265162 
Si 6.6221235266 4.9561361446 4.3192431183 
Si 9.0544237685 6.7376617300 10.2506090583 
Si 9.1984177156 1.0942517233 5.1987823520 
Si 5.5553154559 8.1139779503 2.5270532875 
Si 2.6811148789 6.9373313479 10.2550409525 
Si 5.4792275031 0.2955423561 2.2583377410 
Si 5.2547350162 3.4271006855 7.1827261819 
Si 7.8612854059 1.2908317996 1.6697694071 
Si 3.1343080214 8.4542749803 3.6764373485 
Si 7.8512816832 7.1982484652 1.7324125270 
Si 6.0357711399 7.8649928559 5.3062344791 
Si 4.4256298862 4.2211022304 4.6827330177 
Si 8.6346189827 10.2071210965 3.3710521389 
Si 6.6511971787 2.0505287789 10.3400140009 
Si 2.3900587503 2.3466560172 6.5879148433 
Si 10.5132627111 3.2678188341 3.4887636749 
Si 0.8288089601 7.2348968211 8.6337880025 
Si 7.5608328093 9.5388532422 5.7062342377 
Si 1.7834325783 2.9923276032 9.7140089454 
Si 4.0191847046 1.8420806013 8.5695255367 
Si 6.1847722751 1.0156196928 6.0146024530 
Si 9.9204755549 10.0182329135 0.5574257542 
Si 7.1592563192 4.3369813487 10.3536399448 
Si 0.8767384044 7.3311094088 3.3271273798 
Si 4.7587250881 9.5209978224 0.3773438302 
Si 10.0925736772 1.8649751701 10.5947413814 
Si 0.5045658277 3.8332262593 5.6352813161 
Si 0.5378742825 5.2366984853 1.6750855495 
Si 2.5820151677 9.0355242966 1.2268250199 
Si 3.2514442635 6.2667090499 5.0743164387 
Si 1.9602715490 0.7964838318 0.8360864287 
Si 9.3027483403 3.8946868305 7.0342896871 
Si 0.6952320952 9.6901235925 9.0716293193 

