&CONTROL
   calculation      = 'scf'
   tstress          = .true.
   tprnfor          = .true.
   outdir           = './'
   disk_io          = 'none'
   pseudo_dir       = '/home/ppiaggi/pseudos'
/
&SYSTEM
   ecutwfc          = 30
   occupations      = 'smearing'
   degauss          = 0.01
   smearing         = 'fermi-dirac'
   input_dft        = 'PBE'
   ntyp             = 1
   nat              = 64
   ibrav            = 0
/
&ELECTRONS
   electron_maxstep = 100
   mixing_beta      = 0.5
/
&IONS
/
&CELL
/

ATOMIC_SPECIES
Si 28.085 Si_ONCV_PBE_sr.upf

K_POINTS gamma

CELL_PARAMETERS angstrom
10.77592136797737 0.00000000000000 0.00000000000000
0.00000000000000 10.77592136797737 0.00000000000000
0.00000000000000 0.00000000000000 10.77592136797737

ATOMIC_POSITIONS angstrom
Si 7.0453620459 1.1467843279 2.8550480387 
Si 10.3167270307 1.5438123748 10.4757580783 
Si 8.1240209989 1.5243079571 5.8975647814 
Si 2.1952491492 2.1914668008 0.1755731644 
Si 8.2431919133 8.8963420593 5.9887721799 
Si 9.1018281039 3.6669813860 9.9474900851 
Si 7.5655696500 8.0424472742 8.9805020052 
Si 10.6097889882 0.4528376212 5.6640290135 
Si 2.8379897552 8.1640535468 9.4004288850 
Si 5.1474421191 5.2122700620 9.3756873695 
Si 5.6332098784 2.8559963198 1.7653653181 
Si 10.0042576388 0.7845420328 1.8970578531 
Si 5.9078126826 8.4802729594 4.9999736351 
Si 4.0456041592 3.6018193895 3.5415819890 
Si 2.4592807746 5.9468969494 8.2592803639 
Si 9.7873275658 7.1464294124 6.8496605379 
Si 4.5340012433 0.7163961836 6.5321156871 
Si 5.6839429162 10.0993551449 8.7324833990 
Si 0.3787466963 7.7363033481 5.0084219575 
Si 1.5116246977 0.5725376334 2.9267402435 
Si 2.5950358320 8.1387624594 2.5376001711 
Si 7.8757222188 3.9728882418 2.1170913916 
Si 9.5473585728 9.5975743664 3.9774572324 
Si 5.8746551726 8.9226676352 1.5496529242 
Si 5.3902020756 5.5518624480 3.0561267314 
Si 2.9474946681 6.8248866947 0.7830711195 
Si 1.4134129503 4.6011460094 5.4459890206 
Si 2.9779150941 3.9381574472 9.4509464043 
Si 9.6815726735 4.8579900952 6.0566066049 
Si 7.3825406255 7.4299007999 0.1744104425 
Si 2.2210143772 2.9542727226 2.4066835024 
Si 10.0556695597 8.3698520931 9.1312140414 
Si 6.0814882073 5.0368703899 6.0311646545 
Si 4.4426645338 3.2010628738 5.7955060301 
Si 1.1206850463 10.3182787634 9.3068076801 
Si 0.1504016897 6.0328133705 9.1909126458 
Si 3.8871873391 8.8061368215 7.0582608238 
Si 5.4367001763 6.9711051718 7.5544165713 
Si 10.6426447725 6.5695943416 3.0511482557 
Si 7.7102148425 7.7711742297 3.0865040537 
Si 2.3055407044 3.0597366651 7.2827340418 
Si 9.2019040856 2.4351750385 3.7695466056 
Si 0.3830290474 4.0375222182 3.4506763164 
Si 4.3936556434 9.8819186035 0.1756636822 
Si 4.2750881806 1.3539514162 0.1533586025 
Si 9.3156547116 5.7750748832 1.0333235742 
Si 6.6960928825 3.2692636801 9.1787358547 
Si 9.9985787283 8.7780439945 0.9892166505 
Si 3.9359160556 6.9257924224 4.1312727341 
Si 1.7073908611 9.8493214414 1.0263159926 
Si 1.9719289548 0.6777149363 7.3240489243 
Si 2.3116937555 6.8820637335 5.8830603912 
Si 6.1494950471 0.1621582199 4.8483025419 
Si 5.2273024723 6.0816821739 0.9203746768 
Si 2.0699251837 9.7122840494 5.3668937577 
Si 10.6891320973 3.8382862080 8.1498508824 
Si 7.9452700153 0.7505849494 9.6764325590 
Si 1.2389831111 4.9738204740 0.8066057318 
Si 4.0201191051 10.2386985841 3.4928532726 
Si 9.4544162510 10.7723976417 7.8474677529 
Si 4.8850053301 2.0536535425 8.7596171690 
Si 7.6328113993 3.6835978567 7.0919032503 
Si 7.9773068295 5.5574767030 4.0125544083 
Si 7.9092784379 10.3756497688 1.0645392632 

