&CONTROL
   calculation      = 'scf'
   tstress          = .true.
   tprnfor          = .true.
   outdir           = './'
   disk_io          = 'none'
   pseudo_dir       = '/home/ppiaggi/pseudos'
/
&SYSTEM
   ecutwfc          = 30
   occupations      = 'smearing'
   degauss          = 0.01
   smearing         = 'fermi-dirac'
   input_dft        = 'PBE'
   ntyp             = 1
   nat              = 64
   ibrav            = 0
/
&ELECTRONS
   electron_maxstep = 100
   mixing_beta      = 0.5
/
&IONS
/
&CELL
/

ATOMIC_SPECIES
Si 28.085 Si_ONCV_PBE_sr.upf

K_POINTS gamma

CELL_PARAMETERS angstrom
10.71657878495759 0.00000000000000 0.00000000000000
0.00000000000000 10.71657878495759 0.00000000000000
0.00000000000000 0.00000000000000 10.71657878495759

ATOMIC_POSITIONS angstrom
Si 2.9365354855 1.9859642307 4.5087647590 
Si 10.6150606341 5.3027346481 3.4555393961 
Si 5.5904962216 7.2396598142 2.7967484318 
Si 9.2331042169 1.2129023869 7.7921851832 
Si 6.8827763075 5.5452508260 7.2128683673 
Si 5.3012343270 1.5540110896 10.1683829138 
Si 6.6038773447 4.0147733434 1.1854893783 
Si 6.9191376594 0.2800349202 3.2996453245 
Si 10.4111991559 4.1604223656 5.7543098449 
Si 5.2748608266 10.5258772655 4.8373779309 
Si 2.1940480410 10.5725693992 5.3188523826 
Si 1.8031822629 2.7303806594 9.0075309501 
Si 7.4110179090 10.2756880172 7.8181193039 
Si 8.0143612946 7.0268285596 2.4266621001 
Si 1.1858108757 5.2554316693 8.9939101784 
Si 5.5404497987 7.0365592131 5.5913642645 
Si 4.8739000314 0.2107650983 7.9232810915 
Si 10.3090701601 10.2667825402 4.7371029032 
Si 8.7581240120 2.5220503678 5.9239211373 
Si 3.5462445189 8.2013120115 4.0200137504 
Si 6.4002516312 6.5086176758 9.8247129487 
Si 5.3279507579 2.1699786050 2.2164564072 
Si 3.3392109333 5.0375957723 5.7274862482 
Si 10.0428703431 8.6179940278 9.5028405049 
Si 9.4938600119 5.1982158552 9.8187866807 
Si 4.8907143435 5.6440362492 0.8978156808 
Si 6.9570957814 8.8161971524 5.6818872055 
Si 2.7456303510 2.6350245414 2.0576045599 
Si 9.6574914534 7.8718307968 3.7714105557 
Si 10.2962959982 2.0846746379 9.8538191767 
Si 7.9907205218 9.6248166047 10.5206582916 
Si 6.0864487712 3.3966410790 8.0054236679 
Si 2.2296806654 10.5843147696 10.3553872136 
Si 8.2864016471 4.6610473436 2.6772692950 
Si 1.7800880357 6.7399135958 5.2631047397 
Si 3.3884000300 8.7601708786 6.5890027333 
Si 3.2475306018 7.5480293688 8.8892735032 
Si 8.2423779414 7.1244780254 0.2304503818 
Si 3.3856994521 10.3176327065 2.8052573954 
Si 7.4242636004 4.3944510131 4.8751645877 
Si 7.7453644505 1.1251764729 0.5917041094 
Si 3.6675776239 3.5620514726 10.1603990626 
Si 6.4210632272 1.7597586857 6.4878382296 
Si 2.2402793618 0.3811790625 8.0584064334 
Si 4.2832986580 5.3773327530 8.3797859146 
Si 0.4521946151 3.7452728201 1.3243762394 
Si 5.5454330078 8.9345939149 9.5384731294 
Si 7.9601889888 3.1638234049 9.6067163031 
Si 5.1892782285 3.2539176828 4.7163234569 
Si 8.9458034563 1.4003782161 4.0136052363 
Si 4.4278117229 10.4493823261 0.3930219537 
Si 0.7314300785 7.4278858040 7.5355659876 
Si 1.9128021473 2.9849851382 6.3548562034 
Si 1.3642633456 7.4855409979 2.7453088537 
Si 10.6069803337 10.6892836588 0.4457828860 
Si 9.3176473069 2.4217431904 1.7880075874 
Si 2.0241688341 5.5680557056 0.5578943750 
Si 1.7119734609 8.1516728186 0.0147017529 
Si 9.3279137894 5.6894852598 7.2993511581 
Si 9.0654004755 7.8984722116 6.1760929527 
Si 6.3227279002 9.3383410206 1.7365251429 
Si 10.6769595932 10.1052622647 7.1585031631 
Si 0.9123848696 10.1080485752 2.4787232398 
Si 3.5252400245 4.6043995081 3.2244470911 

