&CONTROL
   calculation      = 'scf'
   tstress          = .true.
   tprnfor          = .true.
   outdir           = './'
   disk_io          = 'none'
   pseudo_dir       = '/home/ppiaggi/pseudos'
/
&SYSTEM
   ecutwfc          = 30
   occupations      = 'smearing'
   degauss          = 0.01
   smearing         = 'fermi-dirac'
   input_dft        = 'PBE'
   ntyp             = 1
   nat              = 64
   ibrav            = 0
/
&ELECTRONS
   electron_maxstep = 100
   mixing_beta      = 0.5
/
&IONS
/
&CELL
/

ATOMIC_SPECIES
Si 28.085 Si_ONCV_PBE_sr.upf

K_POINTS gamma

CELL_PARAMETERS angstrom
10.58027883226589 0.00000000000000 0.00000000000000
0.00000000000000 10.58027883226589 0.00000000000000
0.00000000000000 0.00000000000000 10.58027883226589

ATOMIC_POSITIONS angstrom
Si 4.0543099471 4.0363340534 1.1346608428 
Si 9.6612652326 9.6616990240 0.9736914226 
Si 1.5513651246 10.1250200144 0.6371063023 
Si 0.4488323565 3.6993521726 3.8670178512 
Si 7.4904036218 10.3045779265 1.8713973987 
Si 4.9085510798 6.2099042156 9.3843899159 
Si 8.1897388921 3.8854169561 1.8202311703 
Si 9.3665304052 7.7053419863 8.7631476837 
Si 8.9820007513 3.8693666731 7.6072310607 
Si 1.3220587415 0.9930067797 9.3603938435 
Si 9.2844380217 3.0988261263 5.0382229771 
Si 0.9747515666 1.7273469024 2.5401768237 
Si 3.1581497498 1.8782639997 5.8888033333 
Si 1.5998757031 0.2960076350 4.4976236302 
Si 4.9419212792 4.0777981661 3.9165864576 
Si 2.9517285097 1.7641345319 1.3083996015 
Si 3.7740806820 7.2613829062 5.6828158847 
Si 0.5762464224 7.3762318329 0.5316928682 
Si 8.2517181655 10.2720435690 7.2712014050 
Si 5.6779277959 8.8001151779 8.9033257979 
Si 6.3097608872 4.5971734737 8.1386890467 
Si 2.8832529451 9.9520218752 7.5804206341 
Si 7.2497869206 4.2188967646 4.1903405921 
Si 3.4308775972 7.4386237372 7.9575969942 
Si 6.2635991307 3.8170789352 0.0714651282 
Si 0.7344141847 9.5349261231 6.5064800115 
Si 7.3734915407 8.3383706491 10.3374085317 
Si 1.4629880555 9.1720966211 2.9100104703 
Si 3.9974409484 5.0931346243 5.9531737497 
Si 5.5632481536 8.4383966052 2.3221384375 
Si 9.3842312117 0.5325213040 5.2101313476 
Si 2.0013232228 3.8496450334 5.6463350833 
Si 0.5092341103 5.2172941964 2.2088659724 
Si 6.5124049677 8.8724313837 6.6810969334 
Si 7.6548846365 1.6460480399 8.1564215940 
Si 9.8417224684 2.4037547085 9.5773742018 
Si 6.5274818650 1.1295294076 5.1564893339 
Si 6.5018035283 6.9845499106 4.5939993901 
Si 5.5347872036 2.8151371100 6.8602104737 
Si 0.8796316858 4.4653537798 7.7901746620 
Si 4.8506134729 0.1932371546 10.0009239240 
Si 4.0223998262 2.0429248792 8.3860771264 
Si 3.6990241839 9.0903957079 0.7654524907 
Si 4.6642101204 9.8897463540 5.7667280761 
Si 9.5774482637 5.1718730593 10.4334457226 
Si 9.0130538697 6.2158185914 5.1709525751 
Si 1.1272229068 6.5603442111 8.5693487163 
Si 6.7603538021 1.8665198902 2.9071749556 
Si 9.4212198665 1.8871620142 1.2032633708 
Si 6.8970298441 1.4732932471 10.4092697855 
Si 8.8869263657 6.6533342817 2.5621309023 
Si 0.8454013097 7.0668644799 5.8332991905 
Si 7.7737858101 9.5460565764 3.9675834015 
Si 3.0331014342 4.2815214351 9.3224847044 
Si 4.1552669677 9.9575659413 3.4980094664 
Si 3.1131200830 6.8921523355 0.4509865013 
Si 4.3769661304 6.4610059731 2.6292945123 
Si 7.8100338453 6.3429935430 7.1714187953 
Si 10.4641602721 9.9906504732 8.6168647485 
Si 6.8987755901 6.4000635670 1.1765481667 
Si 4.2634820596 1.6968545388 3.2708508799 
Si 9.8750397664 8.5451410383 3.3903445490 
Si 2.0199656741 6.6209797890 3.6651038100 
Si 1.2308673182 3.5990511293 0.1634854105 

