&CONTROL
   calculation      = 'scf'
   tstress          = .true.
   tprnfor          = .true.
   outdir           = './'
   disk_io          = 'none'
   pseudo_dir       = '/home/ppiaggi/pseudos'
/
&SYSTEM
   ecutwfc          = 30
   occupations      = 'smearing'
   degauss          = 0.01
   smearing         = 'fermi-dirac'
   input_dft        = 'PBE'
   ntyp             = 1
   nat              = 64
   ibrav            = 0
/
&ELECTRONS
   electron_maxstep = 100
   mixing_beta      = 0.5
/
&IONS
/
&CELL
/

ATOMIC_SPECIES
Si 28.085 Si_ONCV_PBE_sr.upf

K_POINTS gamma

CELL_PARAMETERS angstrom
10.69896671873484 0.00000000000000 0.00000000000000
0.00000000000000 10.69896671873484 0.00000000000000
0.00000000000000 0.00000000000000 10.69896671873484

ATOMIC_POSITIONS angstrom
Si 5.1322408401 2.4645283816 3.9266598723 
Si 5.4841833504 9.2761539307 9.7254784360 
Si 1.5997522997 0.6744949588 5.1302187354 
Si 1.5578230491 7.9669106743 2.2297823528 
Si 2.8595770287 4.8903158047 9.9045684399 
Si 0.5700741136 2.0636060017 8.9930592713 
Si 3.5174350943 3.1496688123 2.2022860084 
Si 8.1908507467 1.0668303480 3.0509708443 
Si 9.1922954295 5.4355779446 8.7460736246 
Si 9.2663964730 2.8978151358 4.2697115412 
Si 3.9179188165 7.9396818040 1.8053650421 
Si 6.1468238541 4.9177265574 5.7640790187 
Si 4.8112290427 0.1820086820 4.1355251006 
Si 6.5880599405 1.4075132656 9.6660563748 
Si 5.4304852364 8.3971268251 6.0723804437 
Si 4.8661789358 6.9710187553 3.9264030971 
Si 0.5785616039 5.6485836730 10.6965701502 
Si 3.2049289754 6.8581125595 7.6464338252 
Si 8.2150304115 10.0382948249 7.0584721092 
Si 7.7850068422 7.6642476048 4.5141401349 
Si 4.4811552205 10.1160014202 2.0181353932 
Si 0.9052855796 9.3078014742 3.8477656918 
Si 7.9451917719 8.3261284819 2.1114838778 
Si 10.4725230881 2.5785579689 0.4808714786 
Si 0.6656148165 5.9046741403 7.2974121329 
Si 0.0893063080 0.5445763361 7.2361819464 
Si 1.0743260441 1.1213159059 2.1838730866 
Si 7.1135931858 10.0892112075 4.6857943569 
Si 5.8968531957 2.4907943449 6.1470806293 
Si 10.6583320431 7.8901562871 0.6775441644 
Si 5.3226931467 5.2930356110 1.1073644533 
Si 4.2610453782 2.8701690058 10.5395093188 
Si 7.5746009627 8.1285078677 8.9811406224 
Si 7.6520079869 6.8549349664 0.3697926663 
Si 1.9745264048 3.6884366794 7.9594534945 
Si 8.1545170558 1.8544412024 6.4461274480 
Si 3.4236051562 5.2933779779 5.5495433380 
Si 0.8598331593 2.7359076724 3.7450984071 
Si 2.5274704028 8.3191955515 5.5812443764 
Si 1.9894942593 0.1342335160 9.6965805269 
Si 9.0805661201 0.5784021893 10.2381515232 
Si 8.6389127739 2.9909175442 8.8225391397 
Si 6.7011694167 10.1699670083 0.9983526814 
Si 8.5230215664 4.2605425267 0.7064987780 
Si 2.9604789838 1.0645557477 1.1765011763 
Si 10.3076520110 6.1034930389 4.9559325676 
Si 4.5381058203 7.1155617956 10.3365285222 
Si 3.8089819374 10.3127019233 6.4451645410 
Si 9.8059346657 10.3149487063 2.2408985792 
Si 9.8096686051 9.1512113973 9.3514211615 
Si 2.2800567974 8.3329972186 9.6873794155 
Si 8.5732211183 5.1526972645 3.1483207425 
Si 6.2204541430 4.8361790331 3.3290155914 
Si 9.9749783398 8.6298293512 5.3813769792 
Si 8.5325971417 4.8739677836 6.2255575502 
Si 4.1624223030 0.2518868434 8.6373400258 
Si 6.9277093380 2.6028018275 1.5629799510 
Si 1.6443134960 6.3204573850 3.8278121188 
Si 6.2554397642 4.3288340313 9.4435178671 
Si 2.8086713451 3.2195330650 5.3979603776 
Si 4.3450322669 2.6571418794 7.8071002085 
Si 0.8570225408 8.7413446813 7.6034774739 
Si 5.9441854244 6.2730823603 7.8074318764 
Si 1.6349305022 4.8431761573 1.9998722570 

