&CONTROL
   calculation      = 'scf'
   tstress          = .true.
   tprnfor          = .true.
   outdir           = './'
   disk_io          = 'none'
   pseudo_dir       = '/home/ppiaggi/pseudos'
/
&SYSTEM
   ecutwfc          = 30
   occupations      = 'smearing'
   degauss          = 0.01
   smearing         = 'fermi-dirac'
   input_dft        = 'PBE'
   ntyp             = 1
   nat              = 64
   ibrav            = 0
/
&ELECTRONS
   electron_maxstep = 100
   mixing_beta      = 0.5
/
&IONS
/
&CELL
/

ATOMIC_SPECIES
Si 28.085 Si_ONCV_PBE_sr.upf

K_POINTS gamma

CELL_PARAMETERS angstrom
10.56897683613632 0.00000000000000 0.00000000000000
0.00000000000000 10.56897683613632 0.00000000000000
0.00000000000000 0.00000000000000 10.56897683613632

ATOMIC_POSITIONS angstrom
Si 4.2283517008 0.8694124897 5.5131165250 
Si 5.1803100134 0.8304108514 1.8306630468 
Si 4.6813697549 6.0226891742 6.3085905666 
Si 1.7898879341 7.7829628352 5.7444291520 
Si 8.2981264731 0.8333067511 4.9566916015 
Si 3.3522257970 0.8347547009 9.9005736031 
Si 2.9430689967 3.5469274883 3.8368239539 
Si 10.0873591307 7.6872290430 6.3845709410 
Si 7.1533054712 0.6572244263 10.1606761230 
Si 1.5735938232 7.4143486301 9.8968110473 
Si 0.0536709554 2.7709215020 6.2990679184 
Si 5.3283813789 2.2064324492 9.7488348026 
Si 7.0490319457 5.2748706491 3.0230338755 
Si 6.0402865206 0.4366615056 4.0266639158 
Si 5.5671662725 5.8424986881 0.9929448048 
Si 6.5560737282 7.3722312574 9.6666715767 
Si 9.9823035009 10.5481348138 9.1269562056 
Si 1.5973423141 1.6139144698 3.9628907096 
Si 4.5933830228 9.9448470470 7.7527566994 
Si 5.3092726687 8.4846689143 4.7293740477 
Si 6.7754856873 9.4103950264 8.3453169547 
Si 1.9380966963 2.1078767402 0.9340217020 
Si 5.8455636914 7.8983972002 2.5457283126 
Si 1.7247407609 0.5408536499 8.1042174551 
Si 0.2484238005 5.4249712582 0.7870410550 
Si 2.9544623538 6.1448982533 4.0445783316 
Si 1.1557704619 0.3034395526 5.7082938202 
Si 5.5049678438 9.1862375967 0.5985782307 
Si 3.0564741182 9.2633699896 4.3885456827 
Si 3.2700097262 8.8537058785 1.1244440146 
Si 8.6494921080 7.0834868102 4.2378426420 
Si 6.6555278002 4.2133014778 10.0080495285 
Si 0.6075660886 9.8604960429 1.6665691124 
Si 9.8854493972 2.3069222810 3.6071706562 
Si 3.2706227268 6.4847437035 1.6260370862 
Si 4.2617602366 6.7249765470 8.5701085230 
Si 2.5713475124 4.4582269470 0.7504237778 
Si 3.8163201388 4.3633281040 9.2794031275 
Si 8.3281740743 8.4251761437 2.1523404257 
Si 7.9573192461 5.4325386456 8.1331024688 
Si 8.6232810455 6.8866501856 0.2531808970 
Si 8.5291325998 1.8662276538 7.1254879242 
Si 5.7425267362 1.7875627592 7.3247659824 
Si 8.4310630638 4.1976488231 4.8207639904 
Si 0.2698925632 5.1310691503 5.6385491421 
Si 6.8896623440 7.5896985248 6.4797657154 
Si 8.6772251033 2.6912948305 9.4178567240 
Si 3.7623760811 3.8107291501 6.3223936503 
Si 2.7263944026 8.5578379409 8.1825652804 
Si 1.9391747319 2.8806486195 8.0252249222 
Si 5.6091673865 3.2438409395 4.1788571823 
Si 4.5486445438 3.2131697687 1.7983748225 
Si 8.5541599370 4.1625386820 1.2679178751 
Si 8.1004971753 0.3609855176 1.8944151150 
Si 2.8854469350 0.3386173351 2.3552964879 
Si 6.7298065694 3.9920188098 6.5240920042 
Si 0.5047658785 7.1275383057 3.2367702940 
Si 10.1583826550 8.6572603060 10.2945427836 
Si 0.6159895631 4.5106807790 3.1537615499 
Si 10.0415214782 6.1608679773 8.3128596268 
Si 10.0585480998 1.7101555729 0.7973616608 
Si 0.2042528756 4.1282000763 9.3020841518 
Si 8.7744702591 9.6980825759 7.0706032275 
Si 9.9880107484 9.7544680673 4.1449413356 

