&CONTROL
   calculation      = 'scf'
   tstress          = .true.
   tprnfor          = .true.
   outdir           = './'
   disk_io          = 'none'
   pseudo_dir       = '/home/ppiaggi/pseudos'
/
&SYSTEM
   ecutwfc          = 30
   occupations      = 'smearing'
   degauss          = 0.01
   smearing         = 'fermi-dirac'
   input_dft        = 'PBE'
   ntyp             = 1
   nat              = 64
   ibrav            = 0
/
&ELECTRONS
   electron_maxstep = 100
   mixing_beta      = 0.5
/
&IONS
/
&CELL
/

ATOMIC_SPECIES
Si 28.085 Si_ONCV_PBE_sr.upf

K_POINTS gamma

CELL_PARAMETERS angstrom
10.74752879893262 0.00000000000000 0.00000000000000
0.00000000000000 10.74752879893262 0.00000000000000
0.00000000000000 0.00000000000000 10.74752879893262

ATOMIC_POSITIONS angstrom
Si 9.1014265406 3.0124355946 9.1174081159 
Si 10.3343293067 7.1064594974 10.5054622078 
Si 9.4949688026 4.8940699466 7.3166919082 
Si 7.1795641883 1.3518886575 0.1373329977 
Si 7.8035872054 9.5477284215 9.3773908375 
Si 10.1667108476 4.9001423004 10.3478174554 
Si 5.5315596173 7.8912440503 8.9446523380 
Si 7.7833173661 9.9601755867 2.1537725287 
Si 2.8883123845 6.5204074995 5.0706948349 
Si 2.9410075182 9.1712209926 7.9787934199 
Si 7.8173010521 4.9237868637 0.6965537900 
Si 5.7777532595 0.8355096646 8.2985324016 
Si 2.8579828582 4.8975199033 2.2000943778 
Si 2.5263571096 7.3629062820 0.4615440262 
Si 8.2953081430 8.7664260679 7.0497017978 
Si 7.7716562973 9.7377984683 4.7241622638 
Si 3.9363791504 7.0725295490 2.5637477623 
Si 4.8243507273 0.8278520503 10.5980736635 
Si 4.4272940233 0.7586712822 2.2087138959 
Si 0.0110114881 1.3174858178 9.1984767256 
Si 1.0986016463 1.9770724077 0.8559579129 
Si 5.3917235201 9.5292964096 7.2011237310 
Si 1.9015602704 0.1325062826 2.3340623243 
Si 7.2200286342 1.7730413210 2.4098216548 
Si 10.2380744388 7.0411897550 8.1513234997 
Si 8.2039863908 6.4551270096 5.9252845873 
Si 6.1420192531 6.7282969491 1.7708380776 
Si 10.7405214102 2.0079930481 4.8826775661 
Si 4.8131732973 3.3693610260 2.7790637542 
Si 1.3003220143 4.8495536823 3.9891172742 
Si 6.9750279677 3.4015498747 8.8958478097 
Si 10.6491244252 3.8761607465 1.9681412113 
Si 9.8945081857 1.1991662733 2.7248532190 
Si 5.0666752591 1.9330075397 4.9059459659 
Si 3.0978569535 1.8006624700 7.8801633481 
Si 8.6873457510 3.9355515907 3.2572750482 
Si 7.2586337576 1.1154537715 5.6256542319 
Si 8.0246531253 7.7817052368 0.4432012188 
Si 10.3339316482 9.9633676027 6.0462265289 
Si 3.0222803310 9.1391181241 4.1748560669 
Si 1.5911716387 5.8079215728 7.5465815492 
Si 3.7833450878 3.6338147196 9.3150659180 
Si 0.7732653515 9.3407202693 0.5186005071 
Si 1.8995934726 4.5653352832 10.5427883753 
Si 0.0788570907 9.8345369750 3.8577932198 
Si 9.7877744772 8.2940614297 2.6032986683 
Si 5.5227358961 3.6173602530 0.1423950838 
Si 5.7316141184 8.5848788114 5.0843871866 
Si 3.4447656880 3.8015299065 6.1805813864 
Si 1.0927442431 0.8869183191 6.7631404374 
Si 5.3760858657 9.4970000855 2.6391094342 
Si 6.3266725454 5.2314348756 3.5072410730 
Si 3.1614500814 6.6754298549 8.9446845806 
Si 7.4221036707 6.1352913000 8.9753902703 
Si 5.1454331501 5.4069850110 7.6629450435 
Si 4.5707950278 8.8320612263 0.0615413172 
Si 5.4366589380 6.3734242956 5.5770539067 
Si 2.5005200504 0.2966124493 9.8883820943 
Si 9.6714432255 6.2009157109 4.2880920303 
Si 8.7947458063 3.0991574045 5.6261916084 
Si 1.2403185610 3.8664772231 6.2018829885 
Si 1.4057660194 8.2724481492 6.3615160337 
Si 9.3804646308 10.6879337517 0.1456924256 
Si 3.6452930804 0.2979000032 5.7603315153 

