&CONTROL
   calculation      = 'scf'
   tstress          = .true.
   tprnfor          = .true.
   outdir           = './'
   disk_io          = 'none'
   pseudo_dir       = '/home/ppiaggi/pseudos'
/
&SYSTEM
   ecutwfc          = 30
   occupations      = 'smearing'
   degauss          = 0.01
   smearing         = 'fermi-dirac'
   input_dft        = 'PBE'
   ntyp             = 1
   nat              = 64
   ibrav            = 0
/
&ELECTRONS
   electron_maxstep = 100
   mixing_beta      = 0.5
/
&IONS
/
&CELL
/

ATOMIC_SPECIES
Si 28.085 Si_ONCV_PBE_sr.upf

K_POINTS gamma

CELL_PARAMETERS angstrom
10.62446391067865 0.00000000000000 0.00000000000000
0.00000000000000 10.62446391067865 0.00000000000000
0.00000000000000 0.00000000000000 10.62446391067865

ATOMIC_POSITIONS angstrom
Si 9.8371273881 3.4396914400 9.3354083289 
Si 0.2025203437 2.8238337650 1.9282445796 
Si 6.5186079590 8.1770867755 5.2512900303 
Si 9.6841457323 8.0826246668 4.4930857878 
Si 7.8802286293 4.4831094162 4.1496818653 
Si 8.3316621009 7.1689313950 9.6100932188 
Si 5.8477155609 8.1406129909 9.3428667025 
Si 9.5253206213 2.7666529002 4.1473126099 
Si 7.7397944654 2.6597176709 1.2900224080 
Si 8.5822507067 8.3897354206 1.3609513291 
Si 1.9898133480 8.4241055614 2.8525410665 
Si 6.2946230108 3.7341165839 9.1614327323 
Si 4.1209958127 2.1205898743 4.1489806507 
Si 5.2119370160 1.2231626566 6.3947479587 
Si 4.0845326526 8.5379785656 3.9845776961 
Si 1.2479070331 2.9109118712 10.4075761044 
Si 10.4015945312 9.4210840058 10.6179086164 
Si 3.5386051990 9.7731999888 6.0264615417 
Si 5.2719121148 6.0466267742 6.0827074537 
Si 7.8314517155 0.1426759259 1.8311051061 
Si 8.4863436710 7.9687835360 6.8261224424 
Si 5.7947526083 3.6507145422 5.6681514963 
Si 6.6420111073 1.3529936056 10.0431782412 
Si 1.2523799324 6.1806012642 1.7487655108 
Si 4.7634146476 10.2054881764 8.6625397805 
Si 5.6272366858 7.6953735818 0.9194262326 
Si 2.3378707857 3.0683133040 5.9234679886 
Si 7.3284789695 10.0275496548 7.4733541594 
Si 9.4475707944 0.9616606015 9.9539114954 
Si 7.7552318114 6.9733562633 3.1366711048 
Si 0.0246931665 9.4196815766 2.8466444890 
Si 3.2277121361 8.3280604076 0.6895946419 
Si 1.5999698937 0.7937356372 2.6569128125 
Si 3.0197276305 5.3785392346 6.7039942298 
Si 6.4371076963 10.6140413116 4.5235779992 
Si 5.4779310945 9.8085688291 2.3096309606 
Si 1.8842274256 5.4427003722 10.2723160544 
Si 8.7447943801 0.3974101975 4.2012530131 
Si 9.6437833939 5.1062448490 2.0194024800 
Si 3.8907105575 6.1553787868 4.0209664850 
Si 9.1168737307 0.9904582109 7.7412287680 
Si 0.0355139705 5.4832433264 4.7757496502 
Si 0.2072503551 7.1748067235 9.2743601592 
Si 10.5664862111 2.7043510438 6.0980066817 
Si 0.1946805518 4.9389307914 7.8404612609 
Si 2.2304574556 10.5411893625 0.3345888048 
Si 1.8776508825 4.1543035071 3.4850685254 
Si 10.2906857525 10.4669774821 6.2474185177 
Si 4.1735869091 4.3952238507 10.5115152348 
Si 1.7767503487 0.2786754386 5.3295923294 
Si 8.5637322661 5.1013682201 6.6410230322 
Si 2.2781188007 1.1031380878 8.7694325119 
Si 3.9397955807 6.6648112069 8.8074680927 
Si 3.5502814849 2.6644030595 1.8083687533 
Si 3.8048542646 2.8315152524 8.1596945280 
Si 6.6105733186 5.7967606320 8.0123969604 
Si 7.6290556780 2.9647779032 7.4634946569 
Si 0.5890989002 8.3646510613 7.1899678335 
Si 4.6277296190 0.8285679421 0.7685843438 
Si 6.1641227206 3.1428120450 2.8924359284 
Si 2.7512899254 8.8923150615 8.2712195257 
Si 1.5074626864 7.3055407519 5.1609714626 
Si 8.6270115732 4.7482641620 10.5966490642 
Si 5.3088215024 5.3258525181 2.2253364639 

