&CONTROL
   calculation      = 'scf'
   tstress          = .true.
   tprnfor          = .true.
   outdir           = './'
   disk_io          = 'none'
   pseudo_dir       = '/home/ppiaggi/pseudos'
/
&SYSTEM
   ecutwfc          = 30
   occupations      = 'smearing'
   degauss          = 0.01
   smearing         = 'fermi-dirac'
   input_dft        = 'PBE'
   ntyp             = 1
   nat              = 64
   ibrav            = 0
/
&ELECTRONS
   electron_maxstep = 100
   mixing_beta      = 0.5
/
&IONS
/
&CELL
/

ATOMIC_SPECIES
Si 28.085 Si_ONCV_PBE_sr.upf

K_POINTS gamma

CELL_PARAMETERS angstrom
10.77843135694601 0.00000000000000 0.00000000000000
0.00000000000000 10.77843135694601 0.00000000000000
0.00000000000000 0.00000000000000 10.77843135694601

ATOMIC_POSITIONS angstrom
Si 1.1931831296 5.3443881825 5.1869153003 
Si 10.7510325844 4.2855797565 7.3102447208 
Si 7.4718996343 9.2309180749 1.8361488954 
Si 0.2595564833 0.0811099594 7.9204871689 
Si 9.4876279745 3.7912701161 3.1582851778 
Si 6.7322405608 6.4124983946 8.9816776282 
Si 5.2515966669 9.7357582428 9.3062269748 
Si 5.6066166389 3.9350112767 6.5431114258 
Si 7.5319247185 0.3823831757 10.6602566355 
Si 8.4084159780 8.0577289354 10.6507392807 
Si 4.5225651268 7.9050308984 4.0791081255 
Si 6.0904496441 5.3395702236 0.0166595746 
Si 3.6294643045 5.1948805611 4.3711281662 
Si 7.4910960205 5.8959744072 2.0483654304 
Si 3.4487639029 7.5634408518 6.3827607025 
Si 1.0391086869 6.7401519295 7.5677198890 
Si 9.8079629544 6.4046516966 1.4599061920 
Si 6.8365757764 7.6244144380 3.3744681755 
Si 3.6778486829 10.0948955756 6.5583844631 
Si 0.8420272253 2.4233578357 8.3084244703 
Si 8.9465183851 8.6878252541 6.4094265417 
Si 0.3213352184 0.1239541163 0.7888291994 
Si 3.3909160618 9.5746961430 2.5138104317 
Si 6.1687333911 9.4436950883 5.5790346331 
Si 4.2111978017 5.7775194465 8.0691648511 
Si 8.0008511531 3.0347751329 9.0695002869 
Si 5.9195899503 3.1459869876 10.3571024752 
Si 7.7678322456 3.9197059041 4.7025649304 
Si 2.9867033290 0.8288355031 0.3637483457 
Si 7.7202023575 4.7618463029 7.5416253067 
Si 10.3407408164 6.6423053296 4.0826650078 
Si 0.7619941389 1.3787877176 5.6783363212 
Si 6.2145525028 8.4373884015 7.8310261887 
Si 4.7603373225 1.5745671448 4.8683803184 
Si 0.5686527929 9.6217871096 4.0806278843 
Si 4.2968971095 3.3450861716 3.4485914479 
Si 5.0462244358 1.6900041446 7.3121309463 
Si 3.9607070570 6.5212096533 0.0175963281 
Si 6.3618721026 3.4983446871 2.5369948375 
Si 2.1673054204 4.5867614639 9.3559263218 
Si 8.8004814186 9.7305522604 8.7096084639 
Si 1.5958437683 7.6500024340 2.5345589120 
Si 6.4782468259 0.5043723840 3.5776847203 
Si 8.1338785529 6.3717990378 5.1878206886 
Si 2.2186646458 7.6529557242 9.4793178039 
Si 9.7328588447 5.4656886490 9.3255203669 
Si 2.7452772450 0.4555223774 4.0980566078 
Si 2.7093419549 9.8383473524 8.9976297066 
Si 0.7192705927 3.1522384778 3.8647682395 
Si 0.8632230105 8.7888838265 6.3279416006 
Si 0.3682461852 8.6359163287 0.3217340203 
Si 9.4962830549 10.6147608768 2.6134893648 
Si 10.2803708224 4.0480123510 0.4756672656 
Si 5.4912011960 1.2546417452 1.2168310080 
Si 7.1119754760 0.8478540452 7.9831421904 
Si 8.4404171407 1.8248746562 2.1638778792 
Si 1.6238137976 4.2397283095 0.8990839295 
Si 9.2540054748 2.1352611440 6.5092887082 
Si 8.3781932565 0.0656304075 5.3394732178 
Si 3.6884007672 2.4109087475 9.2832258022 
Si 2.9953799663 5.8948318934 2.0069870324 
Si 5.0484771280 9.0347075105 0.7142791011 
Si 2.5014799062 2.5022559532 2.0992935185 
Si 10.1216584206 2.1414695204 10.2668870047 

