&CONTROL
   calculation      = 'scf'
   tstress          = .true.
   tprnfor          = .true.
   outdir           = './'
   disk_io          = 'none'
   pseudo_dir       = '/home/ppiaggi/pseudos'
/
&SYSTEM
   ecutwfc          = 30
   occupations      = 'smearing'
   degauss          = 0.01
   smearing         = 'fermi-dirac'
   input_dft        = 'PBE'
   ntyp             = 1
   nat              = 64
   ibrav            = 0
/
&ELECTRONS
   electron_maxstep = 100
   mixing_beta      = 0.5
/
&IONS
/
&CELL
/

ATOMIC_SPECIES
Si 28.085 Si_ONCV_PBE_sr.upf

K_POINTS gamma

CELL_PARAMETERS angstrom
10.79339217033431 0.00000000000000 0.00000000000000
0.00000000000000 10.79339217033431 0.00000000000000
0.00000000000000 0.00000000000000 10.79339217033431

ATOMIC_POSITIONS angstrom
Si 0.2020814436 5.5450188804 9.6612085052 
Si 1.0968029256 0.2810394247 10.6503581373 
Si 4.7306358543 4.8938535307 7.5906904984 
Si 8.3254398770 4.4514000055 2.9244156416 
Si 0.9479857930 6.8923904052 6.3686842237 
Si 9.4752815317 6.4587766681 5.5322395040 
Si 9.9622038327 1.8367223390 9.7191474344 
Si 7.2230243875 9.7440693769 0.8781039754 
Si 1.2864536194 2.3474116896 4.8409119421 
Si 1.7829388658 9.2500342305 6.6005262875 
Si 4.9742535090 7.5057465020 7.4871494873 
Si 0.2836632983 3.6107242761 1.9261024196 
Si 6.3664607849 5.4786179317 3.9331444870 
Si 7.1993760653 7.8394350144 4.3765154506 
Si 10.4296548542 8.6318319006 10.1124910253 
Si 1.8056805431 4.5322856864 4.5788160001 
Si 0.3845847531 7.6148784903 2.1512309935 
Si 5.7360511284 6.2104530945 10.1458318137 
Si 0.4065234020 1.0613466323 2.2828779978 
Si 5.0145128618 6.0748988822 1.8841053306 
Si 2.8790510143 4.7324275574 2.1720298602 
Si 8.8733988107 2.0758283558 3.9871762083 
Si 0.7402853094 10.3147699879 4.6023671818 
Si 9.1070109909 8.0388969017 1.3971830297 
Si 3.1484432895 1.8259397402 2.6882886011 
Si 2.4576661906 2.0141980865 7.0231955249 
Si 7.0788678417 9.5565557748 5.9797335434 
Si 2.8045981951 7.2110976892 8.7403918390 
Si 2.7534051360 3.8895931496 10.7024362545 
Si 7.7087486220 8.8216552887 8.1363720264 
Si 9.5030961033 8.7348332420 4.1378519629 
Si 3.8294523685 8.2186176747 0.7800373728 
Si 2.1065247631 9.6558873629 2.4163382920 
Si 2.3728733017 9.4950442328 9.3290526546 
Si 0.9042833481 3.4381919023 8.9779220205 
Si 10.7844660350 5.7632288899 3.5602651677 
Si 7.9896898268 4.6634254013 5.8575415507 
Si 6.7875865672 1.2613050156 4.8677874886 
Si 9.4147090148 10.6532291796 5.8510655154 
Si 3.2740244074 1.5316363159 0.3327484079 
Si 4.2770543418 9.9995273828 3.6576755321 
Si 4.5274394533 3.9998800308 4.4211353339 
Si 7.6339072407 6.0267603531 0.9962365734 
Si 9.7000755104 2.6897133288 6.0757191800 
Si 8.7111309528 4.4069636099 10.4685758264 
Si 7.7413338729 5.7587604255 8.1523678336 
Si 6.6002456593 1.1822542114 0.9082639511 
Si 8.3011331579 2.8991806907 8.3240259426 
Si 6.2040741997 1.8957729876 9.4045200526 
Si 4.6503006364 0.8512500157 6.9141930574 
Si 1.9089409260 6.6653190207 0.3430744462 
Si 8.9128810393 10.7795442482 2.5753141652 
Si 4.5841803160 0.2284291932 9.2871095326 
Si 4.7835666495 3.9988222784 9.7149703916 
Si 5.8795061037 8.5769582948 2.5261070903 
Si 5.6354243332 1.5638761783 3.0619450446 
Si 9.2886206075 10.5572219563 8.7328148777 
Si 9.6852453896 7.1913241947 8.1579803975 
Si 6.0232740874 3.0589984486 6.4297100630 
Si 5.5013380223 8.9519854991 9.5205813986 
Si 2.6440356932 4.7039437955 6.9982843758 
Si 8.6570560581 2.4602997783 0.9771948709 
Si 4.2926939670 9.4047359205 5.9515196163 
Si 0.9651116684 0.3330387501 7.5914568293 

