&CONTROL
   calculation      = 'scf'
   tstress          = .true.
   tprnfor          = .true.
   outdir           = './'
   disk_io          = 'none'
   pseudo_dir       = '/home/ppiaggi/pseudos'
/
&SYSTEM
   ecutwfc          = 30
   occupations      = 'smearing'
   degauss          = 0.01
   smearing         = 'fermi-dirac'
   input_dft        = 'PBE'
   ntyp             = 1
   nat              = 64
   ibrav            = 0
/
&ELECTRONS
   electron_maxstep = 100
   mixing_beta      = 0.5
/
&IONS
/
&CELL
/

ATOMIC_SPECIES
Si 28.085 Si_ONCV_PBE_sr.upf

K_POINTS gamma

CELL_PARAMETERS angstrom
10.66743177319831 0.00000000000000 0.00000000000000
0.00000000000000 10.66743177319831 0.00000000000000
0.00000000000000 0.00000000000000 10.66743177319831

ATOMIC_POSITIONS angstrom
Si 2.2173857055 1.3665726822 2.2032620259 
Si 9.3631568926 1.3766960749 3.7565467664 
Si 9.2197119375 4.5701517877 3.8430703055 
Si 7.2205818861 2.1381373549 1.4742710734 
Si 1.9921428836 9.0775897440 3.4408654579 
Si 5.4350778233 0.4777900021 10.5030786519 
Si 7.4428698294 8.6815400046 2.9540358741 
Si 2.8153699284 0.8772021161 6.4214632371 
Si 7.1203186948 5.3223550718 0.1161693988 
Si 4.7057775153 9.0077394008 3.4309660812 
Si 8.2579789586 8.4956280036 0.5403491558 
Si 7.5736418755 10.6016990586 9.9226850240 
Si 5.5780960811 3.9366983541 7.3424679615 
Si 1.3835659010 3.3655853919 6.4112331700 
Si 4.0327585773 9.1326230245 0.3566997171 
Si 9.1546512711 9.3259168883 5.4210074808 
Si 2.7682732172 6.2256198572 9.9879270367 
Si 6.8313166332 3.2236445447 9.6751899394 
Si 10.1958886191 3.7380281048 9.7011224660 
Si 10.5259496256 0.3242301883 6.7844012683 
Si 9.7981214231 1.5216558053 1.5647415622 
Si 5.2733168879 0.7241426048 2.6578973006 
Si 9.5015348175 5.4895883997 8.2873997354 
Si 5.8453472493 5.5006291916 3.8502601545 
Si 4.9614651874 6.6911892495 7.6406653493 
Si 10.1262302896 9.2151889465 2.8520658937 
Si 1.2843374506 0.4798541502 4.3885494292 
Si 3.4382732720 6.8888354254 1.9178442213 
Si 0.8884615903 3.3041836546 2.3840963293 
Si 9.0882785107 4.3103358194 1.2904925588 
Si 7.0788650550 0.2310171027 4.5259139481 
Si 1.6718532447 1.0861152334 8.9835456655 
Si 1.6048297708 7.5970675556 7.7811874281 
Si 5.5275644568 3.7409509811 2.3277616221 
Si 9.7804988258 7.0436731975 10.0478460009 
Si 10.3668235458 8.8553338030 8.5780765838 
Si 4.1370647251 5.6060767546 5.6146107001 
Si 7.9583841372 4.4992133664 6.7229461939 
Si 6.1427872494 8.1171261895 5.9088398032 
Si 1.6249378797 3.3178379673 8.7778562461 
Si 3.7949601882 1.9755123575 4.3333988069 
Si 8.0214713287 2.1063164059 7.4518944766 
Si 10.2023530828 6.8230920433 6.3339582942 
Si 2.2879827690 10.4922512086 0.4965572149 
Si 7.2637103127 6.6876903318 8.8463518255 
Si 6.0889380538 6.9885225753 1.6923347137 
Si 7.9501062102 8.9873646061 7.9787695994 
Si 2.6427175452 7.3692752176 5.5270417526 
Si 6.0778225899 2.9072911880 5.0554559288 
Si 3.9905262149 9.4850963052 6.2598623131 
Si 0.7320023685 5.7349820002 0.4784076464 
Si 4.8806380569 1.6616871822 7.8769062934 
Si 3.9236627525 4.1569701528 9.3273356567 
Si 0.5089858396 7.0597063475 2.4943442367 
Si 10.5874473698 10.2545168241 0.4053442727 
Si 3.1418786802 4.5606684409 2.1142849774 
Si 9.8711399936 2.8694004704 5.4687762403 
Si 0.7205156780 5.8066991440 4.4595945248 
Si 6.5631267310 0.1886140614 6.7250903476 
Si 3.6586410775 8.4876060949 8.6344966305 
Si 8.1117711387 6.6830286642 4.7790947738 
Si 9.3993728235 1.3666366868 9.2022386843 
Si 2.8238932064 4.2851073433 4.2826218317 
Si 4.1262799516 2.4949096105 0.2676831992 

