&CONTROL
   calculation      = 'scf'
   tstress          = .true.
   tprnfor          = .true.
   outdir           = './'
   disk_io          = 'none'
   pseudo_dir       = '/home/ppiaggi/pseudos'
/
&SYSTEM
   ecutwfc          = 30
   occupations      = 'smearing'
   degauss          = 0.01
   smearing         = 'fermi-dirac'
   input_dft        = 'PBE'
   ntyp             = 1
   nat              = 64
   ibrav            = 0
/
&ELECTRONS
   electron_maxstep = 100
   mixing_beta      = 0.5
/
&IONS
/
&CELL
/

ATOMIC_SPECIES
Si 28.085 Si_ONCV_PBE_sr.upf

K_POINTS gamma

CELL_PARAMETERS angstrom
10.68599617759249 0.00000000000000 0.00000000000000
0.00000000000000 10.68599617759249 0.00000000000000
0.00000000000000 0.00000000000000 10.68599617759249

ATOMIC_POSITIONS angstrom
Si 5.2068691835 3.0136325840 0.2413271947 
Si 0.2416178538 2.4238617690 3.1591117360 
Si 9.4317380622 8.7345302416 9.5332657119 
Si 1.3688974823 0.2400534239 4.0180948527 
Si 2.1913558641 6.7903307831 6.0167501478 
Si 0.4536793107 3.0124036945 8.0527529995 
Si 4.1374894880 6.8212667420 9.0936865732 
Si 2.8489186389 3.7983480273 4.9438761316 
Si 0.7467748139 10.4482007047 9.4946892657 
Si 0.4367409382 2.1057289768 0.6538258819 
Si 4.1783420514 5.8695184925 0.5196022897 
Si 4.8680803607 5.1901242275 7.2783816005 
Si 1.5160115917 8.5859735228 1.7985813886 
Si 6.7151227420 7.3399436245 1.1434977650 
Si 6.1179999616 2.6361818270 5.1340227475 
Si 3.4473985409 10.0669777910 2.3608037055 
Si 6.5820714036 4.8611130912 1.4502820292 
Si 4.9500419514 8.3170176850 3.1710159357 
Si 7.8972824411 3.6355148176 3.3951440195 
Si 9.3264916859 4.1059016833 6.8222284817 
Si 8.9259805492 8.6865394328 5.7825344836 
Si 2.4680590492 1.8067241177 9.9379871312 
Si 9.1946371791 2.8416842195 9.6990910006 
Si 3.8188971980 10.5459989417 0.1105754826 
Si 2.5771844421 4.5478851712 9.1899780847 
Si 7.1501389604 9.7433096528 8.0410625197 
Si 2.4360010606 0.0819962133 6.0177653174 
Si 8.0395878522 8.1075080439 3.4101151002 
Si 6.2975567553 7.6330070697 9.3034740501 
Si 0.4059203880 0.6813647627 7.2925619174 
Si 8.9286627342 6.8364622286 0.1937638257 
Si 10.1847588409 7.1359479575 2.8253560174 
Si 9.4877113102 4.3707434126 1.3682135786 
Si 4.7499680449 0.8798154663 6.2232677099 
Si 5.5748842059 3.1637387723 8.6897666036 
Si 3.3044519700 8.7565540798 6.6964970506 
Si 7.4100330734 5.6989486215 7.6410108808 
Si 3.7389232026 6.5290261186 3.9755218439 
Si 2.9020173539 2.7932659708 7.1304232974 
Si 5.1088144826 0.6902223849 8.5517676490 
Si 8.7811853009 0.5611515801 6.5855122943 
Si 6.2420216332 0.8274829372 0.6567506391 
Si 5.1051064419 4.8508652208 4.6953198605 
Si 8.6475141748 1.2914026381 4.1324350118 
Si 2.3339604831 6.2001752722 2.1092446695 
Si 7.8080650590 4.8925833499 10.0720856972 
Si 6.8023952728 6.5818363117 5.2112290699 
Si 0.8059121853 4.7257856356 3.8770610752 
Si 6.4514351003 10.0707926917 4.4453850959 
Si 9.1961866485 5.1790214775 4.5414735735 
Si 0.9250076127 5.8755240223 7.9515245577 
Si 9.0880871112 7.1865888933 7.4442496332 
Si 10.5579458854 10.3950378737 1.1861455757 
Si 1.0058097728 5.0543372741 0.5710927623 
Si 7.7258470044 2.3010048709 7.5075000445 
Si 5.6174358426 1.4103057175 3.0769898554 
Si 8.1086835035 10.2660365278 1.9308099053 
Si 0.5985707329 8.4098148758 5.0303792706 
Si 3.0525830401 2.1353505582 3.2614835794 
Si 5.7998244254 8.4054763613 6.2852358018 
Si 3.0037159796 3.3887965378 1.3237812065 
Si 8.3196036961 0.5047177657 10.0813183979 
Si 2.8184101198 8.8919777093 9.1063067347 
Si 1.0362424213 7.2364283795 10.0120945146 

