&CONTROL
   calculation      = 'scf'
   tstress          = .true.
   tprnfor          = .true.
   outdir           = './'
   disk_io          = 'none'
   pseudo_dir       = '/home/ppiaggi/pseudos'
/
&SYSTEM
   ecutwfc          = 30
   occupations      = 'smearing'
   degauss          = 0.01
   smearing         = 'fermi-dirac'
   input_dft        = 'PBE'
   ntyp             = 1
   nat              = 64
   ibrav            = 0
/
&ELECTRONS
   electron_maxstep = 100
   mixing_beta      = 0.5
/
&IONS
/
&CELL
/

ATOMIC_SPECIES
Si 28.085 Si_ONCV_PBE_sr.upf

K_POINTS gamma

CELL_PARAMETERS angstrom
10.70997666875399 0.00000000000000 0.00000000000000
0.00000000000000 10.70997666875399 0.00000000000000
0.00000000000000 0.00000000000000 10.70997666875399

ATOMIC_POSITIONS angstrom
Si 7.1604869112 5.5352372417 4.8278647027 
Si 6.9136433689 0.5313133746 5.9759099417 
Si 0.2117972856 10.2473485166 0.0058888164 
Si 1.8720825017 6.6329134605 9.2769175306 
Si 8.8543875311 2.6328549844 4.3353235857 
Si 10.4873483837 7.3947033909 0.7481497042 
Si 1.7326600255 1.7928393844 6.5221615917 
Si 4.8509232825 0.6501791216 1.7086268378 
Si 4.3907905548 10.2425076071 5.7453884039 
Si 4.1312556902 4.9944262598 7.4623047637 
Si 6.2743969915 6.1602714801 6.8826165665 
Si 6.8332435741 4.4906717973 9.0252973388 
Si 0.6161567387 4.7518559983 1.4576920845 
Si 2.5446476166 8.2533008005 2.6205492212 
Si 7.5089895520 7.5997780242 1.4148735978 
Si 5.4433028020 8.0188272813 8.2636037981 
Si 10.1453681187 2.6143053048 2.1475966515 
Si 6.4203739735 9.9202336992 10.3556049607 
Si 3.7852698939 2.1153167819 4.7729332324 
Si 9.4420975008 4.9794430025 4.9954865475 
Si 7.0257768246 1.7397607400 1.6634949961 
Si 10.1663275431 5.9634863688 3.2630407216 
Si 0.7906972285 4.4079479375 9.3795512370 
Si 4.9737024550 7.7475649922 0.8178491613 
Si 3.3206496861 3.9177094654 3.0238441027 
Si 3.6736612271 9.6155991228 8.1026649787 
Si 2.0227718735 7.4996932922 6.7669595285 
Si 0.8444238265 0.8288707983 2.1398640484 
Si 2.6933770626 3.0428114714 10.2907346321 
Si 9.8864972727 9.0291957703 5.8311967370 
Si 4.0710013615 9.6927002448 10.5592872970 
Si 8.8114191047 9.9951606960 1.4931206873 
Si 7.5201707676 8.7251823725 6.0139517789 
Si 3.9934932603 6.2763247873 9.5929903621 
Si 1.0433712821 1.6968137336 8.9493636042 
Si 5.9492528098 1.7621124613 9.7540791211 
Si 4.8935168597 2.6426439031 7.0261623838 
Si 10.6013346654 3.9860498266 7.0621157755 
Si 10.3740689605 6.6864526338 6.7358684662 
Si 6.3251515709 2.9327878810 4.5614433231 
Si 9.8557060897 7.4621441140 9.0734172639 
Si 4.0945847301 7.5723711939 5.5900509023 
Si 4.7924468099 3.9948641374 10.5878293848 
Si 3.6805049022 1.1783330530 8.5100617812 
Si 6.9093700882 8.2574562715 3.6976729948 
Si 10.3450235038 8.6129846570 3.4882072711 
Si 9.0410624244 4.9211700194 9.9920440927 
Si 1.8699619264 10.2668942240 3.9898947082 
Si 2.4413284717 4.4682879460 5.8171559576 
Si 7.3483613219 2.1894833703 7.9147691480 
Si 9.2174343202 0.5900447446 8.8929220271 
Si 1.6269204258 6.5427890068 4.0766562292 
Si 3.0360748960 1.9237795591 1.8714934530 
Si 8.0275023624 9.1387267017 8.8347775638 
Si 8.1287973217 0.0248996248 3.8294378377 
Si 1.9341039766 8.5239204910 0.2391569920 
Si 9.7946270928 1.2847473812 6.1935580876 
Si 8.8183484596 2.0638553440 0.3852839137 
Si 2.8230963000 5.6012428279 1.3029864715 
Si 4.8050417424 9.4951440152 3.3088687118 
Si 1.3029329216 9.9719843064 6.7585629067 
Si 5.1092264998 6.1846473870 3.3537863539 
Si 6.3098577242 4.1697259264 2.1969375141 
Si 8.1461689039 5.4475760827 1.4330377182 

