&CONTROL
   calculation      = 'scf'
   tstress          = .true.
   tprnfor          = .true.
   outdir           = './'
   disk_io          = 'none'
   pseudo_dir       = '/home/ppiaggi/pseudos'
/
&SYSTEM
   ecutwfc          = 30
   occupations      = 'smearing'
   degauss          = 0.01
   smearing         = 'fermi-dirac'
   input_dft        = 'PBE'
   ntyp             = 1
   nat              = 64
   ibrav            = 0
/
&ELECTRONS
   electron_maxstep = 100
   mixing_beta      = 0.5
/
&IONS
/
&CELL
/

ATOMIC_SPECIES
Si 28.085 Si_ONCV_PBE_sr.upf

K_POINTS gamma

CELL_PARAMETERS angstrom
10.70782849467453 0.00000000000000 0.00000000000000
0.00000000000000 10.70782849467453 0.00000000000000
0.00000000000000 0.00000000000000 10.70782849467453

ATOMIC_POSITIONS angstrom
Si 2.7823114482 6.9595424223 6.1831713173 
Si 10.3809184907 4.1678295006 8.4483374805 
Si 4.8525094702 5.5118118863 4.3022984109 
Si 6.1332942522 6.2126285535 1.7939360469 
Si 0.4342538430 10.7037702277 1.8407720887 
Si 2.9177226474 2.5955133801 8.4094252318 
Si 3.3882246314 10.2535917021 4.4626481426 
Si 5.9449114254 10.6111796347 2.7594716500 
Si 4.8898262525 3.2662089257 4.8805104418 
Si 8.6684476031 5.3405615852 6.2680415659 
Si 9.3853581364 5.9092436487 1.3264215469 
Si 9.6887537490 0.7650946908 4.3304707076 
Si 9.3389718234 8.8277158441 10.2430873223 
Si 6.1174680816 1.6409104698 7.8734984156 
Si 0.6591942670 0.9314300987 8.7254346663 
Si 5.6411838702 10.5222832425 0.3342919809 
Si 5.7267715434 7.9117253633 10.5245640100 
Si 7.7656063357 7.5895482196 6.2214410963 
Si 0.9028776740 3.8848858405 4.6984773573 
Si 2.5807365768 2.6470822822 5.9735976980 
Si 10.2177204766 7.5852865039 4.6835078131 
Si 4.2109178025 6.4332526518 9.1516811952 
Si 0.8129426224 8.8434991833 8.3609080609 
Si 8.1978385407 6.7625397936 10.3869684138 
Si 0.5390877671 5.5863490805 6.1595605554 
Si 6.5436717792 7.8681766249 4.1635142458 
Si 2.1502176244 6.0850769004 1.1287336173 
Si 7.5347241377 3.6693372529 4.8653374488 
Si 7.6288245345 4.0978324258 2.1747706751 
Si 1.7487597184 9.5237675276 10.5562484745 
Si 8.1941657555 5.1301420475 8.6845843006 
Si 5.2466860528 6.1785027041 6.5494754223 
Si 0.5009678977 8.1978920799 1.6346892215 
Si 2.5470069171 9.2696172182 6.6323540148 
Si 1.8031447794 1.0746269599 3.3773026464 
Si 1.5461033563 6.5087856740 8.3703630734 
Si 3.0309579337 2.1268959739 1.6285000966 
Si 3.5835675467 0.8233945338 10.1606905821 
Si 1.0188231117 0.5879047572 6.2152948028 
Si 5.4731352098 2.4585495459 2.3495545596 
Si 8.4516997387 10.1762490569 2.4832953375 
Si 6.0440445016 8.3331747851 8.0778144911 
Si 0.4775434521 5.1962735962 10.5540212462 
Si 2.4398429695 5.7106134302 3.5866406934 
Si 8.1853639205 9.7701653691 8.0718716463 
Si 1.8926193943 7.9658213129 3.7939121296 
Si 4.0800788461 4.6384813943 1.3215816085 
Si 9.7970741421 9.4965803510 6.3510700681 
Si 3.5726348538 7.9904600263 0.8503461382 
Si 8.9114403551 1.7343683969 8.7566479864 
Si 4.3714495673 10.2728550856 7.8137059013 
Si 5.1772779085 0.7486678111 5.6474372420 
Si 6.0780525649 4.2276755541 7.7331723232 
Si 10.1557649810 2.0942156813 0.9142836529 
Si 8.0799453490 0.2101700453 10.6303359399 
Si 8.1142960628 1.9391770326 6.3698515993 
Si 5.8676223194 2.5191344395 10.4346824976 
Si 7.2894827417 10.4778350464 5.1580573563 
Si 4.2745544272 4.1891273715 9.6543816195 
Si 8.2516453789 3.4418494365 10.3855121492 
Si 4.5038090353 8.6409498995 2.9480365098 
Si 8.4384969861 7.7257410902 2.6653605454 
Si 9.8903393282 2.8195532757 3.1790043705 
Si 1.4972221193 2.8892291157 0.0428722179 

