&CONTROL
   calculation      = 'scf'
   tstress          = .true.
   tprnfor          = .true.
   outdir           = './'
   disk_io          = 'none'
   pseudo_dir       = '/home/ppiaggi/pseudos'
/
&SYSTEM
   ecutwfc          = 30
   occupations      = 'smearing'
   degauss          = 0.01
   smearing         = 'fermi-dirac'
   input_dft        = 'PBE'
   ntyp             = 1
   nat              = 64
   ibrav            = 0
/
&ELECTRONS
   electron_maxstep = 100
   mixing_beta      = 0.5
/
&IONS
/
&CELL
/

ATOMIC_SPECIES
Si 28.085 Si_ONCV_PBE_sr.upf

K_POINTS gamma

CELL_PARAMETERS angstrom
10.63083940575924 0.00000000000000 0.00000000000000
0.00000000000000 10.63083940575924 0.00000000000000
0.00000000000000 0.00000000000000 10.63083940575924

ATOMIC_POSITIONS angstrom
Si 9.9906183642 4.6716160685 10.5800346242 
Si 8.2458743701 0.7362196475 2.2194109736 
Si 5.5414845028 5.1709784879 4.7342954976 
Si 3.9659090562 7.7230177956 2.8899936925 
Si 8.7883661050 8.0040227736 1.1402850963 
Si 6.9900107878 2.6602825146 9.9914050463 
Si 6.0644899091 7.6577019183 7.8552122836 
Si 0.4647760465 1.3220086651 10.0630675348 
Si 8.3424661770 7.3644714750 7.2330105149 
Si 4.5988479727 1.6292292931 10.1937630744 
Si 2.6594426783 5.2483709987 4.2395362317 
Si 1.4193765233 2.2647515036 1.4149328324 
Si 3.1108174886 1.3378911392 8.3225120914 
Si 1.0403169349 10.5617495805 6.2238461918 
Si 1.4608049044 4.7551744662 9.2814669600 
Si 4.9182940660 7.7907787660 5.4720438598 
Si 9.0100403683 2.7915308579 8.1427127045 
Si 8.0881764984 6.4208675385 3.3908337985 
Si 1.3176819135 2.8362441684 5.4256934000 
Si 2.1427413598 8.4033915176 1.0692498274 
Si 9.2612364726 5.0666686916 7.6124995892 
Si 5.6203228079 9.4578113240 2.9801432106 
Si 1.1227229496 2.5398988891 7.8599642688 
Si 0.0077255586 7.0086466492 3.7613398135 
Si 2.2152436845 5.7307878601 1.5738319890 
Si 8.4508901081 4.0609806530 3.9135521721 
Si 6.8543187536 1.4329095818 4.9034534142 
Si 3.1875934108 3.4662383424 0.2562191759 
Si 10.5515439746 4.8346080982 5.5424306476 
Si 9.4725244058 0.6360133553 7.3509490473 
Si 0.0001745892 8.9903414229 2.2223663469 
Si 2.2534509214 10.2276967138 3.7946568642 
Si 5.0308427628 7.7007887104 0.2874398251 
Si 7.2121740697 9.6796344191 1.2167102008 
Si 2.1650235992 7.9334765233 4.8573899871 
Si 1.9207375405 8.8679166763 7.9305424117 
Si 5.0801060726 9.7140889696 9.8678640616 
Si 6.3800557460 5.1167612069 10.3721379288 
Si 3.1476001929 0.2959115410 1.0312063055 
Si 6.1964186261 1.0501961740 7.5637571905 
Si 7.1264150882 8.3464846342 4.7446605660 
Si 7.4593729784 0.0441763468 9.7494896648 
Si 7.0506490957 2.9698312964 2.4792286887 
Si 8.5116985095 10.4132261231 5.0084435842 
Si 8.9788813780 8.9244089569 8.9751074300 
Si 3.7134053586 2.8174701060 5.1167824686 
Si 4.1514809889 9.7576435186 7.5437286890 
Si 4.9405763054 3.1230004306 7.3551801213 
Si 4.8916000283 5.5294397618 8.5783645034 
Si 7.3059699657 3.4963236180 5.9442657462 
Si 9.0914832290 2.4327719205 0.3611413085 
Si 4.3464399527 0.4469885260 5.1503652903 
Si 0.1950046765 5.4170505276 2.1076383281 
Si 10.1428626154 8.7106759306 5.8569865547 
Si 8.3471437463 6.4661230218 9.9684849566 
Si 10.2738132952 0.2335776142 3.5011925424 
Si 2.9074601616 7.0163540078 9.8003050772 
Si 3.3611418641 5.6692565617 6.5798836343 
Si 10.5098072991 2.7908504842 3.1921753026 
Si 5.7750759371 5.7535165948 2.0918302699 
Si 4.1783770126 3.7801351376 2.2621363172 
Si 1.2322312264 6.3777169613 7.4155101350 
Si 0.6293233681 9.6614663145 9.8698732903 
Si 4.7395471323 1.0945405944 2.5734072950 

