&CONTROL
   calculation      = 'scf'
   tstress          = .true.
   tprnfor          = .true.
   outdir           = './'
   disk_io          = 'none'
   pseudo_dir       = '/home/ppiaggi/pseudos'
/
&SYSTEM
   ecutwfc          = 30
   occupations      = 'smearing'
   degauss          = 0.01
   smearing         = 'fermi-dirac'
   input_dft        = 'PBE'
   ntyp             = 1
   nat              = 64
   ibrav            = 0
/
&ELECTRONS
   electron_maxstep = 100
   mixing_beta      = 0.5
/
&IONS
/
&CELL
/

ATOMIC_SPECIES
Si 28.085 Si_ONCV_PBE_sr.upf

K_POINTS gamma

CELL_PARAMETERS angstrom
10.97257304454904 0.00000000000000 0.00000000000000
0.00000000000000 11.06007541900866 0.00000000000000
0.00000000000000 0.00000000000000 10.91554797941561

ATOMIC_POSITIONS angstrom
Si -0.0004518839 0.0021128510 -0.0098376205 
Si 0.0058596900 2.7731665504 2.7175685302 
Si 2.7524949426 0.0034731109 2.7102159406 
Si 2.7411353967 2.7763007642 0.0068150930 
Si 1.3656494048 1.3809094963 1.3476689589 
Si 5.4870863268 -0.0082385062 -0.0074292913 
Si 5.4991730922 2.7653793491 2.7086107189 
Si 6.8733712924 1.3776831503 1.3567053486 
Si 8.2332476812 -0.0100832234 2.7181147851 
Si 8.2483745115 2.7681129646 -0.0087478108 
Si 0.0055356766 5.5335017094 0.0037867574 
Si 2.7490133547 5.5339789457 2.7052132867 
Si 1.3733570539 6.9286098545 1.3533017017 
Si 4.1258946221 4.1630102581 1.3641482711 
Si 5.4909243460 5.5529241325 -0.0072428545 
Si 6.8680845188 6.9371168650 1.3526505826 
Si 9.6066475893 4.1492763923 1.3516775092 
Si 8.2382822208 5.5438302783 2.7138678633 
Si -0.0064055215 8.3131180980 2.7148305138 
Si 2.7436385263 8.3228950091 0.0069617121 
Si 4.1114962462 9.7017861132 1.3593204645 
Si 5.5040964264 8.3076565193 2.7049696402 
Si 8.2412030404 8.3082141145 -0.0054887346 
Si 9.6171478989 9.6982793507 1.3520668241 
Si 0.0098732279 0.0055524797 5.4336961291 
Si 2.7379293888 2.7616513684 5.4372743088 
Si 1.3682852680 1.3914377288 6.7868039398 
Si 4.1179679103 1.3770541242 4.0639750622 
Si 5.4901451788 0.0096143908 5.4227617493 
Si 6.8604735542 1.3858878139 6.7794018540 
Si 9.6252745374 1.3938640029 4.0646040825 
Si 8.2375844740 2.7808020974 5.4216980416 
Si 1.3713884054 4.1583075218 4.0699500929 
Si -0.0012262116 5.5341092917 5.4317488015 
Si 1.3773194853 6.9241343784 6.7872583146 
Si 6.8773561853 4.1494701867 4.0796912367 
Si 4.1159396791 6.9312843543 4.0738676047 
Si 4.1222780317 4.1587973494 6.7771748394 
Si 5.4944307662 5.5515553301 5.4268106872 
Si 6.8676667534 6.9359307735 6.7788951880 
Si 9.6243011034 6.9388650596 4.0665561658 
Si 9.6064966705 4.1524540656 6.7775449814 
Si 1.3824350557 9.7092317144 4.0816131733 
Si 2.7400464720 8.3241693616 5.4274350829 
Si 6.8686448663 9.6980587958 4.0735240184 
Si 4.1150585872 9.6965140780 6.7797293123 
Si 8.2343189527 8.3163310041 5.4298258868 
Si 9.6161657193 9.7065160894 6.7810553589 
Si 0.0010942887 2.7733104116 8.1482290347 
Si 2.7424458641 -0.0058671015 8.1489378345 
Si 4.1216701564 1.3872184074 9.4938118027 
Si 5.4883799968 2.7793424621 8.1538911162 
Si 8.2521435449 -0.0040217361 8.1419447829 
Si 9.6138052989 1.3928943162 9.4981508832 
Si 1.3695113472 4.1628689477 9.5048552474 
Si 2.7562670702 5.5389083194 8.1470879665 
Si 6.8665895315 4.1640965103 9.5076168719 
Si 4.1121476719 6.9211084157 9.4995853809 
Si 8.2429938320 5.5368781233 8.1444573164 
Si 9.6152720765 6.9312831998 9.4968409177 
Si 0.0032242775 8.3149390544 8.1520518581 
Si 1.3803899621 9.7079684381 9.5083120719 
Si 5.4879612901 8.3165837130 8.1532817478 
Si 6.8592564751 9.6934144758 9.4921997597 

