&CONTROL
   calculation      = 'scf'
   tstress          = .true.
   tprnfor          = .true.
   outdir           = './'
   disk_io          = 'none'
   pseudo_dir       = '/home/ppiaggi/pseudos'
/
&SYSTEM
   ecutwfc          = 30
   occupations      = 'smearing'
   degauss          = 0.01
   smearing         = 'fermi-dirac'
   input_dft        = 'PBE'
   ntyp             = 1
   nat              = 64
   ibrav            = 0
/
&ELECTRONS
   electron_maxstep = 100
   mixing_beta      = 0.5
/
&IONS
/
&CELL
/

ATOMIC_SPECIES
Si 28.085 Si_ONCV_PBE_sr.upf

K_POINTS gamma

CELL_PARAMETERS angstrom
10.93101830361032 0.00000000000000 0.00000000000000
0.00000000000000 11.09082333809698 0.00000000000000
0.00000000000000 0.00000000000000 11.08132223273187

ATOMIC_POSITIONS angstrom
Si 0.0020727030 -0.0066963869 -0.0084397513 
Si -0.0053447256 2.7587321498 2.7448645390 
Si 2.7491880993 0.0040959388 2.7596291635 
Si 2.7452976949 2.7590592667 -0.0010694570 
Si 1.3810589658 1.3704055894 1.3788227416 
Si 5.4950334518 -0.0014656676 -0.0052767315 
Si 5.5062000565 2.7438879897 2.7563602231 
Si 6.8756971265 1.3739322871 1.3703844288 
Si 8.2597647211 -0.0083282653 2.7532328852 
Si 8.2462348223 2.7460503193 -0.0005418776 
Si -0.0035227291 5.5111834691 -0.0040376180 
Si 2.7439465561 5.4962482448 2.7575214778 
Si 1.3824957992 6.8749122834 1.3729245690 
Si 4.1196961732 4.1365919521 1.3804493379 
Si 5.4949820214 5.4979222383 0.0006402047 
Si 6.8823245381 6.8718643261 1.3758443440 
Si 9.6240464342 4.1349311168 1.3849986932 
Si 8.2456912779 5.5059410534 2.7478822345 
Si 0.0012964188 8.2462210245 2.7519557385 
Si 2.7400493257 8.2620337571 0.0073366332 
Si 4.1263487193 9.6294384105 1.3750098696 
Si 5.4946104064 8.2487670256 2.7615990009 
Si 8.2586993067 8.2476072492 0.0038670042 
Si 9.6344838977 9.6329559693 1.3684174896 
Si -0.0049545474 0.0035333610 5.4946897876 
Si 2.7470542076 2.7474694054 5.5034118776 
Si 1.3772839175 1.3780263471 6.8803329404 
Si 4.1208587433 1.3678451756 4.1363123884 
Si 5.5057159538 -0.0009068728 5.5052352929 
Si 6.8698967872 1.3727281015 6.8863283393 
Si 9.6286986768 1.3660407231 4.1340689477 
Si 8.2523476553 2.7422516496 5.5080575610 
Si 1.3758642537 4.1200636262 4.1225282279 
Si 0.0090151951 5.5048032187 5.5009629687 
Si 1.3772927434 6.8709746272 6.8783911576 
Si 6.8763075741 4.1261286517 4.1361589727 
Si 4.1225444062 6.8851780287 4.1188307785 
Si 4.1328030263 4.1348294571 6.8720212044 
Si 5.4931635290 5.4972311187 5.4963782580 
Si 6.8806976197 6.8807739040 6.8864934224 
Si 9.6217847442 6.8722800278 4.1354323379 
Si 9.6346003269 4.1216201080 6.8864634289 
Si 1.3654046720 9.6378627298 4.1360212096 
Si 2.7507561620 8.2570953121 5.4952802928 
Si 6.8786382274 9.6306176549 4.1333708091 
Si 4.1289772030 9.6330807458 6.8713933271 
Si 8.2549994273 8.2564522925 5.5020060980 
Si 9.6324057224 9.6296932196 6.8857270955 
Si 0.0011278280 2.7503802087 8.2614645354 
Si 2.7548386718 -0.0091101247 8.2635626501 
Si 4.1255983485 1.3703947844 9.6228081465 
Si 5.4927377491 2.7552521689 8.2480235312 
Si 8.2561732001 0.0099761667 8.2606354006 
Si 9.6199587582 1.3832977813 9.6382803473 
Si 1.3736715038 4.1273327536 9.6250881129 
Si 2.7487155695 5.5035572948 8.2626562298 
Si 6.8787579321 4.1230049278 9.6340215031 
Si 4.1205945095 6.8709052893 9.6253162951 
Si 8.2520012033 5.4974321376 8.2628345696 
Si 9.6314109828 6.8760398274 9.6272725938 
Si 0.0010475810 8.2438865782 8.2616899885 
Si 1.3754413536 9.6325374756 9.6370445537 
Si 5.4902134146 8.2453183354 8.2561767390 
Si 6.8785108131 9.6240735634 9.6390828300 

