&CONTROL
   calculation      = 'scf'
   tstress          = .true.
   tprnfor          = .true.
   outdir           = './'
   disk_io          = 'none'
   pseudo_dir       = '/home/ppiaggi/pseudos'
/
&SYSTEM
   ecutwfc          = 30
   occupations      = 'smearing'
   degauss          = 0.01
   smearing         = 'fermi-dirac'
   input_dft        = 'PBE'
   ntyp             = 1
   nat              = 64
   ibrav            = 0
/
&ELECTRONS
   electron_maxstep = 100
   mixing_beta      = 0.5
/
&IONS
/
&CELL
/

ATOMIC_SPECIES
Si 28.085 Si_ONCV_PBE_sr.upf

K_POINTS gamma

CELL_PARAMETERS angstrom
11.05149170743335 0.00000000000000 0.00000000000000
0.00000000000000 11.01013421306855 0.00000000000000
0.00000000000000 0.00000000000000 10.87315673299976

ATOMIC_POSITIONS angstrom
Si -0.0096010681 -0.0055551374 0.0005212077 
Si -0.0038272250 2.7667621031 2.7208213544 
Si 2.7788000788 0.0044301060 2.7118533956 
Si 2.7662694475 2.7729951944 0.0083846607 
Si 1.3785303258 1.3882927322 1.3523469998 
Si 5.5530801120 0.0019515528 0.0018023094 
Si 5.5549758714 2.7632112986 2.7278605350 
Si 6.9404402040 1.3909454846 1.3671184300 
Si 8.3282788664 -0.0063468513 2.7094528693 
Si 8.3316777842 2.7801734604 -0.0034614951 
Si -0.0051120385 5.5374815008 -0.0036616093 
Si 2.7714351979 5.5469857392 2.7167780452 
Si 1.3915360728 6.9272273894 1.3535888232 
Si 4.1685802507 4.1652666733 1.3611162664 
Si 5.5428035037 5.5367718230 -0.0088807148 
Si 6.9292348217 6.9360601820 1.3508014840 
Si 9.7187727764 4.1602667416 1.3677367248 
Si 8.3354194378 5.5521313677 2.7162516825 
Si -0.0030614708 8.3204135110 2.7103653222 
Si 2.7682809204 8.3205968149 0.0010764713 
Si 4.1607657332 9.7025373166 1.3537333913 
Si 5.5439294338 8.3188742687 2.7125355007 
Si 8.3244055345 8.3267422247 -0.0044872689 
Si 9.7099682599 9.7016629681 1.3545567066 
Si -0.0088807991 -0.0083822247 5.4363258526 
Si 2.7803717509 2.7808383310 5.4303171163 
Si 1.3930110617 1.3912110865 6.7885100764 
Si 4.1717848851 1.3870502995 4.0853857145 
Si 5.5493668156 -0.0017356876 5.4288141573 
Si 6.9364129991 1.3859877984 6.7991932644 
Si 9.7186598847 1.3835957496 4.0836016802 
Si 8.3335106854 2.7776908496 5.4400768106 
Si 1.3846323401 4.1556332878 4.0799572328 
Si 0.0096729416 5.5522649359 5.4423856756 
Si 1.3960320357 6.9301802880 6.8021483190 
Si 6.9450306187 4.1675115374 4.0729171102 
Si 4.1569567752 6.9420861226 4.0707271252 
Si 4.1612872735 4.1676483415 6.7909797364 
Si 5.5516415150 5.5375608655 5.4327620033 
Si 6.9362298316 6.9410205520 6.7990918716 
Si 9.7228133536 6.9379499550 4.0733249702 
Si 9.7162622907 4.1527353553 6.8022699754 
Si 1.3805363050 9.6976883009 4.0733279531 
Si 2.7666299335 8.3098119472 5.4346417103 
Si 6.9459953972 9.6989410918 4.0750184266 
Si 4.1600503337 9.7000729646 6.7949396008 
Si 8.3176017183 8.3205118779 5.4350605106 
Si 9.7119476788 9.7027022919 6.7904159464 
Si -0.0054939846 2.7768799420 8.1574437114 
Si 2.7762806408 0.0021247694 8.1639465533 
Si 4.1719168533 1.3798353721 9.5119265015 
Si 5.5606928728 2.7798427261 8.1499941749 
Si 8.3273863063 0.0053995935 8.1568021885 
Si 9.7171632526 1.3860645617 9.5191460369 
Si 1.3968161837 4.1564405199 9.5248825617 
Si 2.7673884696 5.5459058672 8.1466795911 
Si 6.9340530004 4.1519400498 9.5201051571 
Si 4.1699998614 6.9396587715 9.5071523337 
Si 8.3166009775 5.5479177895 8.1546659636 
Si 9.7174701661 6.9410861932 9.5064046749 
Si 0.0045090336 8.3215215044 8.1602707809 
Si 1.3967562250 9.6962678838 9.5247916370 
Si 5.5417446236 8.3196605908 8.1531184602 
Si 6.9486793839 9.7054894033 9.5242849162 

