&CONTROL
   calculation      = 'scf'
   tstress          = .true.
   tprnfor          = .true.
   outdir           = './'
   disk_io          = 'none'
   pseudo_dir       = '/home/ppiaggi/pseudos'
/
&SYSTEM
   ecutwfc          = 30
   occupations      = 'smearing'
   degauss          = 0.01
   smearing         = 'fermi-dirac'
   input_dft        = 'PBE'
   ntyp             = 1
   nat              = 64
   ibrav            = 0
/
&ELECTRONS
   electron_maxstep = 100
   mixing_beta      = 0.5
/
&IONS
/
&CELL
/

ATOMIC_SPECIES
Si 28.085 Si_ONCV_PBE_sr.upf

K_POINTS gamma

CELL_PARAMETERS angstrom
11.07568764015553 0.00000000000000 0.00000000000000
0.00000000000000 10.97962287073170 0.00000000000000
0.00000000000000 0.00000000000000 10.91831765703680

ATOMIC_POSITIONS angstrom
Si -0.0050142893 0.0079202277 0.0014690180 
Si -0.0020506968 2.7357566661 2.7167171436 
Si 2.7545846591 0.0069366946 2.7033693510 
Si 2.7698001423 2.7353688420 -0.0086100314 
Si 1.3734729075 1.3734000880 1.3465534847 
Si 5.5148936629 -0.0074352487 -0.0074371238 
Si 5.5204269239 2.7352132848 2.7098849236 
Si 6.8994361947 1.3709873223 1.3521838907 
Si 8.2737285386 -0.0002661968 2.7203953175 
Si 8.2874330758 2.7454165953 0.0040342313 
Si -0.0048778220 5.4861906997 -0.0025984675 
Si 2.7601972021 5.4704656267 2.7053880708 
Si 1.3794217124 6.8483168908 1.3526644165 
Si 4.1429086324 4.1081224629 1.3514808310 
Si 5.5140237575 5.4691520065 0.0001437794 
Si 6.8953514095 6.8448116118 1.3649554896 
Si 9.6590365909 4.1003270486 1.3620000820 
Si 8.2758625507 5.4778340934 2.7077470320 
Si -0.0052376935 8.2084841156 2.7190760129 
Si 2.7520191180 8.2193139114 -0.0092828989 
Si 4.1327192060 9.5818121880 1.3606628597 
Si 5.5134041623 8.2175996636 2.7177319369 
Si 8.2827461083 8.2201393997 -0.0064718389 
Si 9.6583631630 9.5906382566 1.3530216546 
Si 0.0002808973 -0.0028811833 5.4224182813 
Si 2.7679674611 2.7353682227 5.4212894180 
Si 1.3763524392 1.3705060597 6.7709391108 
Si 4.1391897343 1.3661662111 4.0607894288 
Si 5.5131237360 0.0069301467 5.4332696197 
Si 6.9008945338 1.3650093378 6.7869387379 
Si 9.6530507726 1.3740703934 4.0693071248 
Si 8.2842669172 2.7338366417 5.4164219531 
Si 1.3709336865 4.0993511367 4.0656773106 
Si 0.0082707857 5.4663527891 5.4221260204 
Si 1.3783329211 6.8402666881 6.7723939595 
Si 6.8942092343 4.1133439693 4.0639770029 
Si 4.1487227821 6.8545028003 4.0740734221 
Si 4.1484466508 4.1107209103 6.7784208586 
Si 5.5271966491 5.4854244830 5.4255973428 
Si 6.8929026120 6.8431283874 6.7787350726 
Si 9.6652571571 6.8409298747 4.0673169704 
Si 9.6574909030 4.1102557183 6.7789985800 
Si 1.3783249405 9.5786260197 4.0674407791 
Si 2.7603673173 8.2233769450 5.4190586745 
Si 6.8976098447 9.5796297323 4.0621759416 
Si 4.1438603836 9.5803701677 6.7740049689 
Si 8.2805571255 8.2170893820 5.4272661483 
Si 9.6526906403 9.5815948443 6.7839018980 
Si 0.0088013017 2.7292706399 8.1298513562 
Si 2.7603824019 -0.0062169978 8.1446562770 
Si 4.1482592927 1.3746040082 9.4891678412 
Si 5.5148614017 2.7404620329 8.1354600190 
Si 8.2808635044 -0.0003253560 8.1423663680 
Si 9.6691307862 1.3693045804 9.4892256388 
Si 1.3856022444 4.1112348790 9.4989447144 
Si 2.7519659163 5.4825158866 8.1437515955 
Si 6.9076679057 4.1065167658 9.4857130758 
Si 4.1380487172 6.8389906258 9.4947713256 
Si 8.2736330858 5.4677908236 8.1430909634 
Si 9.6606661538 6.8500355837 9.4822652922 
Si 0.0015920641 8.2179794390 8.1399841602 
Si 1.3827297827 9.5929448326 9.4906353543 
Si 5.5274729241 8.2072406020 8.1341772777 
Si 6.9003199838 9.5900883758 9.4959039929 

