&CONTROL
   calculation      = 'scf'
   tstress          = .true.
   tprnfor          = .true.
   outdir           = './'
   disk_io          = 'none'
   pseudo_dir       = '/home/ppiaggi/pseudos'
/
&SYSTEM
   ecutwfc          = 30
   occupations      = 'smearing'
   degauss          = 0.01
   smearing         = 'fermi-dirac'
   input_dft        = 'PBE'
   ntyp             = 1
   nat              = 64
   ibrav            = 0
/
&ELECTRONS
   electron_maxstep = 100
   mixing_beta      = 0.5
/
&IONS
/
&CELL
/

ATOMIC_SPECIES
Si 28.085 Si_ONCV_PBE_sr.upf

K_POINTS gamma

CELL_PARAMETERS angstrom
11.00027099732708 0.00000000000000 0.00000000000000
0.00000000000000 11.08458335510778 0.00000000000000
0.00000000000000 0.00000000000000 10.97529570612385

ATOMIC_POSITIONS angstrom
Si -0.0021726974 0.0059469917 0.0090956243 
Si -0.0065532446 2.7580133930 2.7560933756 
Si 2.7535221246 -0.0047566847 2.7615355677 
Si 2.7447563744 2.7749074060 0.0002587822 
Si 1.3723323909 1.3858578669 1.3867586585 
Si 5.4892305121 0.0057261735 0.0062630354 
Si 5.4940782747 2.7633808309 2.7725278139 
Si 6.8705858206 1.3795933433 1.3734983318 
Si 8.2397830161 -0.0049233049 2.7612620372 
Si 8.2391256625 2.7627158133 0.0093930390 
Si 0.0083449589 5.5279372293 0.0044060982 
Si 2.7395992800 5.5288661541 2.7565965733 
Si 1.3829819085 6.9241926591 1.3746673496 
Si 4.1164816148 4.1482442059 1.3758113855 
Si 5.5074389320 5.5320854898 0.0014323314 
Si 6.8727628866 6.9176067539 1.3813670468 
Si 9.6114678378 4.1475454871 1.3840757033 
Si 8.2403508850 5.5322450847 2.7616850518 
Si -0.0072078140 8.3051529579 2.7730758153 
Si 2.7476206876 8.3043906442 0.0095692193 
Si 4.1325271788 9.6778009276 1.3818963516 
Si 5.4963697640 8.3003682476 2.7716650930 
Si 8.2487099527 8.2955567181 0.0006049556 
Si 9.6155091855 9.6833337816 1.3847619725 
Si 0.0088117476 0.0092253305 5.5272177664 
Si 2.7434685098 2.7638261142 5.5234151857 
Si 1.3726441309 1.3877860996 6.9116166247 
Si 4.1235555606 1.3741869473 4.1439143960 
Si 5.5032910215 0.0063849476 5.5381062516 
Si 6.8749280578 1.3926799340 6.9111670953 
Si 9.6201434279 1.3915319500 4.1548851282 
Si 8.2470655345 2.7686336401 5.5322853853 
Si 1.3827824909 4.1525529630 4.1525846310 
Si 0.0012792122 5.5277597175 5.5233337068 
Si 1.3771749184 6.9160770230 6.9083386165 
Si 6.8634520714 4.1495651469 4.1561719425 
Si 4.1140459887 6.9173638014 4.1408110053 
Si 4.1263714118 4.1490985801 6.9162791296 
Si 5.4932622976 5.5249022946 5.5332974196 
Si 6.8692464314 6.9090999216 6.9162643629 
Si 9.6197207618 6.9055925672 4.1563121199 
Si 9.6241820754 4.1480716988 6.9171540366 
Si 1.3834069178 9.6722076228 4.1520956493 
Si 2.7488528465 8.2888502599 5.5300890340 
Si 6.8768469531 9.6745650084 4.1556551835 
Si 4.1156730079 9.6841100537 6.9079565670 
Si 8.2386500021 8.2908575819 5.5309207561 
Si 9.6197560607 9.6849866914 6.9060359941 
Si 0.0012101614 2.7754631648 8.2893180272 
Si 2.7513296465 0.0054031133 8.3000563626 
Si 4.1244913301 1.3913706875 9.6784594536 
Si 5.4988587772 2.7744810399 8.2880634398 
Si 8.2441819514 0.0055642633 8.2942654394 
Si 9.6120123180 1.3811770426 9.6702277003 
Si 1.3684466031 4.1522941703 9.6750599866 
Si 2.7516182335 5.5412183009 8.2978176849 
Si 6.8808088026 4.1461121977 9.6757190452 
Si 4.1155534297 6.9205261508 9.6686577863 
Si 8.2405305239 5.5295555799 8.3016564388 
Si 9.6144920566 6.9169163393 9.6815006858 
Si -0.0040754753 8.2947724463 8.2952240253 
Si 1.3670389083 9.6883661840 9.6835526381 
Si 5.4892653565 8.2941851294 8.3026288657 
Si 6.8749326922 9.6724298001 9.6716643714 

