&CONTROL
   calculation      = 'scf'
   tstress          = .true.
   tprnfor          = .true.
   outdir           = './'
   disk_io          = 'none'
   pseudo_dir       = '/home/ppiaggi/pseudos'
/
&SYSTEM
   ecutwfc          = 30
   occupations      = 'smearing'
   degauss          = 0.01
   smearing         = 'fermi-dirac'
   input_dft        = 'PBE'
   ntyp             = 1
   nat              = 64
   ibrav            = 0
/
&ELECTRONS
   electron_maxstep = 100
   mixing_beta      = 0.5
/
&IONS
/
&CELL
/

ATOMIC_SPECIES
Si 28.085 Si_ONCV_PBE_sr.upf

K_POINTS gamma

CELL_PARAMETERS angstrom
10.96479265768479 0.00000000000000 0.00000000000000
0.00000000000000 10.91196705012059 0.00000000000000
0.00000000000000 0.00000000000000 11.07383315160649

ATOMIC_POSITIONS angstrom
Si -0.0010327638 0.0015196121 -0.0073187236 
Si -0.0002238129 2.6977688856 2.7347037950 
Si 2.7505008066 0.0009834021 2.7440337907 
Si 2.7506373560 2.7008826451 0.0049326003 
Si 1.3778064936 1.3566473010 1.3680272047 
Si 5.5136574110 -0.0010383591 -0.0074589213 
Si 5.5156396235 2.6987376135 2.7342924411 
Si 6.8805186701 1.3573665621 1.3736008926 
Si 8.2566924384 0.0084500408 2.7367414043 
Si 8.2699306055 2.7082224623 -0.0060343187 
Si 0.0038514331 5.4016707653 0.0033266515 
Si 2.7507625115 5.4107312114 2.7429601961 
Si 1.3856201919 6.7508242788 1.3758782557 
Si 4.1387885582 4.0612144411 1.3714864420 
Si 5.5145589169 5.3992424932 -0.0085219181 
Si 6.8905866498 6.7614163002 1.3714756285 
Si 9.6309766269 4.0574670701 1.3654829431 
Si 8.2619854865 5.4028006362 2.7438941243 
Si -0.0010695777 8.0951476887 2.7521002257 
Si 2.7511537151 8.0951121919 -0.0040685334 
Si 4.1386127685 9.4555305086 1.3779574626 
Si 5.5098875762 8.1047324467 2.7456282259 
Si 8.2526875825 8.1001759782 -0.0014193978 
Si 9.6459100225 9.4556712103 1.3695129957 
Si -0.0071221165 0.0051714414 5.4834478465 
Si 2.7536997129 2.7008659939 5.4779909212 
Si 1.3760780586 1.3498911960 6.8686859752 
Si 4.1307217577 1.3515068935 4.1202790915 
Si 5.5023358731 -0.0032131471 5.4894114390 
Si 6.8796011092 1.3425868323 6.8560932437 
Si 9.6339000118 1.3494497680 4.1138232417 
Si 8.2623852908 2.7084624048 5.4965248907 
Si 1.3788809620 4.0612174844 4.1081426446 
Si 0.0053376027 5.4047744310 5.4890821685 
Si 1.3705488129 6.7449961355 6.8553856954 
Si 6.8948041464 4.0481951304 4.1058028881 
Si 4.1347499420 6.7481721191 4.1162889504 
Si 4.1338484032 4.0559872910 6.8520221923 
Si 5.5012642210 5.3953388488 5.4970727397 
Si 6.8792890536 6.7529020199 6.8624972577 
Si 9.6475171207 6.7588942211 4.1103659541 
Si 9.6376500404 4.0446052953 6.8512783564 
Si 1.3685333824 9.4449475622 4.1186200677 
Si 2.7546027507 8.1109265222 5.4924696905 
Si 6.8756618445 9.4615371173 4.1221893237 
Si 4.1234118628 9.4575601508 6.8514697704 
Si 8.2663720903 8.1127466552 5.4790356129 
Si 9.6347356110 9.4586601294 6.8508526470 
Si 0.0047384988 2.7026651355 8.2362296930 
Si 2.7477267122 -0.0059034120 8.2303243347 
Si 4.1256620499 1.3472014421 9.5956628310 
Si 5.5007770786 2.6999331696 8.2219262449 
Si 8.2643302586 0.0067478234 8.2238366055 
Si 9.6387771694 1.3410910978 9.6024509776 
Si 1.3856588763 4.0447252633 9.6108785131 
Si 2.7570322103 5.4060337256 8.2392146944 
Si 6.8823963081 4.0563139950 9.6048019390 
Si 4.1294624019 6.7535235478 9.5973019297 
Si 8.2689699198 5.4085069532 8.2282841882 
Si 9.6413668421 6.7626888139 9.5982328634 
Si 0.0088617796 8.0979301718 8.2394918163 
Si 1.3741397631 9.4503203044 9.5949016418 
Si 5.4992212269 8.1134515646 8.2365579432 
Si 6.8811421675 9.4610197147 9.5953075689 

