&CONTROL
   calculation      = 'scf'
   tstress          = .true.
   tprnfor          = .true.
   outdir           = './'
   disk_io          = 'none'
   pseudo_dir       = '/home/ppiaggi/pseudos'
/
&SYSTEM
   ecutwfc          = 30
   occupations      = 'smearing'
   degauss          = 0.01
   smearing         = 'fermi-dirac'
   input_dft        = 'PBE'
   ntyp             = 1
   nat              = 64
   ibrav            = 0
/
&ELECTRONS
   electron_maxstep = 100
   mixing_beta      = 0.5
/
&IONS
/
&CELL
/

ATOMIC_SPECIES
Si 28.085 Si_ONCV_PBE_sr.upf

K_POINTS gamma

CELL_PARAMETERS angstrom
10.87814870099946 0.00000000000000 0.00000000000000
0.00000000000000 10.97828098088651 0.00000000000000
0.00000000000000 0.00000000000000 11.01876724053568

ATOMIC_POSITIONS angstrom
Si 0.0016672893 0.0007832667 -0.0095385235 
Si 0.0080682548 2.7565158793 2.7585070374 
Si 2.6951989887 -0.0016743764 2.7540320685 
Si 2.6928756545 2.7522781737 0.0004703783 
Si 1.3467100735 1.3764621692 1.3845613367 
Si 5.3971626547 0.0066601024 0.0026043077 
Si 5.3900321311 2.7620663398 2.7614290288 
Si 6.7438366383 1.3775797583 1.3775315774 
Si 8.0802259438 0.0008875610 2.7427562419 
Si 8.0755926830 2.7596075868 -0.0050721937 
Si 0.0091929902 5.4955185447 0.0057131514 
Si 2.7036913456 5.4983729773 2.7465636092 
Si 1.3373507431 6.8799007178 1.3806753079 
Si 4.0446693026 4.1357657494 1.3785318139 
Si 5.3875870938 5.5003874090 -0.0091732743 
Si 6.7288161266 6.8783695395 1.3689972185 
Si 9.4299401549 4.1324844781 1.3842645919 
Si 8.0763228840 5.5026090867 2.7542171226 
Si 0.0011079314 8.2662308561 2.7506473528 
Si 2.6875097028 8.2532598972 0.0089599622 
Si 4.0352175347 9.6319563417 1.3834156871 
Si 5.3917869788 8.2598856297 2.7450215455 
Si 8.0813948363 8.2628997346 -0.0020358671 
Si 9.4223958605 9.6365944821 1.3675774788 
Si 0.0081260181 -0.0008822593 5.5005042088 
Si 2.6902464847 2.7600209863 5.5121442805 
Si 1.3511968536 1.3769217825 6.8719067294 
Si 4.0451625064 1.3856473840 4.1353296206 
Si 5.3832154778 -0.0046956785 5.5016660820 
Si 6.7295390357 1.3813891710 6.8883085508 
Si 9.4271021061 1.3668479443 4.1377373525 
Si 8.0867434092 2.7554332234 5.5050923546 
Si 1.3493480296 4.1339273456 4.1258831857 
Si -0.0096784077 5.5027536604 5.4989132879 
Si 1.3482945109 6.8782640601 6.8719637632 
Si 6.7388783709 4.1191919198 4.1299754036 
Si 4.0416184914 6.8771702773 4.1196984171 
Si 4.0351973261 4.1357812208 6.8793280081 
Si 5.3875390885 5.5064016314 5.5032317794 
Si 6.7401830347 6.8900946467 6.8853313636 
Si 9.4235154802 6.8758453108 4.1313200623 
Si 9.4249527689 4.1306255737 6.8779051024 
Si 1.3545063444 9.6419333128 4.1370864829 
Si 2.6967169814 8.2505468777 5.5048404992 
Si 6.7405721529 9.6348284920 4.1231324272 
Si 4.0416184585 9.6429673241 6.8896674448 
Si 8.0883847091 8.2496508862 5.5102149565 
Si 9.4246852567 9.6281344777 6.8700067419 
Si -0.0097938180 2.7429337755 8.2507677607 
Si 2.6999793689 -0.0007326428 8.2464712651 
Si 4.0437421561 1.3777718671 9.6238520973 
Si 5.3954693514 2.7541197532 8.2525118836 
Si 8.0793130220 -0.0039996862 8.2595993184 
Si 9.4355949419 1.3722243659 9.6364669661 
Si 1.3381010320 4.1238061642 9.6409734159 
Si 2.6952722664 5.5094552311 8.2516076995 
Si 6.7370179668 4.1357441175 9.6244653709 
Si 4.0328862896 6.8857534056 9.6325097748 
Si 8.0728647951 5.5126039248 8.2621528459 
Si 9.4219492012 6.8812729142 9.6341452016 
Si -0.0030996364 8.2642961440 8.2609299300 
Si 1.3522578267 9.6312253454 9.6299076217 
Si 5.3913950289 8.2543925883 8.2554887240 
Si 6.7287695093 9.6313105162 9.6398598559 

