&CONTROL
   calculation      = 'scf'
   tstress          = .true.
   tprnfor          = .true.
   outdir           = './'
   disk_io          = 'none'
   pseudo_dir       = '/home/ppiaggi/pseudos'
/
&SYSTEM
   ecutwfc          = 30
   occupations      = 'smearing'
   degauss          = 0.01
   smearing         = 'fermi-dirac'
   input_dft        = 'PBE'
   ntyp             = 1
   nat              = 64
   ibrav            = 0
/
&ELECTRONS
   electron_maxstep = 100
   mixing_beta      = 0.5
/
&IONS
/
&CELL
/

ATOMIC_SPECIES
Si 28.085 Si_ONCV_PBE_sr.upf

K_POINTS gamma

CELL_PARAMETERS angstrom
10.91079640145476 0.00000000000000 0.00000000000000
0.00000000000000 11.05018848332612 0.00000000000000
0.00000000000000 0.00000000000000 10.88192002436454

ATOMIC_POSITIONS angstrom
Si -0.0065095283 0.0034614769 0.0088564469 
Si 0.0047065119 2.7899038833 2.7115395411 
Si 2.7088757526 -0.0046484229 2.6963417779 
Si 2.7168687209 2.7916581020 0.0055019295 
Si 1.3614326847 1.4017576671 1.3514007620 
Si 5.4367150226 0.0064149285 0.0021308474 
Si 5.4404806087 2.7844631932 2.6952798240 
Si 6.7928686195 1.3882683968 1.3546898974 
Si 8.1424389669 -0.0008930169 2.7096581085 
Si 8.1561549105 2.7951027045 -0.0035700917 
Si -0.0025300111 5.5729738034 -0.0075628037 
Si 2.7129175877 5.5620832377 2.7066607173 
Si 1.3538122627 6.9664356177 1.3470045879 
Si 4.0715520651 4.1741332388 1.3609729598 
Si 5.4237881729 5.5683934797 -0.0007700092 
Si 6.7952433698 6.9539819083 1.3500471489 
Si 9.5081258648 4.1852417309 1.3556531341 
Si 8.1552696368 5.5658103496 2.6969054618 
Si 0.0092396829 8.3631596336 2.7081663549 
Si 2.7181629276 8.3513539000 0.0069490083 
Si 4.0681455468 9.7405919224 1.3566568195 
Si 5.4321009505 8.3595176594 2.7012227698 
Si 8.1451578765 8.3540005814 -0.0050729368 
Si 9.4982549152 9.7488139146 1.3548955454 
Si 0.0006903533 0.0050781806 5.4051725653 
Si 2.7181402465 2.7817903504 5.4160565020 
Si 1.3531552289 1.3858628048 6.7542106935 
Si 4.0798399373 1.3830714873 4.0580020495 
Si 5.4300804197 0.0012475734 5.4173062939 
Si 6.7892151054 1.4013240903 6.7701713917 
Si 9.5076438260 1.3991718254 4.0478287606 
Si 8.1478926726 2.7789937237 5.4184422539 
Si 1.3644753292 4.1710550881 4.0655546264 
Si 0.0021894645 5.5649002851 5.4155286259 
Si 1.3480778388 6.9636178865 6.7604559972 
Si 6.7883243091 4.1872796276 4.0625379851 
Si 4.0800964399 6.9725118815 4.0594753428 
Si 4.0683593619 4.1788797147 6.7587297210 
Si 5.4277930930 5.5692897932 5.4163069847 
Si 6.7920983743 6.9667092865 6.7625778685 
Si 9.4996499276 6.9697354757 4.0494275486 
Si 9.5143857826 4.1812059932 6.7702718385 
Si 1.3639822179 9.7542329794 4.0519437174 
Si 2.7217023004 8.3610935561 5.4104935551 
Si 6.7834110075 9.7446584101 4.0638411394 
Si 4.0698196135 9.7463643507 6.7518433988 
Si 8.1553156948 8.3474440045 5.4088239492 
Si 9.4978682062 9.7386363073 6.7579529629 
Si 0.0042191391 2.7855939471 8.1196498910 
Si 2.7165452436 -0.0017384086 8.1229553822 
Si 4.0724474914 1.3961339768 9.4614774108 
Si 5.4353059714 2.7762026866 8.1148354225 
Si 8.1381511684 -0.0077846032 8.1149555375 
Si 9.4965498574 1.3950655668 9.4689571638 
Si 1.3628605866 4.1777945220 9.4628015896 
Si 2.7191365718 5.5727790670 8.1232231728 
Si 6.7891127072 4.1863539194 9.4756399502 
Si 4.0736219148 6.9597386577 9.4666499129 
Si 8.1400407559 5.5796600255 8.1154791645 
Si 9.4991198309 6.9613121827 9.4613476471 
Si -0.0049524267 8.3638502545 8.1104620551 
Si 1.3572885504 9.7474052101 9.4585227270 
Si 5.4260811630 8.3595427528 8.1071920477 
Si 6.7864753361 9.7544151661 9.4696059540 

