&CONTROL
   calculation      = 'scf'
   tstress          = .true.
   tprnfor          = .true.
   outdir           = './'
   disk_io          = 'none'
   pseudo_dir       = '/home/ppiaggi/pseudos'
/
&SYSTEM
   ecutwfc          = 30
   occupations      = 'smearing'
   degauss          = 0.01
   smearing         = 'fermi-dirac'
   input_dft        = 'PBE'
   ntyp             = 1
   nat              = 64
   ibrav            = 0
/
&ELECTRONS
   electron_maxstep = 100
   mixing_beta      = 0.5
/
&IONS
/
&CELL
/

ATOMIC_SPECIES
Si 28.085 Si_ONCV_PBE_sr.upf

K_POINTS gamma

CELL_PARAMETERS angstrom
10.91305104788456 0.00000000000000 0.00000000000000
0.00000000000000 11.06830501472218 0.00000000000000
0.00000000000000 0.00000000000000 11.05433427932179

ATOMIC_POSITIONS angstrom
Si 0.0027575127 0.0097510855 -0.0084772582 
Si -0.0016741703 2.7639880120 2.7685792700 
Si 2.7277614189 0.0043194908 2.7690216756 
Si 2.7294579442 2.7631357121 0.0029600544 
Si 1.3728090799 1.3725831954 1.3845772759 
Si 5.4599966919 0.0071826521 0.0075052563 
Si 5.4533432035 2.7525310940 2.7638706355 
Si 6.8278355781 1.3732318097 1.3744287455 
Si 8.1989140841 -0.0087811175 2.7628000740 
Si 8.2016584877 2.7537657927 0.0045657829 
Si -0.0057423333 5.5284749074 -0.0050335545 
Si 2.7218884800 5.5290980710 2.7591519021 
Si 1.3730667570 6.8985388134 1.3852276058 
Si 4.1037535303 4.1361812207 1.3775269016 
Si 5.4568463769 5.5156958843 -0.0074739111 
Si 6.8209425478 6.9021552876 1.3919987444 
Si 9.5497932769 4.1332027670 1.3859975374 
Si 8.1896236009 5.5302600357 2.7624348354 
Si 0.0015780843 8.2750186172 2.7750913678 
Si 2.7356507076 8.2730471956 0.0032324700 
Si 4.0863303382 9.6653637270 1.3834300476 
Si 5.4566988826 8.2833961762 2.7674828891 
Si 8.2006036929 8.2802233720 0.0069454272 
Si 9.5480317214 9.6657925944 1.3843783157 
Si -0.0022794242 -0.0004399429 5.5254136668 
Si 2.7318936549 2.7612530712 5.5314572700 
Si 1.3680846024 1.3764453658 6.9145765134 
Si 4.1037967574 1.3704994754 4.1453817900 
Si 5.4602299573 -0.0042020580 5.5264771523 
Si 6.8223372543 1.3733729020 6.9245740799 
Si 9.5659531659 1.3762901746 4.1493849392 
Si 8.1967498871 2.7589257358 5.5308829639 
Si 1.3711958928 4.1346352161 4.1575409072 
Si 0.0059139689 5.5140787927 5.5302666755 
Si 1.3730675343 6.9062111026 6.9157288256 
Si 6.8165600776 4.1302800128 4.1557260766 
Si 4.0868342377 6.8949103862 4.1476185883 
Si 4.0976044130 4.1342181112 6.9172666116 
Si 5.4678155823 5.5267745761 5.5294569921 
Si 6.8326353279 6.9069490382 6.9113781180 
Si 9.5665696303 6.9040075502 4.1591921094 
Si 9.5664150848 4.1430181156 6.9200017874 
Si 1.3627330852 9.6567772775 4.1604408161 
Si 2.7217813286 8.2822562046 5.5265405662 
Si 6.8284801789 9.6541966423 4.1509088690 
Si 4.0988186644 9.6688267779 6.9151449618 
Si 8.1907117273 8.2855204357 5.5377773756 
Si 9.5496315658 9.6574749233 6.9201056732 
Si 0.0042024445 2.7638919181 8.3003191711 
Si 2.7210949413 0.0019206880 8.3096215602 
Si 4.0999872535 1.3853968900 9.6947423079 
Si 5.4618961062 2.7625443587 8.3033713025 
Si 8.1823403564 0.0042523102 8.3111952570 
Si 9.5545657752 1.3868589774 9.6752342771 
Si 1.3573339601 4.1398570210 9.6757680573 
Si 2.7278048021 5.5143687479 8.2972712080 
Si 6.8330940599 4.1500465086 9.6825836186 
Si 4.1011219903 6.9078818633 9.6789438143 
Si 8.1882898918 5.5173485187 8.3070894466 
Si 9.5628165689 6.8978475148 9.6824955398 
Si -0.0065726318 8.2797537517 8.3102178796 
Si 1.3696354467 9.6705987352 9.6785208388 
Si 5.4701741571 8.2762190117 8.3063133935 
Si 6.8229240440 9.6696613045 9.6866578707 

