&CONTROL
   calculation      = 'scf'
   tstress          = .true.
   tprnfor          = .true.
   outdir           = './'
   disk_io          = 'none'
   pseudo_dir       = '/home/ppiaggi/pseudos'
/
&SYSTEM
   ecutwfc          = 30
   occupations      = 'smearing'
   degauss          = 0.01
   smearing         = 'fermi-dirac'
   input_dft        = 'PBE'
   ntyp             = 1
   nat              = 64
   ibrav            = 0
/
&ELECTRONS
   electron_maxstep = 100
   mixing_beta      = 0.5
/
&IONS
/
&CELL
/

ATOMIC_SPECIES
Si 28.085 Si_ONCV_PBE_sr.upf

K_POINTS gamma

CELL_PARAMETERS angstrom
10.97010824898193 0.00000000000000 0.00000000000000
0.00000000000000 11.02688132109665 0.00000000000000
0.00000000000000 0.00000000000000 11.00762227322255

ATOMIC_POSITIONS angstrom
Si -0.0027621045 0.0017640969 0.0001007084 
Si -0.0022866514 2.7488534636 2.7548060234 
Si 2.7201372126 -0.0063273160 2.7546768994 
Si 2.7207825380 2.7478493378 0.0088444346 
Si 1.3594699298 1.3689413852 1.3780179702 
Si 5.4525246974 0.0074432866 -0.0034069859 
Si 5.4481776142 2.7639225428 2.7424989736 
Si 6.8279929124 1.3763536841 1.3731553596 
Si 8.1907978295 -0.0036243246 2.7430007101 
Si 8.1888515355 2.7627908866 0.0002598192 
Si 0.0002960369 5.5079400588 0.0057087345 
Si 2.7230197320 5.5204265326 2.7531098413 
Si 1.3604467331 6.8815984201 1.3651729288 
Si 4.0937287458 4.1283427288 1.3810532987 
Si 5.4510229371 5.5015170503 0.0027279176 
Si 6.8298101600 6.8987275676 1.3732324050 
Si 9.5415182743 4.1370931078 1.3697058154 
Si 8.1769090786 5.5186333804 2.7559378685 
Si 0.0088927601 8.2735819229 2.7591112814 
Si 2.7267353009 8.2762941209 -0.0001311085 
Si 4.1004498969 9.6427151008 1.3707721393 
Si 5.4479770639 8.2590417945 2.7518996846 
Si 8.1877331400 8.2702467662 -0.0088614789 
Si 9.5436025215 9.6540474573 1.3659895404 
Si -0.0009709195 -0.0090771841 5.4983388085 
Si 2.7273632576 2.7626017230 5.4964402209 
Si 1.3569032691 1.3739506002 6.8802372194 
Si 4.0857170680 1.3800951587 4.1234609784 
Si 5.4498911171 -0.0037143424 5.5011614493 
Si 6.8260332503 1.3794071202 6.8686563224 
Si 9.5548028771 1.3702170440 4.1329429684 
Si 8.1793650226 2.7457171733 5.4900247964 
Si 1.3720922575 4.1274653438 4.1207087684 
Si -0.0046564304 5.5075764228 5.5045048324 
Si 1.3576622078 6.8793839078 6.8777882894 
Si 6.8265834689 4.1258616950 4.1221782616 
Si 4.0995398783 6.8826342093 4.1274028323 
Si 4.1027338133 4.1260617859 6.8816669215 
Si 5.4521135664 5.5060341188 5.5061564837 
Si 6.8282992542 6.8957447618 6.8704690819 
Si 9.5424770588 6.8975754846 4.1190341947 
Si 9.5509599250 4.1322041803 6.8673324192 
Si 1.3636404138 9.6507879506 4.1179168691 
Si 2.7282958387 8.2756101163 5.5083015483 
Si 6.8120603318 9.6367908503 4.1220902233 
Si 4.0915848145 9.6420793380 6.8836657479 
Si 8.1900514487 8.2709353502 5.4949660865 
Si 9.5514494461 9.6436253483 6.8719511387 
Si -0.0075906028 2.7577305365 8.2552346853 
Si 2.7380028925 -0.0025662324 8.2580985665 
Si 4.0963655097 1.3869759385 9.6318492792 
Si 5.4580176896 2.7566995298 8.2533802300 
Si 8.1860708162 0.0066536861 8.2550748373 
Si 9.5537021129 1.3731796435 9.6307851792 
Si 1.3622235206 4.1384694444 9.6243029033 
Si 2.7308093205 5.5084967984 8.2551305021 
Si 6.8313625011 4.1344975641 9.6247166312 
Si 4.0868862071 6.8882236058 9.6147937760 
Si 8.1945003656 5.5058918563 8.2561363946 
Si 9.5491196496 6.8911997338 9.6219309956 
Si 0.0064557132 8.2613788042 8.2544275962 
Si 1.3707709621 9.6517025538 9.6161088260 
Si 5.4527817136 8.2653835306 8.2522867593 
Si 6.8264799870 9.6369365390 9.6246017539 

