&CONTROL
   calculation      = 'scf'
   tstress          = .true.
   tprnfor          = .true.
   outdir           = './'
   disk_io          = 'none'
   pseudo_dir       = '/home/ppiaggi/pseudos'
/
&SYSTEM
   ecutwfc          = 30
   occupations      = 'smearing'
   degauss          = 0.01
   smearing         = 'fermi-dirac'
   input_dft        = 'PBE'
   ntyp             = 1
   nat              = 64
   ibrav            = 0
/
&ELECTRONS
   electron_maxstep = 100
   mixing_beta      = 0.5
/
&IONS
/
&CELL
/

ATOMIC_SPECIES
Si 28.085 Si_ONCV_PBE_sr.upf

K_POINTS gamma

CELL_PARAMETERS angstrom
10.91888965511759 0.00000000000000 0.00000000000000
0.00000000000000 10.92824724169986 0.00000000000000
0.00000000000000 0.00000000000000 11.07074001791619

ATOMIC_POSITIONS angstrom
Si 0.0062324703 -0.0051585747 -0.0036846794 
Si 0.0085876884 2.7087682984 2.7842484992 
Si 2.7538050386 -0.0001894471 2.7843455593 
Si 2.7482012262 2.7012603913 -0.0038524029 
Si 1.3796156599 1.3594815112 1.3865968618 
Si 5.5044744377 -0.0030086052 -0.0095624887 
Si 5.4890085833 2.7176678718 2.7816987637 
Si 6.8645079274 1.3535092401 1.3804101676 
Si 8.2494310294 -0.0087118717 2.7831806211 
Si 8.2378915152 2.7012555115 -0.0042528149 
Si -0.0086133569 5.4262676888 -0.0001545790 
Si 2.7533732495 5.4074395195 2.7799883223 
Si 1.3788427781 6.7651732619 1.3859848971 
Si 4.1245198009 4.0567255718 1.3977822707 
Si 5.4936425532 5.4104105802 -0.0005999998 
Si 6.8812105939 6.7631928665 1.3863898550 
Si 9.6110798114 4.0583704231 1.3965799382 
Si 8.2395407504 5.4121881038 2.7896534946 
Si 0.0038060640 8.1321248124 2.7807203895 
Si 2.7546792271 8.1320368001 -0.0036112125 
Si 4.1183593744 9.4828637235 1.3949646736 
Si 5.5064645783 8.1344989923 2.7843529233 
Si 8.2511418404 8.1251980683 0.0018446414 
Si 9.6277940041 9.4815196359 1.3816879113 
Si 0.0080013804 -0.0083561833 5.5685036399 
Si 2.7419791709 2.7159364453 5.5608667273 
Si 1.3828932143 1.3520002875 6.9516248789 
Si 4.1195417553 1.3499556499 4.1710589185 
Si 5.4880833435 0.0061045523 5.5578892913 
Si 6.8650200257 1.3611483289 6.9587753878 
Si 9.6136349342 1.3593393884 4.1673475265 
Si 8.2546375552 2.7096004322 5.5630799181 
Si 1.3842385595 4.0710795625 4.1756864185 
Si -0.0056772092 5.4196426805 5.5560663973 
Si 1.3723730845 6.7812077142 6.9563850324 
Si 6.8748511571 4.0586223590 4.1684218064 
Si 4.1270514124 6.7621888581 4.1792392794 
Si 4.1231180524 4.0711708015 6.9557077969 
Si 5.4936584760 5.4184346793 5.5580921325 
Si 6.8760899146 6.7696188078 6.9505134063 
Si 9.6228479631 6.7748947453 4.1667267658 
Si 9.6174831994 4.0615360985 6.9552429359 
Si 1.3703923154 9.4859661140 4.1616471060 
Si 2.7534306674 8.1326219131 5.5643069276 
Si 6.8789528788 9.4751458094 4.1626031922 
Si 4.1265454607 9.4730027518 6.9424988353 
Si 8.2555517542 8.1290182621 5.5649667919 
Si 9.6285336788 9.4702339907 6.9495339800 
Si -0.0065760423 2.7031523002 8.3294658720 
Si 2.7564503826 0.0023155324 8.3439421677 
Si 4.1186937216 1.3524413821 9.7221121379 
Si 5.4936808806 2.6994269852 8.3365152122 
Si 8.2420123545 0.0018226699 8.3396164992 
Si 9.6249280574 1.3446910840 9.7289108652 
Si 1.3757784241 4.0676223705 9.7261326173 
Si 2.7514325504 5.4234120064 8.3447012058 
Si 6.8691424423 4.0530540583 9.7265988766 
Si 4.1266951953 6.7733504246 9.7383191647 
Si 8.2519501252 5.4100773932 8.3384818872 
Si 9.6238775086 6.7633001035 9.7238668226 
Si 0.0076662636 8.1308561630 8.3445475906 
Si 1.3704728951 9.4809227126 9.7333893917 
Si 5.4992621057 8.1220128913 8.3385333106 
Si 6.8671024639 9.4865420593 9.7244292551 

