&CONTROL
   calculation      = 'scf'
   tstress          = .true.
   tprnfor          = .true.
   outdir           = './'
   disk_io          = 'none'
   pseudo_dir       = '/home/ppiaggi/pseudos'
/
&SYSTEM
   ecutwfc          = 30
   occupations      = 'smearing'
   degauss          = 0.01
   smearing         = 'fermi-dirac'
   input_dft        = 'PBE'
   ntyp             = 1
   nat              = 64
   ibrav            = 0
/
&ELECTRONS
   electron_maxstep = 100
   mixing_beta      = 0.5
/
&IONS
/
&CELL
/

ATOMIC_SPECIES
Si 28.085 Si_ONCV_PBE_sr.upf

K_POINTS gamma

CELL_PARAMETERS angstrom
10.55938393485241 0.00000000000000 0.00000000000000
0.00000000000000 10.55938393485241 0.00000000000000
0.00000000000000 0.00000000000000 10.55938393485241

ATOMIC_POSITIONS angstrom
Si 6.9104937817 8.4466096002 6.8458809114 
Si 3.7889709404 9.8749563463 9.4870362587 
Si 6.0219005048 6.7086089203 5.0730448238 
Si 10.3808036337 5.4232573514 3.7866161978 
Si 7.9715640358 9.7413062239 3.3894777680 
Si 4.0685095113 0.3938840277 1.1201922447 
Si 5.9957977077 3.3677993528 2.8905363177 
Si 8.5010537838 6.9497007743 3.9909719551 
Si 0.0203752816 9.4522536481 1.8288008224 
Si 4.9173678265 4.8708431809 0.2094802263 
Si 4.7344476186 6.9039258449 7.9533596579 
Si 4.6209131225 7.5739609931 10.3742990532 
Si 4.0781924664 8.3311532963 5.9985325882 
Si 3.9553551531 5.8567517401 4.4572004340 
Si 1.6258177851 9.1041002003 4.6972574683 
Si 7.4563083373 4.6125817686 0.3196251601 
Si 5.1470872240 9.7229856928 2.5174732833 
Si 9.3893091604 5.9104567668 10.1523513623 
Si 10.3399176992 8.0483201976 6.2242499792 
Si 4.4680554807 7.4716405628 2.3772657834 
Si 10.0687527197 2.5002403687 0.1324062270 
Si 9.1576045987 1.8239751840 5.5250814907 
Si 9.1505086927 0.6356907520 7.8798557863 
Si 8.9580955987 6.0005705493 6.6454321262 
Si 3.6080464561 3.9367389592 2.4075923341 
Si 0.8633109439 4.6773952672 9.9633595086 
Si 5.6413931047 2.0361026479 0.4149267680 
Si 2.2370582835 6.4490698225 7.7936278571 
Si 6.6665931316 6.1513691112 2.3067818956 
Si 1.6910008621 6.2048418315 5.3591935691 
Si 0.5710958326 2.7357040711 2.7100130900 
Si 2.2915552640 2.2778069461 0.6166352877 
Si 0.4929574474 3.4380509341 5.6948341468 
Si 6.3679526351 5.2825430011 7.3618863262 
Si 7.2879072823 1.4004277350 2.4461340854 
Si 8.8230199594 3.6054277289 2.2199520815 
Si 1.6961644008 5.2926694503 2.2331090739 
Si 2.2673637154 6.7884273034 0.0257596171 
Si 2.8193871888 1.2247301457 3.4084318622 
Si 9.1087146511 2.9484334198 8.2603526270 
Si 9.4108080661 7.5165707414 1.5571817895 
Si 3.0679867647 3.4452313152 5.1178271711 
Si 7.0434364254 8.2528977020 0.7211256714 
Si 1.1297273684 0.7588775809 9.5312061617 
Si 4.1797315023 10.3310372573 4.5396692225 
Si 7.7378954287 7.3385923252 9.0086856071 
Si 0.5654740166 0.6446788996 4.2486948388 
Si 5.7975452744 3.6472851268 5.7211798097 
Si 1.7912410938 9.0669417283 7.5387243289 
Si 8.8375919092 0.2739241465 0.1662522204 
Si 6.3980152012 1.2700721403 4.9482012276 
Si 6.4311716668 10.2916718740 9.7943248906 
Si 1.5513107720 1.1272142350 6.9688343779 
Si 3.5878041171 2.7313536049 7.4462663632 
Si 3.0884614102 3.5518071772 9.7344531837 
Si 4.2022229901 0.2993395277 7.2754472093 
Si 1.9946781847 7.6025346860 2.7493784733 
Si 6.5554450563 0.8278694277 7.4207865697 
Si 1.0767826174 8.8721527728 10.3063388582 
Si 8.4716458996 9.5948370093 5.7130385247 
Si 6.6544498401 2.9216865003 8.7181758363 
Si 0.2157736191 4.5684329843 7.5674247344 
Si 8.2088439522 4.1513689971 4.9095855605 
Si 9.7461846593 8.9250869645 8.7280488603 

