&CONTROL
   calculation      = 'scf'
   tstress          = .true.
   tprnfor          = .true.
   outdir           = './'
   disk_io          = 'none'
   pseudo_dir       = '/home/ppiaggi/pseudos'
/
&SYSTEM
   ecutwfc          = 30
   occupations      = 'smearing'
   degauss          = 0.01
   smearing         = 'fermi-dirac'
   input_dft        = 'PBE'
   ntyp             = 1
   nat              = 64
   ibrav            = 0
/
&ELECTRONS
   electron_maxstep = 100
   mixing_beta      = 0.5
/
&IONS
/
&CELL
/

ATOMIC_SPECIES
Si 28.085 Si_ONCV_PBE_sr.upf

K_POINTS gamma

CELL_PARAMETERS angstrom
10.57245778973957 0.00000000000000 0.00000000000000
0.00000000000000 10.57245778973957 0.00000000000000
0.00000000000000 0.00000000000000 10.57245778973957

ATOMIC_POSITIONS angstrom
Si 2.4428932418 3.4437349585 4.1128658120 
Si 6.5062376615 5.1543692013 6.9459144636 
Si 9.8074664614 7.5689388287 0.1695526201 
Si 4.5168817140 7.7597928367 0.4356286080 
Si 3.4245459476 10.4263252782 9.8960530853 
Si 10.2635834354 8.9045891387 6.1663331436 
Si 3.1306104761 4.2688624267 9.3296442316 
Si 0.8205527657 0.0591563902 1.9535998953 
Si 4.8642398147 7.1704734671 8.3677725944 
Si 10.0290968941 3.6967655908 5.1677222155 
Si 8.8882864087 10.3793307033 3.9786167430 
Si 3.7057733248 7.0940663146 2.7221964317 
Si 9.6185260683 5.3407722046 3.6879904508 
Si 7.7188985700 2.0581615028 1.9825790021 
Si 0.9476886851 1.4561128940 8.0702424873 
Si 6.3326801944 3.6453094387 4.3594895349 
Si 7.6138929192 8.1761890868 3.2532298416 
Si 6.1598205096 5.7485624740 3.3888004678 
Si 10.1762866514 3.0591723788 1.3608550493 
Si 3.2087092218 0.5957706834 7.1055797212 
Si 4.7025340728 7.3952227748 5.7538169855 
Si 4.0974194512 2.2132594586 2.0450093654 
Si 7.8481362940 6.2938369845 5.1802294331 
Si 5.9824886751 8.9837979924 4.7468538158 
Si 5.9157870389 5.6991468063 0.9094872234 
Si 0.8623900957 5.8712558467 0.2819484188 
Si 2.7827766148 6.0531655554 8.0640470270 
Si 2.2632248941 8.8837085345 6.0023754682 
Si 1.4794991706 6.5246337381 6.1194760107 
Si 1.3934605091 8.0518358383 2.3859817015 
Si 8.6388081223 7.5574782845 8.8130316542 
Si 7.7508168201 9.0184016468 1.0132812705 
Si 7.9169418493 3.2626921913 7.2060920774 
Si 9.0486071587 0.1460119856 1.5385674923 
Si 3.8225989834 4.3989776647 1.1852359530 
Si 7.9624668526 2.0866225592 4.8207341508 
Si 1.4142776785 5.0859125371 2.3480582954 
Si 2.4471116525 10.2416032957 4.0105984278 
Si 7.9582061521 9.1162074538 6.5056667488 
Si 1.4933702353 3.7012800302 6.6450857497 
Si 6.7537071810 6.1072965393 9.1190408725 
Si 0.3692864354 2.0634265868 3.4274322286 
Si 5.4518147288 10.1255705714 0.9166574643 
Si 4.1851602784 1.5777595933 4.7544342680 
Si 9.8342042072 4.1600718360 8.5537844167 
Si 8.0464544572 3.9585396456 0.0801419789 
Si 4.5046388078 9.7758230953 3.0457559299 
Si 2.3244182798 7.7591479168 9.8060391796 
Si 8.5635005054 5.9399768223 1.5902456660 
Si 9.9179486454 10.3525295228 8.5695902411 
Si 6.0027349317 1.9012027945 8.6177689313 
Si 4.6720008147 4.1002422974 5.8669211390 
Si 9.5449734794 6.1465732200 7.1738355086 
Si 5.7531932105 1.8162425237 0.6056263286 
Si 10.4705181517 7.5880538324 4.0844681904 
Si 4.0424849605 2.8243898087 8.0550392930 
Si 4.9688437120 9.5691738353 8.2127486458 
Si 2.2870869314 1.4567366690 0.9505612219 
Si 0.9538830881 3.2472035406 10.0835873415 
Si 6.3902683720 0.7052283961 6.2465252359 
Si 0.6891106842 9.4707336808 10.2037433243 
Si 7.4660159521 10.1498449345 9.1951837135 
Si 3.3102788238 5.7703523095 4.7006310304 
Si 0.4282722919 0.5853219234 5.4729067821 

