&CONTROL
   calculation      = 'scf'
   tstress          = .true.
   tprnfor          = .true.
   outdir           = './'
   disk_io          = 'none'
   pseudo_dir       = '/home/ppiaggi/pseudos'
/
&SYSTEM
   ecutwfc          = 30
   occupations      = 'smearing'
   degauss          = 0.01
   smearing         = 'fermi-dirac'
   input_dft        = 'PBE'
   ntyp             = 1
   nat              = 64
   ibrav            = 0
/
&ELECTRONS
   electron_maxstep = 100
   mixing_beta      = 0.5
/
&IONS
/
&CELL
/

ATOMIC_SPECIES
Si 28.085 Si_ONCV_PBE_sr.upf

K_POINTS gamma

CELL_PARAMETERS angstrom
10.53986800161017 0.00000000000000 0.00000000000000
0.00000000000000 10.53986800161017 0.00000000000000
0.00000000000000 0.00000000000000 10.53986800161017

ATOMIC_POSITIONS angstrom
Si 0.0798787084 8.3522867783 6.9167567565 
Si 10.2815674565 0.9217177807 0.9789176443 
Si 6.3160264398 6.2226959087 1.3009359074 
Si 2.9355007966 2.6571534225 1.0539309389 
Si 5.0622564417 9.9519963240 8.6723509499 
Si 6.1630613355 2.2335245080 9.4465464141 
Si 6.4019474438 2.2500194014 6.6479690427 
Si 3.8492019537 0.8371363939 10.0685567242 
Si 8.6613578676 2.7987881688 8.6657002932 
Si 0.7676976356 9.3223656893 0.5186985240 
Si 0.4237880666 6.3145086988 8.9210602151 
Si 3.2731560079 6.7597970422 1.6438294331 
Si 3.2776038322 9.5224545434 1.1097532418 
Si 6.0313024456 5.7160866133 9.3984424565 
Si 3.9484980501 7.6944725366 9.4439852261 
Si 3.9234658636 0.4643381008 6.6809166700 
Si 7.3223203373 10.3714619907 8.5649286152 
Si 8.0767008496 10.0147506980 0.4051567419 
Si 1.6174903030 0.1787319196 8.8918331611 
Si 2.6312148074 5.9605904712 5.7823718432 
Si 3.8758678197 8.5371876826 4.0794032107 
Si 2.4267519080 10.4728976803 3.1415025167 
Si 3.4267429644 4.5310365546 3.8194479063 
Si 5.5551849884 0.6999895235 2.3836333080 
Si 3.3922986758 8.4732001440 6.3795080648 
Si 7.2071090402 6.8740492113 5.0401332588 
Si 5.6881032638 7.9255064432 7.3614654070 
Si 9.6767687508 0.1708280726 3.3276471255 
Si 9.4308947101 8.0894224703 9.9487289649 
Si 2.0397701145 8.4127645409 8.2154055125 
Si 7.3504828646 1.6906896863 4.0354203415 
Si 2.5394547166 3.2013795068 8.6318673169 
Si 6.3235729853 4.6002940272 6.3690735955 
Si 0.7971407568 6.9429167088 1.9479994838 
Si 1.3457830458 4.4790644654 1.7830294698 
Si 4.5766636431 4.0797826459 10.1982076405 
Si 2.4315264682 5.4402477278 10.0605042650 
Si 8.2138034526 5.5181057328 8.2423664949 
Si 7.4959119633 4.2210274170 4.0445478672 
Si 9.7525820214 3.3276682052 1.6507752061 
Si 5.7674684698 8.7788457762 1.8047942973 
Si 8.4004434352 8.1607457571 7.8870886243 
Si 8.7464040625 0.6085129552 6.5178332925 
Si 9.0862621062 3.3598885817 6.1865230817 
Si 3.7722398375 2.7422417769 6.5690886706 
Si 9.4636842394 5.0997045927 10.2842340431 
Si 5.5829575406 3.6162181715 1.9433197824 
Si 9.6308570858 6.1019933403 5.8767352814 
Si 0.3509386069 2.1794549851 9.2883535352 
Si 7.5156952955 2.1542225411 1.0394986976 
Si 1.2111256922 7.3612229901 4.3245816201 
Si 7.7473194347 9.3524570124 5.4497652286 
Si 5.1123208147 6.4822612380 3.6490182407 
Si 1.8723443113 2.5337737277 5.2735175559 
Si 9.4496451353 5.4434096882 3.2700151272 
Si 0.8454544578 9.7489984662 4.8012366106 
Si 10.2935723661 2.6113998556 4.1841694986 
Si 0.8204254332 4.6020752649 6.9547529806 
Si 7.9441409298 8.8911059103 3.1962782107 
Si 3.6157122578 1.9457650318 3.2445402663 
Si 5.5659461936 0.0104403295 5.0397749033 
Si 4.4183337460 5.6619011519 7.3347679214 
Si 8.5385473256 7.0565681055 1.6245520146 
Si 0.9492574018 0.8367074213 6.4865088048 

