&CONTROL
   calculation      = 'scf'
   tstress          = .true.
   tprnfor          = .true.
   outdir           = './'
   disk_io          = 'none'
   pseudo_dir       = '/home/ppiaggi/pseudos'
/
&SYSTEM
   ecutwfc          = 30
   occupations      = 'smearing'
   degauss          = 0.01
   smearing         = 'fermi-dirac'
   input_dft        = 'PBE'
   ntyp             = 1
   nat              = 64
   ibrav            = 0
/
&ELECTRONS
   electron_maxstep = 100
   mixing_beta      = 0.5
/
&IONS
/
&CELL
/

ATOMIC_SPECIES
Si 28.085 Si_ONCV_PBE_sr.upf

K_POINTS gamma

CELL_PARAMETERS angstrom
10.61739642679996 0.00000000000000 0.00000000000000
0.00000000000000 10.61739642679996 0.00000000000000
0.00000000000000 0.00000000000000 10.61739642679996

ATOMIC_POSITIONS angstrom
Si 10.1452620425 2.4570460289 8.2102840133 
Si 8.3161500731 0.5861153202 8.1701927244 
Si 9.8273134891 10.0253173151 4.7004169547 
Si 6.4158696954 6.4783318386 3.1034225060 
Si 1.9393842487 3.7578682043 2.5825436547 
Si 2.8104460690 0.6971584224 5.8714308414 
Si 3.9605967717 10.0097628293 3.0397181274 
Si 2.8034279699 5.6293117333 1.2396765894 
Si 4.2310643283 7.4625751047 2.4797035529 
Si 10.0710676763 5.2440807387 7.5703522959 
Si 8.3135594283 1.0319206848 5.9128811571 
Si 7.3135493285 7.7720191236 5.3014996186 
Si 6.7231265306 5.1587699585 8.1246653285 
Si 2.8880486195 10.0656315693 1.2275302879 
Si 1.9579328403 9.9187611245 8.6136919905 
Si 7.3784322380 4.7744626774 1.5518598965 
Si 3.8169540154 4.4166351830 10.2154111807 
Si 0.8563875166 0.8515247491 3.8596996534 
Si 0.6378039912 6.5157156914 5.9451580422 
Si 9.6706113352 5.0358417426 2.5207610249 
Si 6.4900534442 0.1653839989 10.4783934728 
Si 8.4425183253 1.8751702351 0.6394284528 
Si 4.3323861424 0.0021453193 7.6259237488 
Si 3.6170072059 1.2494445941 10.3863512632 
Si 0.0774135608 8.7763080342 6.7653412988 
Si 2.5860580129 9.1138456840 4.8610156931 
Si 5.9996465207 0.3956413518 2.2096819269 
Si 9.7757235599 4.2403651675 10.3652120269 
Si 6.0001455383 4.2293443100 4.6112308247 
Si 4.5361658320 5.6654852029 8.0616935503 
Si 1.6004344852 5.4195650669 8.9389771649 
Si 8.5561987889 6.8620870150 8.6582425859 
Si 7.9667315567 8.7848868905 7.5242197084 
Si 9.6153477868 2.5554162068 3.0583516581 
Si 0.7023598849 1.1822683269 9.7414718390 
Si 0.2499409441 7.7910667328 2.2764547331 
Si 2.1035398149 7.0164639591 3.7205480559 
Si 6.1215979360 1.6923917556 8.4587523245 
Si 5.9661061654 1.3112378413 5.1319822673 
Si 6.8509706010 3.5242642481 10.0631364811 
Si 9.5367578185 3.2089806612 5.5206214461 
Si 0.4042966533 6.4100513621 0.3185579920 
Si 9.4451615395 6.7355382670 4.4616423265 
Si 6.8923996818 2.6022601598 2.8121554698 
Si 4.4543800273 2.5639950631 1.4890049097 
Si 0.6789803780 10.1549238732 1.6855966219 
Si 0.3152230677 2.3206655718 1.1611184732 
Si 1.4817001409 2.4874648697 6.5624428531 
Si 3.6068357401 2.2108179884 3.7788269449 
Si 2.5756635818 7.4830454450 7.5906209056 
Si 2.9116935613 3.0757429535 8.4131930764 
Si 1.7335872538 4.3678057768 5.0447815904 
Si 10.5195571187 8.5383084759 9.6385255632 
Si 5.4395576244 8.5910238492 7.8596657311 
Si 3.7269503459 5.4895761789 5.5776156301 
Si 8.6095830581 8.4380590188 1.8972756545 
Si 5.3418881946 8.7856088735 10.3295800445 
Si 4.7254952451 7.9337220712 5.6369137891 
Si 9.3040881932 10.1794712938 0.3236670831 
Si 7.2544104304 7.1892620859 10.5969897909 
Si 2.8829097996 7.7224995867 10.3882411597 
Si 7.9639073292 5.0263179380 5.7721369500 
Si 7.5982335789 9.6861552036 3.7800267107 
Si 4.6578093429 3.0688416458 6.7249845750 

