&CONTROL
   calculation      = 'scf'
   tstress          = .true.
   tprnfor          = .true.
   outdir           = './'
   disk_io          = 'none'
   pseudo_dir       = '/home/ppiaggi/pseudos'
/
&SYSTEM
   ecutwfc          = 30
   occupations      = 'smearing'
   degauss          = 0.01
   smearing         = 'fermi-dirac'
   input_dft        = 'PBE'
   ntyp             = 1
   nat              = 64
   ibrav            = 0
/
&ELECTRONS
   electron_maxstep = 100
   mixing_beta      = 0.5
/
&IONS
/
&CELL
/

ATOMIC_SPECIES
Si 28.085 Si_ONCV_PBE_sr.upf

K_POINTS gamma

CELL_PARAMETERS angstrom
10.63956943606758 0.00000000000000 0.00000000000000
0.00000000000000 10.63956943606758 0.00000000000000
0.00000000000000 0.00000000000000 10.63956943606758

ATOMIC_POSITIONS angstrom
Si 0.7456976310 1.0078151276 3.9753474450 
Si 1.1705228711 4.7194470126 3.4899383686 
Si 3.5151967064 3.8695475665 6.6037573180 
Si 8.1513571695 0.2388934444 5.7349300779 
Si 9.1199729314 3.8641852235 2.3820719219 
Si 0.5530075808 8.5450957156 2.2224145429 
Si 2.0938566254 6.6851500242 8.6051454455 
Si 2.5806701250 2.6839909838 3.7032191775 
Si 2.8485957625 9.2285710166 2.6209728140 
Si 4.5126988993 7.8514489862 2.2259575196 
Si 6.6440600070 0.7665405475 0.5230082508 
Si 8.1150549586 3.7534273057 5.3712057571 
Si 9.8940867244 7.1001570696 5.7679233827 
Si 9.7436325730 10.0959512753 0.6845243625 
Si 0.6762031553 5.4116148418 6.6549017283 
Si 5.1508815532 5.8248025209 5.4432675609 
Si 2.2111046806 1.5456634498 9.0770635478 
Si 1.1963983039 9.5656006576 5.7196197374 
Si 8.0867005060 8.7230957123 2.1715042032 
Si 5.1630957789 3.9263522277 3.5029292829 
Si 10.3232550367 4.6327026030 9.2221872749 
Si 9.6210540935 8.8200009107 4.3516051785 
Si 6.2377135711 9.8575930012 9.3384139315 
Si 2.6203663586 0.6745965803 2.0198903387 
Si 0.5873201922 8.1580281795 8.0051482063 
Si 2.4489522554 6.1848242715 4.8156499994 
Si 8.2226635638 7.5528494700 7.4565720062 
Si 5.3673542330 6.1071873333 9.1755753212 
Si 6.5996185255 10.6050121145 2.5856494435 
Si 6.4230229520 7.7407442662 3.8703561738 
Si 9.9618607817 6.3316184110 2.7614044910 
Si 3.2314287500 8.4070260230 5.2056753358 
Si 5.7899366518 7.7517881393 0.0180620523 
Si 6.8907597035 4.7493761214 2.0366795793 
Si 0.3010178904 3.7534060265 0.5457311793 
Si 1.0545579480 1.5787737899 0.4763313957 
Si 6.7724583310 5.2911961950 6.9915696240 
Si 4.6296064883 1.6244281824 9.3632360469 
Si 7.6439667426 6.9574378852 1.0383858024 
Si 10.3812938880 3.2553465021 4.8057551999 
Si 7.8809737914 5.9822149507 4.1711155226 
Si 6.7952802074 4.1249291517 10.1906328037 
Si 5.0018956624 9.5759635983 7.4950234101 
Si 0.3534379850 2.9470968964 7.1873377016 
Si 4.9418672117 10.2546191743 4.2025873690 
Si 6.8404770984 8.9302800479 6.1608426820 
Si 2.4527186630 4.0883715911 8.8448868636 
Si 2.5650725162 10.3747931111 7.4192164779 
Si 4.4625652481 2.1668227926 1.3798138415 
Si 1.5537282435 5.9251336607 0.5374844490 
Si 8.3761499925 9.7396640136 8.5797062350 
Si 5.3927721644 1.1383700922 6.2436610904 
Si 8.5404994216 2.3716877021 10.3708883891 
Si 7.9183718780 2.0533092263 7.4921826451 
Si 10.1412439224 7.5366347662 10.4393220997 
Si 3.0138921133 1.7000010441 5.9487641444 
Si 3.6085482886 5.5952325312 2.2894438304 
Si 4.0575700376 4.3332625608 0.0854505316 
Si 9.8099702884 1.1447751130 8.9488248174 
Si 4.1975654922 7.4461452281 7.4446876071 
Si 9.1221434035 1.3492995563 2.7918442992 
Si 5.5136908710 3.0920291112 7.6599580155 
Si 8.4377105413 5.8962259505 9.2432429828 
Si 6.8057601833 2.1407239288 4.3265702716 

