&CONTROL
   calculation      = 'scf'
   tstress          = .true.
   tprnfor          = .true.
   outdir           = './'
   disk_io          = 'none'
   pseudo_dir       = '/home/ppiaggi/pseudos'
/
&SYSTEM
   ecutwfc          = 30
   occupations      = 'smearing'
   degauss          = 0.01
   smearing         = 'fermi-dirac'
   input_dft        = 'PBE'
   ntyp             = 1
   nat              = 64
   ibrav            = 0
/
&ELECTRONS
   electron_maxstep = 100
   mixing_beta      = 0.5
/
&IONS
/
&CELL
/

ATOMIC_SPECIES
Si 28.085 Si_ONCV_PBE_sr.upf

K_POINTS gamma

CELL_PARAMETERS angstrom
10.55105170754969 0.00000000000000 0.00000000000000
0.00000000000000 10.55105170754969 0.00000000000000
0.00000000000000 0.00000000000000 10.55105170754969

ATOMIC_POSITIONS angstrom
Si 1.2799586337 1.8625455048 2.3165361577 
Si 4.1281939400 2.1719128919 4.5185406490 
Si 2.9996323473 0.9407243845 9.7388422982 
Si 8.9272765029 1.7592296065 5.8926146639 
Si 4.1632972891 4.2540363338 2.3601331033 
Si 0.0589862876 7.8770775712 7.7635482548 
Si 2.3624965389 6.4833258448 4.5485478401 
Si 0.5410368295 3.8189426145 5.4088911474 
Si 6.3853171255 5.6589510728 9.8918536500 
Si 5.0300872890 9.3157451247 0.3607963785 
Si 4.2737984536 7.4285734652 1.4454940839 
Si 3.6705526233 8.2775216367 3.4860780352 
Si 2.4942791747 10.1419663307 1.0365638076 
Si 2.3708740739 8.7811866410 6.2618381674 
Si 9.0783359102 4.6129725618 4.1966069593 
Si 6.6628730917 1.6234481220 3.9134694867 
Si 3.1811526409 5.5844395457 0.3987907157 
Si 6.0945828957 0.9299306586 1.1525019291 
Si 5.9070485027 4.4884701517 4.2635533824 
Si 2.0673414184 3.6772525411 3.4556382510 
Si 8.7521817998 8.4086079031 5.8844375989 
Si 1.1737728493 1.1251747051 5.6534961791 
Si 5.2575574127 7.8766027739 5.4224281467 
Si 9.4910613999 1.2349372961 9.7865752561 
Si 7.6482674639 8.8513933390 8.4897560418 
Si 6.1609384599 3.3992428797 0.8565132755 
Si 9.1274194028 5.0722492916 0.7345241259 
Si 8.3539429042 3.2913689270 2.2155098376 
Si 4.0370539554 4.9007524971 5.8474139584 
Si 9.7084974734 0.9893847799 3.1551970537 
Si 2.2731396820 7.8885993197 9.9373497850 
Si 8.4817583446 6.3202698918 9.1351533237 
Si 4.0854832827 0.4665981046 2.6364968007 
Si 1.0034060725 2.3334072893 10.2804066802 
Si 6.6931124059 0.5522272749 9.1877503164 
Si 7.1264124464 10.3995597071 5.7664029834 
Si 7.7679480434 8.8278328406 0.4774182081 
Si 1.5270537136 0.0833662863 7.5899834542 
Si 4.1733207882 9.4681023113 8.5106787773 
Si 9.7022829040 3.8207257422 7.8724562106 
Si 1.5166820298 3.9215515924 8.5678021712 
Si 8.4473302628 5.4788024160 6.7152907166 
Si 8.1457917561 7.6081418142 2.4577514337 
Si 4.4970798098 0.0160520535 5.7276700726 
Si 9.6565546459 0.0950110600 7.8003397721 
Si 3.0672434866 2.9399344967 6.9238111515 
Si 10.2754160327 7.7602457756 10.2129854598 
Si 4.2652098975 3.1597867612 9.6404537410 
Si 7.0679174157 6.7622112436 4.8054342960 
Si 1.7757631045 10.0425015663 4.0714503840 
Si 0.2203270618 6.1516851876 3.1643553666 
Si 6.2169961976 6.1376628399 1.7617935120 
Si 5.7139115012 7.9493733775 7.7349443536 
Si 10.2433830398 8.7027290205 3.7155001036 
Si 5.5888815384 1.5875006889 7.4685514001 
Si 0.7555608128 4.6911875081 1.0532787837 
Si 5.4616358548 4.8558788742 8.0498088387 
Si 1.0671017165 5.9283405250 7.1124956092 
Si 0.2596086273 9.5236747007 1.3464197084 
Si 8.4886692834 0.4792825789 1.2043814503 
Si 3.2912634165 6.5355429997 7.7519948532 
Si 6.9419484094 3.1742100489 6.2707432550 
Si 8.0314078045 3.2662996282 9.3328483795 
Si 6.4256221431 9.6073656428 3.0815823659 

