&CONTROL
   calculation      = 'scf'
   tstress          = .true.
   tprnfor          = .true.
   outdir           = './'
   disk_io          = 'none'
   pseudo_dir       = '/home/ppiaggi/pseudos'
/
&SYSTEM
   ecutwfc          = 30
   occupations      = 'smearing'
   degauss          = 0.01
   smearing         = 'fermi-dirac'
   input_dft        = 'PBE'
   ntyp             = 1
   nat              = 64
   ibrav            = 0
/
&ELECTRONS
   electron_maxstep = 100
   mixing_beta      = 0.5
/
&IONS
/
&CELL
/

ATOMIC_SPECIES
Si 28.085 Si_ONCV_PBE_sr.upf

K_POINTS gamma

CELL_PARAMETERS angstrom
10.68428754334430 0.00000000000000 0.00000000000000
0.00000000000000 10.68428754334430 0.00000000000000
0.00000000000000 0.00000000000000 10.68428754334430

ATOMIC_POSITIONS angstrom
Si 9.6639808201 4.3391562785 0.8868172347 
Si 1.2675304527 0.0375544160 2.6680696010 
Si 3.7002358834 5.0464026925 8.9492019835 
Si 8.6167817451 7.6177794912 9.4607443025 
Si 10.5168754418 6.4081578770 7.3140251964 
Si 5.8379695037 3.2369544913 5.5418117373 
Si 2.3918380309 1.5948649702 7.6363380987 
Si 9.7902797832 5.6600013261 3.1943882897 
Si 8.3878281474 4.4850929621 4.3937102507 
Si 6.2957484878 5.9934686246 5.3017999019 
Si 7.5902567665 9.6563522388 9.7426385450 
Si 3.7993433347 7.6298099990 1.4067360351 
Si 9.0200708627 0.6829588915 3.0583132036 
Si 7.5191100958 2.9658086420 7.5597103884 
Si 1.7496268752 8.6323808049 9.2279016240 
Si 10.0521837237 8.5940455812 5.5124619994 
Si 1.3927823556 7.9700404515 0.7665516888 
Si 6.6284572019 1.1895244694 4.3090906934 
Si 4.2757770848 8.0687098470 4.2871558511 
Si 5.2793415295 9.7031814711 8.7576540764 
Si 2.9263622524 7.5560349935 7.3639208192 
Si 3.6543682370 3.3900923846 4.5128293726 
Si 0.4122543033 0.0986193930 5.3360857806 
Si 1.5373835032 3.2861342668 5.5759266674 
Si 8.8681402939 2.5137671203 9.8381133385 
Si 5.2093914989 7.0633931792 8.3120872330 
Si 0.6321369409 6.9016971715 4.1234298288 
Si 7.1486644781 10.0296719299 1.4816756279 
Si 10.2837763405 8.9220532088 8.1172058282 
Si 9.0358942926 7.7523160400 1.9938803728 
Si 4.2977760329 9.4635970072 6.2863463147 
Si 8.0403537479 9.3263039123 4.4384453627 
Si 6.8781062646 8.7369586114 6.3273526103 
Si 3.6703412469 5.6152021084 3.8021639866 
Si 7.4866405459 1.7256406497 0.8471165590 
Si 2.0126954031 8.6368147843 3.3746535891 
Si 7.4945682873 5.6968514338 0.6917061177 
Si 3.3848036623 4.4692695322 0.5319642662 
Si 10.0084636191 9.7423821221 1.3837861855 
Si 4.8530064037 9.6952857826 2.1831418423 
Si 2.1646152877 5.8008202359 5.9199500420 
Si 10.5891332785 6.3322780669 0.0507132914 
Si 6.9911887640 7.3015993700 3.1685536824 
Si 1.7891480549 0.6153967992 9.7375421398 
Si 1.8470782619 5.4006829831 2.1238760993 
Si 3.8205302769 10.0280692867 10.6137391927 
Si 4.2390658728 3.0730040989 7.6899732222 
Si 10.0394907901 0.1731741378 10.0203872840 
Si 9.2907359191 4.3968407470 6.7339859099 
Si 6.8764181472 0.6368241379 6.7457920477 
Si 6.4284793919 4.4503262904 9.7970215686 
Si 0.8082663527 3.2838050922 2.1796694489 
Si 5.0299275211 2.5392491461 0.5870353579 
Si 9.3654618261 0.9042208707 7.5332347239 
Si 2.2844716254 1.8425801769 1.1303442006 
Si 3.9504298449 1.0579207575 3.0829084335 
Si 5.3916013387 5.0566275557 2.1835157924 
Si 0.3876419785 3.1557111688 8.0542753745 
Si 1.3434743686 5.3210209352 8.7822279377 
Si 10.1453400268 2.7330834907 4.2105495094 
Si 7.4150023980 6.1498545414 7.6477275492 
Si 7.1620839432 3.3978064402 2.6692555570 
Si 2.8286971800 0.2932794193 5.2744374415 
Si 5.4001380845 1.3533039131 8.9704850842 

