&CONTROL
   calculation      = 'scf'
   tstress          = .true.
   tprnfor          = .true.
   outdir           = './'
   disk_io          = 'none'
   pseudo_dir       = '/home/ppiaggi/pseudos'
/
&SYSTEM
   ecutwfc          = 30
   occupations      = 'smearing'
   degauss          = 0.01
   smearing         = 'fermi-dirac'
   input_dft        = 'PBE'
   ntyp             = 1
   nat              = 64
   ibrav            = 0
/
&ELECTRONS
   electron_maxstep = 100
   mixing_beta      = 0.5
/
&IONS
/
&CELL
/

ATOMIC_SPECIES
Si 28.085 Si_ONCV_PBE_sr.upf

K_POINTS gamma

CELL_PARAMETERS angstrom
10.63131436817450 0.00000000000000 0.00000000000000
0.00000000000000 10.63131436817450 0.00000000000000
0.00000000000000 0.00000000000000 10.63131436817450

ATOMIC_POSITIONS angstrom
Si 5.5418915538 8.8396614830 1.1241339187 
Si 5.2273109617 6.6626659772 1.9077043129 
Si 9.7406760070 0.2205487428 4.1523043467 
Si 2.2967678935 7.9584530976 10.6268598475 
Si 3.5817110733 5.8607034091 0.2551611130 
Si 7.3180758766 7.2874576913 4.8351642999 
Si 6.4182520598 5.9445738482 8.8022392564 
Si 10.2564010670 5.5108268533 4.1950634931 
Si 0.9467291758 1.5592842471 0.4338671288 
Si 2.3497862582 9.7411331535 9.0630785544 
Si 4.0765030753 7.0119897047 4.0291405698 
Si 5.2125334347 7.1149965096 6.1734341526 
Si 7.8486316202 9.9090866579 5.3963063349 
Si 4.4438575120 10.4712705617 6.0855131827 
Si 9.9135411786 8.4507998973 6.1275281371 
Si 8.9025457075 6.3097063401 6.5454238423 
Si 7.8083070448 2.9276088255 0.9007848876 
Si 3.0934679609 9.1145979038 4.7469562846 
Si 9.3107669166 3.4151290084 5.5024812715 
Si 10.0778694048 1.9387796448 6.9184022443 
Si 8.0021265370 0.8527409149 7.7521311797 
Si 2.0893296875 5.0457281123 2.1683947725 
Si 8.1872496141 4.4465897597 7.9988308296 
Si 7.5316802449 6.2351914577 2.4390999302 
Si 2.6233087143 1.5181304291 6.0761576261 
Si 6.9654777043 0.1250550878 1.7763544238 
Si 6.6738926451 9.5488233079 9.3646038925 
Si 9.3935954868 8.3710331456 3.3006191214 
Si 10.4916188974 10.0654201357 8.5604512737 
Si 0.5022445534 7.1218218134 1.7540605576 
Si 9.5495249746 5.8514222717 0.4670453346 
Si 1.2603529497 3.8269542331 10.2441325302 
Si 7.9101231425 7.4702099853 10.0407023298 
Si 3.8041181698 2.9442999890 7.9182242040 
Si 0.6923622220 1.8146590495 2.7321308482 
Si 1.3814542516 3.4778431319 7.8218726019 
Si 2.6372144735 2.2722733452 3.8802383807 
Si 9.2851029237 3.5197198792 9.6963965826 
Si 2.0048107383 6.1049791194 7.1104250444 
Si 6.5997179648 4.2214078901 3.2251580520 
Si 5.9496981417 4.9137722383 10.5621470369 
Si 3.0067802236 0.6887305650 10.6079361079 
Si 9.4482829679 0.6092274699 10.2250705835 
Si 10.1778888104 4.0024666020 2.2301414463 
Si 8.5061890452 9.2052298588 1.2277679711 
Si 9.8585241268 7.7729685558 8.5401454633 
Si 3.3594634464 9.7757593444 1.6282921086 
Si 3.8277196877 6.8692111527 8.4373087594 
Si 4.7469243906 0.9617352760 3.0977842745 
Si 4.2617005716 3.0013476219 10.5764248921 
Si 4.4478761488 3.5504231151 2.4011142440 
Si 4.4270281413 9.0845963347 8.2332619427 
Si 0.8698286264 6.2208604460 9.2721433515 
Si 6.7090504018 3.6456903231 5.6437182829 
Si 1.2700380771 7.2599119557 4.9727016139 
Si 0.9243630166 0.0516215164 6.1120276808 
Si 2.5063429936 4.7844210364 4.6431627624 
Si 8.3598915282 2.1909544216 3.3565398349 
Si 5.9913410001 9.3206753016 3.8984817162 
Si 4.3945494759 4.7777764649 6.5293174010 
Si 6.2705512093 1.1818725870 10.4198362628 
Si 6.3985734969 1.2310105220 5.3075454912 
Si 1.2311912543 9.5650892189 3.0244494680 
Si 6.5337825531 2.7007046829 8.5590585715 

