&CONTROL
   calculation      = 'scf'
   tstress          = .true.
   tprnfor          = .true.
   outdir           = './'
   disk_io          = 'none'
   pseudo_dir       = '/home/ppiaggi/pseudos'
/
&SYSTEM
   ecutwfc          = 30
   occupations      = 'smearing'
   degauss          = 0.01
   smearing         = 'fermi-dirac'
   input_dft        = 'PBE'
   ntyp             = 1
   nat              = 64
   ibrav            = 0
/
&ELECTRONS
   electron_maxstep = 100
   mixing_beta      = 0.5
/
&IONS
/
&CELL
/

ATOMIC_SPECIES
Si 28.085 Si_ONCV_PBE_sr.upf

K_POINTS gamma

CELL_PARAMETERS angstrom
10.57706815600446 0.00000000000000 0.00000000000000
0.00000000000000 10.57706815600446 0.00000000000000
0.00000000000000 0.00000000000000 10.57706815600446

ATOMIC_POSITIONS angstrom
Si 10.1561431517 3.8447854288 1.1302126178 
Si 7.4814776188 9.2537394278 7.7902539695 
Si 7.5815895689 3.6635367889 3.2678063609 
Si 0.4787212779 0.9024883404 9.5549954830 
Si 8.7866349439 1.0627838083 6.6344342696 
Si 4.0724779750 5.8902846395 3.6774139023 
Si 3.9117700015 6.0008784642 9.5258556603 
Si 0.1247269031 8.8436030330 8.7195128694 
Si 3.0923751085 5.8566178316 7.4292692104 
Si 8.3652762798 5.2971966968 8.4853683116 
Si 3.1899485622 3.6055744554 8.0599903616 
Si 6.6202398442 5.9811945403 3.0191712198 
Si 4.9018787745 2.2306507888 3.3505084568 
Si 4.7848329383 8.7581932076 1.0609962838 
Si 4.4020276876 0.8788919591 9.9481027981 
Si 8.3491039426 9.8746239056 3.8586625423 
Si 1.3058236804 7.5791991515 4.3051946286 
Si 5.7662790925 0.0432349296 6.5115498918 
Si 0.5325902860 8.7649625312 2.0423260902 
Si 5.2786445193 3.4965354598 9.4875878277 
Si 1.3643994839 8.9150511284 6.2024139208 
Si 5.9987842047 7.4008909365 6.5618861592 
Si 8.9282618865 10.5738844585 10.2150045360 
Si 0.4747802623 4.7336822367 9.2112090367 
Si 10.3088231305 0.4037594804 2.6966235264 
Si 9.4087146304 9.3042766595 5.9564865091 
Si 6.7745804227 8.2781212382 2.4577510191 
Si 5.7402912360 0.3959239883 1.4759981300 
Si 3.3805896387 0.3930544297 2.7728101483 
Si 2.4318795104 5.1463148196 0.7892195752 
Si 8.5093994105 8.6309933860 1.0562471802 
Si 0.1363151390 2.7161382171 5.7469759431 
Si 3.1213668523 7.2044324726 2.0304586198 
Si 2.6378044504 3.4794217635 2.9604473374 
Si 5.5491107291 2.7540146982 6.7069612260 
Si 4.7964148279 4.0140185193 1.4878867546 
Si 1.0209663117 0.6218268946 4.5157100161 
Si 5.8926856340 7.6963613354 9.6237993114 
Si 4.1248767707 7.4930912396 5.2483094878 
Si 6.1950628584 5.0915044524 8.0337063472 
Si 1.6055354837 1.3240162376 7.2672602574 
Si 1.4361754684 5.4145598451 4.6122574942 
Si 2.0450126656 7.9092777174 10.0172027844 
Si 3.2952538528 10.0880902952 6.6343813843 
Si 2.1705413104 10.1656836671 0.5608130769 
Si 0.1054087343 6.5970866420 0.5652628495 
Si 8.1687120452 3.3689971720 0.2877851012 
Si 1.2410708692 2.1601757836 1.8325722516 
Si 8.7487690399 7.4856449836 9.4618220896 
Si 10.0742554900 4.5876552337 3.5248185401 
Si 2.9267064900 3.4313278346 5.5267825382 
Si 9.3329405142 5.4369832296 6.0951412956 
Si 4.6968000000 9.4979745086 4.1006023993 
Si 7.9805036944 1.4498304633 2.0144237844 
Si 6.6753252151 1.2510979298 4.7307312347 
Si 9.4092329068 2.7084275344 8.6120604340 
Si 8.1208402347 7.1313132004 5.2516835725 
Si 7.1322439824 1.4172213622 8.9050663760 
Si 7.8638069014 3.5050394226 5.7130870167 
Si 9.5269662524 6.8819376645 2.9289382514 
Si 6.7011015302 5.5727398994 0.4612881541 
Si 2.0777275374 2.5429916114 10.0220788128 
Si 0.6454624111 6.4887457329 7.2270356672 
Si 3.9257105773 9.2505134220 8.6933028945 

