&CONTROL
   calculation      = 'scf'
   tstress          = .true.
   tprnfor          = .true.
   outdir           = './'
   disk_io          = 'none'
   pseudo_dir       = '/home/ppiaggi/pseudos'
/
&SYSTEM
   ecutwfc          = 30
   occupations      = 'smearing'
   degauss          = 0.01
   smearing         = 'fermi-dirac'
   input_dft        = 'PBE'
   ntyp             = 1
   nat              = 64
   ibrav            = 0
/
&ELECTRONS
   electron_maxstep = 100
   mixing_beta      = 0.5
/
&IONS
/
&CELL
/

ATOMIC_SPECIES
Si 28.085 Si_ONCV_PBE_sr.upf

K_POINTS gamma

CELL_PARAMETERS angstrom
10.71964301167309 0.00000000000000 0.00000000000000
0.00000000000000 10.71964301167309 0.00000000000000
0.00000000000000 0.00000000000000 10.71964301167309

ATOMIC_POSITIONS angstrom
Si 4.9706770252 8.1652592784 8.0601960573 
Si 10.0491079020 9.5889886650 6.3443885575 
Si 8.7734382247 5.8572986987 0.4106052059 
Si 5.7273230272 3.0091860273 4.2800533046 
Si 8.0425836838 1.0184593470 5.7084135769 
Si 2.5078497629 1.2134957479 5.5997378361 
Si 10.0319350339 10.4955059959 10.4543532864 
Si 2.7209991446 3.3617122074 8.2578555548 
Si 2.9822261251 9.7113748293 4.9469758945 
Si 4.7787632564 8.2749855443 1.1618270685 
Si 5.8153420160 5.2619190062 2.5238005917 
Si 5.1405404884 5.1871602158 9.7232414741 
Si 3.2233216161 4.7902439941 4.2300783288 
Si 7.4080987336 8.3226986753 8.8627757295 
Si 2.7448503503 5.8533431505 8.5219768389 
Si 0.7045131621 8.2372416812 0.1977388229 
Si 4.1581924028 3.3496097304 2.2102617533 
Si 8.6317459834 7.1328397403 4.7079921732 
Si 4.2069024606 0.1949924503 0.8774660264 
Si 6.3215771572 6.5907688325 0.4675640291 
Si 5.9826113255 1.5689055119 9.7775579052 
Si 6.4445743411 1.4777349481 2.0073710700 
Si 8.0274368282 3.0733430907 0.7995277899 
Si 3.7223209983 6.8528533845 6.2671642493 
Si 1.4887333018 8.5547360680 6.6095282078 
Si 1.3400304140 9.4536638916 2.9596827159 
Si 8.3010664357 3.1839269280 5.0378248691 
Si 1.7714424470 0.3105201870 7.8982115317 
Si 9.5429049197 0.8428158523 8.2890282766 
Si 9.7482825602 9.1076016563 3.9764944538 
Si 8.4173745624 0.2856377516 3.3489879911 
Si 8.6284014547 8.4196685660 0.1982405021 
Si 7.0870454254 9.3452239829 1.8583465929 
Si 2.2412629609 8.1457816871 9.0675209111 
Si 9.7481860834 3.2161501749 8.7315029812 
Si 2.2759302864 2.2567099665 3.2695447168 
Si 0.1089437319 3.2021181622 10.6792621164 
Si 5.2710199831 9.1167883904 5.8387644360 
Si 1.7432605055 1.5422136008 10.1961706845 
Si 10.2974927502 4.7814324475 5.3280913625 
Si 10.5336893643 6.2287557684 9.5371806303 
Si 4.2884896636 1.7319405625 8.1253929261 
Si 1.9131132490 0.3193263737 1.4757732534 
Si 3.8833943542 10.0061650121 9.4013734730 
Si 8.0117325512 5.1053693397 7.0407901658 
Si 10.5272468589 2.2404697073 3.4957827825 
Si 0.6051270639 6.2933416175 6.8293559270 
Si 0.6020494544 4.5919520376 3.0395011777 
Si 5.4946424560 1.0322823267 5.9684935557 
Si 0.4178291733 3.4274128994 6.8769082634 
Si 4.6454108973 3.8903299632 6.1916122053 
Si 7.1639695836 0.0260821778 8.1999373236 
Si 7.2160241701 3.8512139859 9.2586199870 
Si 9.2559615156 7.1667352515 7.5367880479 
Si 9.8472891830 1.2152537693 1.6021471249 
Si 9.8136080647 6.5114005957 2.6724498814 
Si 1.9707206106 7.1404399672 2.1087252947 
Si 0.1806184810 1.2944504919 5.6274802722 
Si 3.8628126396 3.4650281267 10.5650336005 
Si 5.8106360927 5.5832831841 7.2349121811 
Si 1.7357674750 5.1189082488 0.6034515837 
Si 8.2630545816 4.4279200603 2.8658751199 
Si 6.3891323475 8.0311351051 4.0117942382 
Si 4.1012818181 6.7349694703 3.2648602328 

