&CONTROL
   calculation      = 'scf'
   tstress          = .true.
   tprnfor          = .true.
   outdir           = './'
   disk_io          = 'none'
   pseudo_dir       = '/home/ppiaggi/pseudos'
/
&SYSTEM
   ecutwfc          = 30
   occupations      = 'smearing'
   degauss          = 0.01
   smearing         = 'fermi-dirac'
   input_dft        = 'PBE'
   ntyp             = 1
   nat              = 64
   ibrav            = 0
/
&ELECTRONS
   electron_maxstep = 100
   mixing_beta      = 0.5
/
&IONS
/
&CELL
/

ATOMIC_SPECIES
Si 28.085 Si_ONCV_PBE_sr.upf

K_POINTS gamma

CELL_PARAMETERS angstrom
10.66760826529802 0.00000000000000 0.00000000000000
0.00000000000000 10.66760826529802 0.00000000000000
0.00000000000000 0.00000000000000 10.66760826529802

ATOMIC_POSITIONS angstrom
Si 3.0990362095 5.1239189400 9.6625062145 
Si 0.1181426948 8.3410669083 7.7616450977 
Si 4.4839371174 0.1863364474 7.3452776795 
Si 3.2491721283 0.8532059767 0.6726481727 
Si 6.1732062242 7.8469966315 3.5515454845 
Si 7.6969673888 1.5476139367 3.2951495199 
Si 2.5185903086 1.9303677213 3.0429779281 
Si 4.7505526507 9.5144611470 2.5388054263 
Si 4.2341870727 2.7071509523 9.7894614205 
Si 5.3021000009 6.1258100407 0.9188480374 
Si 4.4781232709 6.0496539853 4.2795030726 
Si 7.9345563601 0.5851268474 0.9294868431 
Si 9.8212935636 9.2554196155 5.6754982930 
Si 3.2453211217 1.3497831414 5.3224644651 
Si 6.7671253144 4.9371291193 4.8137795649 
Si 2.1620255023 7.2340145253 8.8953665014 
Si 10.2777605212 2.2344265596 7.8660809827 
Si 0.4527983672 0.7919163001 5.3480773925 
Si 1.5329673105 6.3927562699 4.6673986443 
Si 0.2153886117 5.8820765271 1.9112513672 
Si 1.1914011615 3.8676480527 4.4821982972 
Si 8.0627170058 0.3739039367 8.5062654899 
Si 7.5334436217 6.6919080085 2.0171807173 
Si 9.6538867871 3.2871488137 3.5691897086 
Si 2.1121117633 9.7448494827 3.4299027475 
Si 4.2448760161 4.6324195568 7.3975596277 
Si 0.1892711064 1.4321050744 2.7822829173 
Si 0.8944426832 2.2874232375 0.3924954444 
Si 6.1126995501 0.9158632406 5.4959944487 
Si 3.0359053038 6.8581733509 2.0523624894 
Si 9.3507346954 4.3864138426 0.7157933143 
Si 7.2048386167 4.0323772595 2.4401940555 
Si 9.1302138973 3.4607108002 6.1562873975 
Si 6.5876854758 3.0826187604 6.4710671822 
Si 5.8682833096 0.6828133366 9.5156985896 
Si 5.9679721088 7.2929317258 9.3136114186 
Si 5.3324280112 1.2098987942 2.5743392294 
Si 2.4978951486 3.1170537999 6.5307417828 
Si 1.9167345179 9.1561148502 0.8223691215 
Si 3.2284556330 4.2211512554 3.2634987262 
Si 7.5185836434 5.4799823687 8.2475759894 
Si 8.7448785516 0.8992047035 5.7830917900 
Si 10.5404503748 8.3960797641 3.6193701379 
Si 3.7400634578 6.8021577399 6.3428852013 
Si 8.2485574094 8.8711296954 8.3385066823 
Si 8.3019274536 8.4549329589 0.4144525825 
Si 0.7195077755 4.5849166972 8.3339622812 
Si 0.0511612092 5.8959017474 6.5852532611 
Si 2.7829336414 9.2580118443 5.8873889960 
Si 5.1289967216 3.5354480637 1.0427811099 
Si 1.9530897269 2.0786794790 8.7931174761 
Si 9.2623748961 5.9411537416 3.6793647668 
Si 9.5123489606 5.3172586722 9.4176312668 
Si 1.5688638124 10.5260171008 7.6419865358 
Si 8.0839562139 6.4357147284 6.1750197176 
Si 3.4726691890 9.2170268934 9.3354373451 
Si 7.2078255470 8.8342624412 5.2618297797 
Si 8.7092167371 2.2855990765 10.1283393323 
Si 6.6589344314 3.2895916960 8.8613795014 
Si 0.0603376992 7.2497492475 10.5034764445 
Si 2.0705294263 4.5017093527 1.1851712783 
Si 5.7212409972 9.1822078200 0.3118003217 
Si 10.2914470626 9.7971100956 1.6887677293 
Si 5.6599555878 8.4672113760 7.0913886028 

