&CONTROL
   calculation      = 'scf'
   tstress          = .true.
   tprnfor          = .true.
   outdir           = './'
   disk_io          = 'none'
   pseudo_dir       = '/home/ppiaggi/pseudos'
/
&SYSTEM
   ecutwfc          = 30
   occupations      = 'smearing'
   degauss          = 0.01
   smearing         = 'fermi-dirac'
   input_dft        = 'PBE'
   ntyp             = 1
   nat              = 64
   ibrav            = 0
/
&ELECTRONS
   electron_maxstep = 100
   mixing_beta      = 0.5
/
&IONS
/
&CELL
/

ATOMIC_SPECIES
Si 28.085 Si_ONCV_PBE_sr.upf

K_POINTS gamma

CELL_PARAMETERS angstrom
10.57262461742048 0.00000000000000 0.00000000000000
0.00000000000000 10.57262461742048 0.00000000000000
0.00000000000000 0.00000000000000 10.57262461742048

ATOMIC_POSITIONS angstrom
Si 1.0122558560 4.2281300286 3.5808105138 
Si 10.0289168238 4.0188872148 9.9900412831 
Si 2.9907734792 4.7459560371 4.9347196771 
Si 3.3229124815 9.9199764998 2.2371250785 
Si 4.9345610877 6.3656398380 7.8386284724 
Si 6.2353745301 8.2926698365 8.7197932985 
Si 0.6196467272 9.1297468180 1.6915036399 
Si 2.8836305013 7.5134039665 4.7864280442 
Si 10.3170631352 6.1579512000 0.0036620717 
Si 3.6937155721 8.8216393914 10.2149210087 
Si 2.7585880699 7.3148500762 2.1077901616 
Si 1.2997138895 7.7776878641 9.5632455726 
Si 3.3414568651 0.4019976195 7.8684115559 
Si 1.3603161738 0.1250604048 9.1803791173 
Si 9.5427558261 10.5532661417 8.3008636206 
Si 5.8866787976 0.3119357740 0.9237259838 
Si 9.3386935983 9.4127759790 0.0321394044 
Si 8.2407688223 6.8526677910 2.1451961075 
Si 4.1411173280 1.6712359185 3.2786766201 
Si 8.2268446757 8.8848425414 7.2663005839 
Si 1.4998642461 1.8096315748 6.5700509624 
Si 6.4147602520 5.4250251437 5.7212912307 
Si 5.2613714872 5.8019392113 2.7443467446 
Si 9.4473801794 6.7942540400 5.4251943057 
Si 0.6498421431 2.9530714998 1.2015576425 
Si 7.7002751066 4.7676616355 3.5658925405 
Si 9.0529578454 1.5074659632 1.0873944419 
Si 7.9552445219 4.8601932461 7.5460099408 
Si 4.0789185774 1.3889679865 10.1504914343 
Si 3.5043704378 8.4374830759 7.8043625960 
Si 2.7086007007 4.7726519143 1.1320954988 
Si 4.8101318686 3.6524189003 9.4260763408 
Si 5.6036073461 7.7371418486 4.5567272017 
Si 8.0708773173 7.1102169267 10.1911960391 
Si 5.2837325883 9.7480656235 6.4109752524 
Si 4.8000032942 3.3501898530 1.4781903656 
Si 1.9245348591 0.9907088470 0.5626856548 
Si 1.8952486889 1.7466927404 4.2253071379 
Si 8.5335988063 0.4996685830 4.7361234962 
Si 5.1040508329 6.9634266065 0.6408110071 
Si 6.6889295536 2.3708264895 7.1316899273 
Si 7.7976172615 8.5335353706 4.8393863209 
Si 7.3921888253 3.7329188642 1.5544401344 
Si 3.7372853581 2.6351421049 7.2582548166 
Si 0.1236923072 6.3691499494 2.4865438659 
Si 7.1109570104 4.9075374592 9.6590864147 
Si 0.0299491795 0.3627425216 3.2249042513 
Si 6.0772609290 0.8792162914 4.9024097362 
Si 1.2829774247 7.6349574317 7.2325633388 
Si 2.9355209429 5.5833713426 9.5136282452 
Si 5.6346062815 8.9029217295 2.1652629490 
Si 8.1147960000 9.3200117706 2.4994953311 
Si 0.1968760148 10.1615503997 6.1511952929 
Si 8.9615786508 2.5045279004 6.5525955591 
Si 6.9508451832 1.4559349908 2.6277518403 
Si 1.7390064423 5.3564405278 7.0420340706 
Si 8.3358167176 2.1808047072 9.4871861111 
Si 3.3506339033 10.0209133470 4.8464911246 
Si 0.5128431305 8.3892084719 4.5623412654 
Si 0.2040770294 3.4038353503 7.9020536474 
Si 9.3040153896 6.9176048514 7.9145504897 
Si 9.5266008556 4.2428894126 4.9377963108 
Si 4.9185224161 3.5649515769 5.4530848894 
Si 6.3467571305 0.3551175447 8.7273210072 

