&CONTROL
   calculation      = 'scf'
   tstress          = .true.
   tprnfor          = .true.
   outdir           = './'
   disk_io          = 'none'
   pseudo_dir       = '/home/ppiaggi/pseudos'
/
&SYSTEM
   ecutwfc          = 30
   occupations      = 'smearing'
   degauss          = 0.01
   smearing         = 'fermi-dirac'
   input_dft        = 'PBE'
   ntyp             = 1
   nat              = 64
   ibrav            = 0
/
&ELECTRONS
   electron_maxstep = 100
   mixing_beta      = 0.5
/
&IONS
/
&CELL
/

ATOMIC_SPECIES
Si 28.085 Si_ONCV_PBE_sr.upf

K_POINTS gamma

CELL_PARAMETERS angstrom
10.57284679370527 0.00000000000000 0.00000000000000
0.00000000000000 10.57284679370527 0.00000000000000
0.00000000000000 0.00000000000000 10.57284679370527

ATOMIC_POSITIONS angstrom
Si 7.5630110599 8.6531032828 7.9968255367 
Si 7.3556140972 2.7291689429 2.3408282801 
Si 1.6845082426 3.0201125409 8.7529321023 
Si 1.3564116609 5.9365688919 7.8551916810 
Si 1.0331035215 4.1393541025 0.7094919414 
Si 5.1568954508 10.2605460451 1.1220010746 
Si 6.9049570754 4.2722442139 6.4891270110 
Si 4.9634017816 4.0715398632 0.6146704222 
Si 2.8296427059 10.0137335096 7.9937382654 
Si 7.5167442823 7.2499067749 4.9395071479 
Si 4.8473013510 6.1998222042 1.6750243990 
Si 2.2139435458 8.3067051033 5.2741166032 
Si 2.6954309887 9.6467817159 10.4190435914 
Si 8.5481466327 2.3793240153 7.4566165026 
Si 4.8221379756 7.5586339013 9.4024643722 
Si 2.6882731715 7.0389361900 0.4372030742 
Si 4.2157429206 4.8418774806 7.1832026845 
Si 5.1655969037 6.5289654977 5.3869923156 
Si 0.6957937611 0.2275741835 4.6111356721 
Si 9.9043468366 6.6370094191 0.2293239897 
Si 3.3343269748 4.9741543668 9.2515687027 
Si 6.3331775208 10.3979613349 6.6157685699 
Si 0.5116581186 2.4219008693 2.8682335967 
Si 8.4827007111 10.0830702388 1.5319632090 
Si 10.3225875101 5.8117035713 5.2740848846 
Si 2.2537080225 4.2352498229 3.6430435283 
Si 2.9671425785 2.1184601664 1.0201116073 
Si 3.5997371479 1.6182164932 8.7894295694 
Si 7.8207664918 9.5716193480 4.7501368889 
Si 7.4675593990 4.0284132211 10.4263917199 
Si 6.4727496713 8.4332197881 0.4622670648 
Si 6.6814999584 0.5163397752 3.0165072002 
Si 8.1676933137 10.1677375960 9.6715433231 
Si 10.4534476349 8.4658793118 1.8967581419 
Si 9.2627019104 0.9410129686 5.5968633244 
Si 0.2857681896 8.4400075557 9.3872606185 
Si 4.0341859955 7.7905915871 3.6731867145 
Si 6.9922993628 1.2795259190 8.8661250000 
Si 4.3418664100 2.7063104481 6.6273669829 
Si 9.4234514731 2.0663888959 1.0399980749 
Si 4.4129053676 2.6928194956 2.9502894607 
Si 9.8062942555 5.3623787282 8.8120448887 
Si 3.5318594714 10.1848444621 3.0295223746 
Si 9.9331261256 8.7212664261 6.9550195050 
Si 1.6600321022 6.5623545479 2.6580771210 
Si 0.7712849445 0.6706303857 7.4049047089 
Si 4.7113662597 8.5335349584 7.1071310518 
Si 1.3340289442 0.0125861283 1.6477570271 
Si 6.2583429112 5.4924141709 8.7336789482 
Si 2.4217528495 5.8290113215 5.6378542514 
Si 8.3354421009 6.1745742461 7.0425309579 
Si 5.5523939308 4.6986365522 3.7169794459 
Si 9.8117604173 2.9190466984 9.0284604897 
Si 10.4954958466 0.4595921346 9.9825964758 
Si 3.4543499316 0.0969980454 5.4807946123 
Si 7.5708455393 6.3229852965 1.2204871425 
Si 10.0932413174 5.3676545788 2.7314103864 
Si 6.2252499007 1.9798395720 5.1035765844 
Si 0.3028644828 3.6188951462 6.1809179541 
Si 5.6444622807 1.5230291535 10.5106890274 
Si 7.8267930145 5.7107117387 3.2432524725 
Si 10.4721298551 8.3699307272 4.2992789831 
Si 9.0181096727 3.2515944486 4.2317184921 
Si 2.4596565052 2.2752977757 5.5133061162 

