&CONTROL
   calculation      = 'scf'
   tstress          = .true.
   tprnfor          = .true.
   outdir           = './'
   disk_io          = 'none'
   pseudo_dir       = '/home/ppiaggi/pseudos'
/
&SYSTEM
   ecutwfc          = 30
   occupations      = 'smearing'
   degauss          = 0.01
   smearing         = 'fermi-dirac'
   input_dft        = 'PBE'
   ntyp             = 1
   nat              = 64
   ibrav            = 0
/
&ELECTRONS
   electron_maxstep = 100
   mixing_beta      = 0.5
/
&IONS
/
&CELL
/

ATOMIC_SPECIES
Si 28.085 Si_ONCV_PBE_sr.upf

K_POINTS gamma

CELL_PARAMETERS angstrom
10.64016455316841 0.00000000000000 0.00000000000000
0.00000000000000 10.64016455316841 0.00000000000000
0.00000000000000 0.00000000000000 10.64016455316841

ATOMIC_POSITIONS angstrom
Si 1.1148019607 5.2845441270 8.0159275686 
Si 3.2301198747 6.3777039930 7.3628236282 
Si 5.6178153611 9.3779324724 8.8591074086 
Si 7.7582440634 5.4534141786 9.3370529602 
Si 10.5415302278 5.5335239775 4.5270282518 
Si 10.2222401698 2.9311738114 5.0843919916 
Si 7.2939924037 3.0207852773 4.8673326347 
Si 7.1555532227 8.8704923847 7.2002419138 
Si 1.5472395285 6.3818855777 2.7675068003 
Si 0.8674745277 3.2701268934 2.4750405972 
Si 3.5037529865 4.8502764509 2.5625346703 
Si 1.6854871865 8.3732881353 7.3796882890 
Si 10.5849101786 8.3795126315 5.7067032958 
Si 9.9035353210 10.0798960485 2.3752358537 
Si 6.3101815088 7.4391668088 5.4498284431 
Si 3.4950493319 9.7591695683 7.6384251704 
Si 0.9563411821 0.9595225913 4.2183145174 
Si 9.4341657421 4.6884076276 0.3590034081 
Si 1.7630752665 9.1836856283 4.3171829265 
Si 0.6428127733 0.6847956706 7.8583041709 
Si 2.1711362172 4.5072481859 4.9973448054 
Si 8.9403131445 0.4392749375 7.0822212086 
Si 5.9290933751 7.4524989350 0.0660519071 
Si 5.6373719836 10.6171924379 4.9422925940 
Si 2.8370083551 1.9216775593 1.5604865334 
Si 6.7869247217 6.1066351608 2.9214380609 
Si 9.3188157181 10.1910538475 9.4733960288 
Si 4.4006230969 2.4719017487 9.3981700654 
Si 4.6557636027 5.5219687588 5.5381418089 
Si 5.5013374797 3.9217624912 3.8794039961 
Si 9.7817586377 6.3948027374 7.0318932302 
Si 8.3595729632 7.6225926056 8.8619483325 
Si 4.1950763980 8.8883359406 5.5618480956 
Si 5.9099836396 5.0775397256 0.9732047789 
Si 2.1543460376 0.3427718371 10.0427831545 
Si 0.9222873354 6.4785301923 0.1818223239 
Si 5.4710555714 2.5527457189 1.2858000453 
Si 3.2307902051 8.9726379644 0.1933296619 
Si 6.4884149052 10.4772529937 1.4654273032 
Si 6.4010910747 1.1470629397 6.8592884808 
Si 8.3895888674 3.9996697760 6.9986214357 
Si 10.4698474392 1.1596396142 0.8828953182 
Si 2.6087555451 4.3254396942 10.6281411672 
Si 4.7060915810 8.6584126248 1.8115837767 
Si 9.4201952060 10.1822757118 4.9212463485 
Si 3.8825109241 7.4594788830 3.5242565836 
Si 7.4544780056 8.7298613298 3.7311971440 
Si 3.4650866285 1.6602274359 7.1848030350 
Si 9.1973901603 7.2063493682 2.1415565598 
Si 7.5955240269 1.0509716136 3.2470696569 
Si 1.2657646154 2.9205336469 7.0191356729 
Si 5.6983294863 3.5446644192 6.9278005004 
Si 3.6526620895 0.3022679227 3.0669529513 
Si 8.3996225425 2.3252696410 8.9180113596 
Si 3.6361591942 1.9953819791 4.9359936165 
Si 8.1376616913 2.5129940642 0.9254878969 
Si 8.1050602271 8.6638071882 0.6174349168 
Si 5.5161485888 4.8695777094 9.0771988615 
Si 6.2709405819 0.9793335137 9.6109946368 
Si 3.5212134966 6.5856340887 9.6779638325 
Si 1.2498362891 8.6027113634 1.5714565430 
Si 0.4746556127 2.8262830693 9.4770881659 
Si 8.7798169024 4.3302490485 3.1199835314 
Si 0.4658051238 8.4723374271 9.3406386956 

