&CONTROL
   calculation      = 'scf'
   tstress          = .true.
   tprnfor          = .true.
   outdir           = './'
   disk_io          = 'none'
   pseudo_dir       = '/home/ppiaggi/pseudos'
/
&SYSTEM
   ecutwfc          = 30
   occupations      = 'smearing'
   degauss          = 0.01
   smearing         = 'fermi-dirac'
   input_dft        = 'PBE'
   ntyp             = 1
   nat              = 64
   ibrav            = 0
/
&ELECTRONS
   electron_maxstep = 100
   mixing_beta      = 0.5
/
&IONS
/
&CELL
/

ATOMIC_SPECIES
Si 28.085 Si_ONCV_PBE_sr.upf

K_POINTS gamma

CELL_PARAMETERS angstrom
10.59724597234222 0.00000000000000 0.00000000000000
0.00000000000000 10.59724597234222 0.00000000000000
0.00000000000000 0.00000000000000 10.59724597234222

ATOMIC_POSITIONS angstrom
Si 10.1008285820 7.2930458727 2.9135326269 
Si 3.3477229889 8.9846948445 7.3106690927 
Si 8.4594741396 5.5359165180 1.0128180074 
Si 9.0626587831 1.9190552731 3.4525933350 
Si 3.3952834288 4.0118947830 7.3625532090 
Si 6.0803182381 6.2501497020 3.5378799706 
Si 0.6737336891 0.1342077619 4.7931979368 
Si 5.7548768143 1.0971434728 10.5062898102 
Si 7.0396975132 9.9502417167 6.8693149925 
Si 8.6363103831 4.1778688494 8.0851370229 
Si 8.9676332785 8.9123156545 1.6940015604 
Si 2.6084697071 1.8654014168 9.4151761704 
Si 1.3322433747 4.4061653194 0.9725590699 
Si 5.6686046348 2.2785138565 7.3828257405 
Si 10.4199328527 2.5737107403 0.2385609624 
Si 7.5334126058 10.1302677313 3.1768635921 
Si 0.5048591565 4.4930627363 5.8374929439 
Si 6.3450268452 1.8428504773 2.3834901751 
Si 10.1211329053 8.8513073094 6.2387894543 
Si 8.2793527498 6.7876420177 7.2529035049 
Si 4.6068135746 6.2566776055 7.7443401896 
Si 0.8222138219 3.6714052699 3.3840185563 
Si 7.9788678402 1.6656327329 8.4990760478 
Si 5.3897593015 7.1415582415 5.6669196727 
Si 4.7230123767 3.3788788921 9.8075286052 
Si 5.9806087507 6.2927612281 9.4289525901 
Si 10.2847013969 6.3596298502 8.4958756795 
Si 4.5389594086 8.0799761641 0.0524722634 
Si 9.2787472257 5.8955446573 5.0407601999 
Si 2.0209054042 8.3976180148 0.7370246810 
Si 6.6226958842 3.8698810897 4.0988451862 
Si 5.1394841434 9.9223921543 8.9425072083 
Si 10.3338196320 0.4047533321 1.6275568282 
Si 4.0799502966 3.8865187659 3.2229510148 
Si 3.6866441096 6.9605148913 2.7395788343 
Si 0.8328714722 10.3344342722 10.0351044625 
Si 3.4977270056 4.8650578617 0.8357740578 
Si 6.7702413399 7.3507478770 1.3890234186 
Si 6.5051936208 4.4544463720 6.4650194614 
Si 1.2219260441 6.8056361414 5.9025706314 
Si 1.7201343690 7.9362775087 3.8319217546 
Si 3.9198894934 0.9547313230 1.6748629342 
Si 1.6891798135 10.4544692774 2.4679078365 
Si 1.9127393145 1.9487911453 5.7414395064 
Si 5.3946552292 9.5788824261 2.4684588933 
Si 8.7801679972 4.2979144518 3.2516271624 
Si 7.3140072252 8.0263117105 8.6861280364 
Si 9.9022679842 1.9141593455 6.2909914880 
Si 0.1923622686 6.4796860498 0.7352973299 
Si 9.3273038068 8.2976012074 10.0463163487 
Si 7.3498471111 1.6497368640 5.4717819854 
Si 8.0847873137 2.5915459053 0.5744120610 
Si 1.3748019145 8.4233375308 8.1619670562 
Si 3.2712108730 5.3276170512 5.0387997094 
Si 2.9541836625 6.3096638354 9.6180710417 
Si 4.0673289766 8.8615336518 4.7344044161 
Si 2.9934040698 2.1346138535 3.7825809774 
Si 1.2238123539 4.4859519843 8.2231343599 
Si 7.1947988052 4.4191999319 9.8026962611 
Si 7.8569889143 8.4931309928 5.0919872870 
Si 9.5929449715 10.2735530941 8.1917347201 
Si 0.4058257734 2.1709941989 8.6621252743 
Si 5.1162125912 0.5552342249 4.8870683416 
Si 3.4066966627 0.9006959658 7.3132654180 

