&CONTROL
   calculation      = 'scf'
   tstress          = .true.
   tprnfor          = .true.
   outdir           = './'
   disk_io          = 'none'
   pseudo_dir       = '/home/ppiaggi/pseudos'
/
&SYSTEM
   ecutwfc          = 30
   occupations      = 'smearing'
   degauss          = 0.01
   smearing         = 'fermi-dirac'
   input_dft        = 'PBE'
   ntyp             = 1
   nat              = 64
   ibrav            = 0
/
&ELECTRONS
   electron_maxstep = 100
   mixing_beta      = 0.5
/
&IONS
/
&CELL
/

ATOMIC_SPECIES
Si 28.085 Si_ONCV_PBE_sr.upf

K_POINTS gamma

CELL_PARAMETERS angstrom
10.59605172049739 0.00000000000000 0.00000000000000
0.00000000000000 10.59605172049739 0.00000000000000
0.00000000000000 0.00000000000000 10.59605172049739

ATOMIC_POSITIONS angstrom
Si 9.0464321366 5.0380517313 1.2306784271 
Si 8.6987650836 8.1336246651 7.7343442442 
Si 4.7596828565 4.7303529854 3.2063758467 
Si 7.9395049976 9.0225062518 0.8602955584 
Si 9.7739252596 2.5798313084 3.4632135443 
Si 3.7907692912 8.0436853781 1.6605814375 
Si 6.5823944814 6.9258231137 10.2521462659 
Si 6.7361008077 0.6969372886 4.3022407077 
Si 6.6204025189 7.1831164416 6.2979646651 
Si 6.5388553049 6.2000147630 1.9561583002 
Si 4.5693777676 6.6450489352 4.9371455308 
Si 5.3346034308 0.9284461842 8.0617304542 
Si 10.3224298769 10.4759136861 9.3394341588 
Si 4.7484828299 2.7637363821 6.4418802395 
Si 6.1891220218 9.8128551536 6.3182984883 
Si 3.2662541349 0.1374731750 9.3084195154 
Si 2.1962330441 7.4857608708 7.9914998234 
Si 9.0595076645 2.9871965168 6.0026738957 
Si 2.0641426633 7.3261949280 4.6460931821 
Si 3.6089940239 5.3927757547 6.7804664762 
Si 0.5844782129 5.4279652425 3.4132107763 
Si 4.6504375633 8.3308383797 7.9281672223 
Si 9.9133057239 2.8359378785 1.0164326189 
Si 3.1768764387 9.4669682373 5.8340059444 
Si 0.2504588745 7.4337766411 6.2941288943 
Si 4.4462516466 1.3045858878 2.9967753476 
Si 7.0564300472 4.7453887828 6.8921170732 
Si 2.5157357916 3.9973287234 3.3514781789 
Si 1.0815389991 1.1543126823 0.8525657387 
Si 6.8256162526 3.2010672248 4.7348880955 
Si 2.9852150552 10.4868594075 1.5928408788 
Si 1.3701648519 5.2440495728 8.9971710922 
Si 5.0677736564 3.0257873372 1.4550922065 
Si 1.6874000444 0.2274760383 7.4418190443 
Si 3.3871127009 5.7823819804 1.0663442609 
Si 5.0996783681 3.7809361552 8.8457005328 
Si 7.0451346561 8.3656464096 2.9181208557 
Si 7.9054386913 2.1694568214 7.9962150664 
Si 9.5601393201 5.3473928652 8.6121847450 
Si 7.2209549423 0.1952163589 9.8504605412 
Si 8.4764705146 10.3897783817 7.1489335787 
Si 10.4934395556 4.8163505411 6.2669182335 
Si 10.0973273542 9.8419836998 1.5954157194 
Si 5.1374426964 9.1572774337 10.2595317139 
Si 10.3421279371 9.2120908092 4.1812337971 
Si 9.9426779793 2.4400587902 9.1036826041 
Si 10.3754949039 0.5016054328 5.7198334871 
Si 1.7018848471 2.8343060866 8.2328037092 
Si 1.6205495541 3.9316437988 0.8491919558 
Si 8.7093823275 0.8090223237 2.9905872534 
Si 8.5022083242 5.1054108321 3.5438283058 
Si 0.7340541982 6.6011812811 0.7657279160 
Si 1.5892488173 8.8874489766 9.9331627249 
Si 1.3726231359 8.0943027172 2.5279106550 
Si 2.0800155488 3.8595694550 6.1063562618 
Si 1.3154256487 1.5231506467 3.4703234950 
Si 4.1149978778 6.0616939038 9.3430792006 
Si 3.1511598212 1.4660803121 5.4594990924 
Si 4.7285622526 9.0216585677 3.8135719945 
Si 7.4117686417 4.1419224452 9.7606907910 
Si 7.4143328862 2.3351790703 0.6879656116 
Si 9.4465708378 7.4141315612 9.9873403373 
Si 3.3571470666 2.5020245007 10.4077704775 
Si 8.4585631872 7.3596996435 4.8226022117 

