&CONTROL
   calculation      = 'scf'
   tstress          = .true.
   tprnfor          = .true.
   outdir           = './'
   disk_io          = 'none'
   pseudo_dir       = '/home/ppiaggi/pseudos'
/
&SYSTEM
   ecutwfc          = 30
   occupations      = 'smearing'
   degauss          = 0.01
   smearing         = 'fermi-dirac'
   input_dft        = 'PBE'
   ntyp             = 1
   nat              = 64
   ibrav            = 0
/
&ELECTRONS
   electron_maxstep = 100
   mixing_beta      = 0.5
/
&IONS
/
&CELL
/

ATOMIC_SPECIES
Si 28.085 Si_ONCV_PBE_sr.upf

K_POINTS gamma

CELL_PARAMETERS angstrom
10.61387744080902 0.00000000000000 0.00000000000000
0.00000000000000 10.61387744080902 0.00000000000000
0.00000000000000 0.00000000000000 10.61387744080902

ATOMIC_POSITIONS angstrom
Si 10.5378502367 7.9405070604 6.0420240303 
Si 3.7647423283 6.0698111615 9.5065952907 
Si 4.9236185366 7.3833846335 7.0072075893 
Si 1.6832335956 10.4799196936 2.0570968146 
Si 1.7341059102 0.7913356762 10.3622967038 
Si 5.6692434268 2.4550004659 8.1676652654 
Si 6.6860953412 8.8667483030 5.8865731813 
Si 10.3844266383 1.0373547414 2.4688303482 
Si 7.6579231874 2.3961677433 2.6761724440 
Si 0.8824314021 4.9364613283 10.4201635636 
Si 0.1954418164 6.0762537851 7.5011031482 
Si 2.5833753136 5.2247979229 5.3390563135 
Si 3.3481264109 9.9246653092 9.2081012154 
Si 9.6361801203 6.2398560919 9.5405172430 
Si 3.3837147420 1.4425108552 7.5041599449 
Si 1.2620855526 3.8490483568 6.8867082387 
Si 6.4222131203 1.7456325811 5.1555742142 
Si 8.4505993963 9.6431322101 0.0924709660 
Si 7.9207334067 7.6215069739 3.0069857761 
Si 3.8247425774 8.5744315044 2.3778906463 
Si 6.6477686297 1.3495651305 10.3464077293 
Si 9.0088468942 9.5444443776 3.1777312225 
Si 10.3493159317 9.4463933778 8.4756056916 
Si 9.5507384070 5.5648134867 3.2887948361 
Si 6.4108244298 4.8873933729 7.2112912247 
Si 1.5007704285 7.8442498059 9.2921525109 
Si 6.9483536389 0.3986126584 7.3885217502 
Si 9.9960754766 7.7911485771 0.8657145451 
Si 5.7434025885 4.0956193436 2.5234069060 
Si 10.5425415705 4.0307048692 1.4864523078 
Si 2.1489599238 9.4559352536 5.3176056672 
Si 6.2182674652 6.3456976778 9.4905895635 
Si 2.5301785598 6.5123780091 1.0156122135 
Si 8.1248594977 4.2840368959 9.2503126060 
Si 3.8909094894 2.4657947793 1.3361916449 
Si 1.6357046524 2.9188269101 2.6466552509 
Si 3.0112207132 4.8801759363 2.7192541726 
Si 9.2933518790 1.8704730075 4.7055139691 
Si 0.5662864487 6.5752121636 4.3166002719 
Si 5.0392885730 5.0841640468 4.9947315155 
Si 8.3208022891 2.7499070506 0.5552151131 
Si 4.1607460956 9.8482029361 6.6860634996 
Si 5.7133334737 10.4120014919 4.1559592368 
Si 3.3850202489 0.3461302186 3.7441195644 
Si 5.9155596806 9.2898386856 9.1421571949 
Si 7.0342092935 0.2146508118 2.3030946520 
Si 1.1089909844 8.2915398290 2.5415672503 
Si 9.2148728692 3.5917148982 6.9274230726 
Si 2.4918730762 7.1973870453 7.0477738289 
Si 7.9765730159 4.4491039179 4.5877105434 
Si 3.9046969162 3.6374925516 9.7075690600 
Si 4.3241573527 10.5796158444 0.9069101876 
Si 7.9228349545 7.7148772538 8.4527221718 
Si 6.3605995617 8.2278141089 1.1654992679 
Si 3.9389160571 2.5823988369 5.4682059742 
Si 8.3130329308 6.6026278090 6.1435139264 
Si 1.3540229590 2.1713764330 5.0625966478 
Si 8.9565310923 9.8525758536 5.5702902475 
Si 5.6479413748 7.3868447576 3.9354028636 
Si 0.7121890535 0.5329705488 6.6975264872 
Si 7.2523244749 5.6727566203 1.0192952289 
Si 1.8050384531 2.9616857472 9.2172185361 
Si 9.2162526733 1.2203517865 7.8523057389 
Si 9.7065289000 0.9369495836 10.5014021816 

