&CONTROL
   calculation      = 'scf'
   tstress          = .true.
   tprnfor          = .true.
   outdir           = './'
   disk_io          = 'none'
   pseudo_dir       = '/home/ppiaggi/pseudos'
/
&SYSTEM
   ecutwfc          = 30
   occupations      = 'smearing'
   degauss          = 0.01
   smearing         = 'fermi-dirac'
   input_dft        = 'PBE'
   ntyp             = 1
   nat              = 64
   ibrav            = 0
/
&ELECTRONS
   electron_maxstep = 100
   mixing_beta      = 0.5
/
&IONS
/
&CELL
/

ATOMIC_SPECIES
Si 28.085 Si_ONCV_PBE_sr.upf

K_POINTS gamma

CELL_PARAMETERS angstrom
10.62248818691571 0.00000000000000 0.00000000000000
0.00000000000000 10.62248818691571 0.00000000000000
0.00000000000000 0.00000000000000 10.62248818691571

ATOMIC_POSITIONS angstrom
Si 3.3291196652 10.3174421937 0.5529727430 
Si 6.6801110337 9.5887607490 6.5756707298 
Si 7.8917970162 8.4229001805 8.2692777564 
Si 7.0459282818 3.6620496900 9.7823237287 
Si 5.3671608713 8.9029304217 0.2821046055 
Si 3.1434385717 6.5169921051 4.1256256970 
Si 7.9644548354 4.3356960233 7.6723364102 
Si 6.7336589966 6.2233759091 4.5252118351 
Si 3.5814037597 3.3110401903 8.3644658730 
Si 0.5849836112 1.4627060009 6.1467559018 
Si 0.5442028168 2.6057282197 3.2289177342 
Si 8.6053839051 10.0698319940 4.6767734965 
Si 9.3728268091 4.3885110346 3.1560368427 
Si 3.1074495818 4.0738623120 4.2532973825 
Si 1.8569277824 8.0283703468 1.4134282782 
Si 4.1168833892 9.9877626503 7.8767768179 
Si 4.4305442204 2.7449996623 6.1215274924 
Si 2.8103279647 8.3558297901 9.3442204485 
Si 3.9783448983 8.0228997654 6.0993583595 
Si 10.3199491009 3.2596804600 9.8896745944 
Si 4.6458514334 6.5776465126 7.6230268201 
Si 8.0231334601 6.4788148825 2.2889337545 
Si 8.2777757469 2.6515748787 1.0173688061 
Si 0.7130780717 10.0044612017 2.6423651815 
Si 3.0194528896 5.8181279848 8.5841283062 
Si 5.9340724433 4.7745853678 6.7393101603 
Si 5.5452150183 1.4268338582 3.0139504407 
Si 5.9790055684 8.4661124625 4.1888295017 
Si 10.4248143042 1.2217985913 1.3414290532 
Si 7.9639768234 8.9018150604 2.5299898789 
Si 4.4923458566 7.7460458558 2.4814344854 
Si 4.9050932576 2.7352800856 10.1257593943 
Si 7.0547130796 0.2185215780 1.2156163031 
Si 7.1452591689 5.8551579786 0.0065678207 
Si 9.0191085750 1.6836325102 8.2933164471 
Si 10.3390483346 8.1914361629 4.0574293228 
Si 2.9238611184 1.4554827089 2.5027963092 
Si 0.9816326313 6.3414129978 3.2688264223 
Si 4.5510882163 0.2951883242 5.0038930203 
Si 8.2355513564 1.8597002519 3.5751152467 
Si 8.7671431552 6.4432507921 7.3653889916 
Si 5.6562412648 0.5272535747 9.4820366102 
Si 10.3179095831 9.7878899126 6.8837122647 
Si 9.8969403763 9.5581786055 0.0372347954 
Si 2.7865654586 5.8610640820 0.4376635093 
Si 9.0525481678 2.7411118317 5.7269870361 
Si 1.0114648272 3.7411766045 7.9244824123 
Si 9.0334595565 6.4655580173 5.2119132064 
Si 1.0829095582 10.1940088809 8.9500624018 
Si 10.0051622859 7.4408405252 1.2018708034 
Si 0.7691127592 4.6034677056 1.0884757420 
Si 8.1730380134 10.4676123092 9.5402797129 
Si 0.8186093051 6.3761379117 7.6232817598 
Si 0.4142239268 4.7438332645 5.2936851205 
Si 2.5772174614 1.1654569139 7.2393319243 
Si 1.4313059258 8.2934545395 5.7223343863 
Si 6.5079523676 1.4916204137 6.7251610061 
Si 6.0431866420 7.4611932125 9.3898121678 
Si 5.4584505348 5.7271994859 1.6166046097 
Si 2.0527108622 10.4901426066 4.6000047744 
Si 1.9553238905 1.6275988850 10.0094537712 
Si 5.5213569098 3.7990479201 3.5836663497 
Si 3.6982405073 3.3002796098 1.1994382536 
Si 9.8408961286 6.1245973914 9.7775011191 

