&CONTROL
   calculation      = 'scf'
   tstress          = .true.
   tprnfor          = .true.
   outdir           = './'
   disk_io          = 'none'
   pseudo_dir       = '/home/ppiaggi/pseudos'
/
&SYSTEM
   ecutwfc          = 30
   occupations      = 'smearing'
   degauss          = 0.01
   smearing         = 'fermi-dirac'
   input_dft        = 'PBE'
   ntyp             = 1
   nat              = 64
   ibrav            = 0
/
&ELECTRONS
   electron_maxstep = 100
   mixing_beta      = 0.5
/
&IONS
/
&CELL
/

ATOMIC_SPECIES
Si 28.085 Si_ONCV_PBE_sr.upf

K_POINTS gamma

CELL_PARAMETERS angstrom
10.56142358934019 0.00000000000000 0.00000000000000
0.00000000000000 10.56142358934019 0.00000000000000
0.00000000000000 0.00000000000000 10.56142358934019

ATOMIC_POSITIONS angstrom
Si 2.2181735508 3.3890552156 2.8562736412 
Si 3.8294454564 7.9710549099 10.4692540457 
Si 8.0831855441 5.9989414059 7.2163672644 
Si 6.8175679097 1.2764430936 6.8625490128 
Si 0.5426036983 10.4279483180 2.8270396207 
Si 8.9509226676 3.0054326265 1.1561801632 
Si 5.4847690598 4.3360241389 0.8885800930 
Si 4.4466233667 3.8542225562 3.8434710269 
Si 4.1299179575 9.7296692360 6.9053333397 
Si 1.6994069855 0.0599488582 6.1157296279 
Si 7.9010960400 9.9670583540 1.9970490251 
Si 4.1629118448 6.4349486559 8.7250983084 
Si 3.6338478915 3.4295477136 6.7567024256 
Si 7.0520103905 3.5489340459 7.7903172680 
Si 5.1466345222 1.8777999913 2.3109345342 
Si 2.3346660530 8.7877064275 3.0804292955 
Si 6.3745161901 7.4169181370 3.0834393012 
Si 9.0588181710 0.2758569912 7.8489226075 
Si 6.6453427752 5.5796106437 9.5719132518 
Si 0.0007187788 5.4424599969 1.5885120378 
Si 8.4376057969 7.8601282779 5.2091792727 
Si 6.3669330880 9.1998976673 5.8285328362 
Si 3.3452886762 1.7384420071 0.4896444959 
Si 1.6842935883 10.4679233063 8.4014751668 
Si 7.3813789466 3.6735905285 4.5157690069 
Si 9.8616870309 7.2442705456 9.3507147962 
Si 4.8279541268 7.2133889430 6.3725095196 
Si 0.1891244684 3.6105177068 4.0465777640 
Si 1.6635087067 8.0587041642 9.0197831494 
Si 0.7382561826 3.9438045510 8.6489398829 
Si 7.3201332512 9.1135263452 10.2254963892 
Si 7.2796513146 1.4181773982 0.8380225583 
Si 0.7426064330 1.9662730367 0.9149762590 
Si 9.0439371252 1.4432079721 3.4027533820 
Si 9.4091089072 1.9934158954 6.1950036734 
Si 0.1201488670 5.6270419970 6.9216084935 
Si 10.0603579700 9.2936725474 0.8464949323 
Si 3.3270596591 6.0520019980 1.4388883498 
Si 1.7573258325 4.5728323786 0.1387454217 
Si 4.3060613802 1.4384447700 5.6431481680 
Si 9.9529271692 9.9079883119 5.0835405777 
Si 1.2767282520 7.4849442663 1.1202185159 
Si 2.2008422547 5.0511275687 5.3733249181 
Si 9.3557209110 5.2852743297 4.6541025331 
Si 3.9358729219 10.0133279507 2.0901268512 
Si 5.8746651345 0.2117058481 8.9846664160 
Si 3.8854632471 10.3959472045 9.8085525088 
Si 5.6204305458 4.7259307749 6.0138963817 
Si 10.4373374236 0.5097270428 9.7752206559 
Si 9.0978426312 7.2030176250 2.8010373958 
Si 8.4866002409 8.6212900760 8.0354584709 
Si 4.3985900122 6.2625228544 3.4653192553 
Si 2.7510924237 7.4740448772 5.1682220720 
Si 9.0050182792 5.3858507665 10.3319766619 
Si 5.6669958625 2.5413531126 9.7649338294 
Si 0.7748610206 8.2154356903 6.3311826691 
Si 2.7481880322 1.1491040094 3.6298979191 
Si 1.2222946748 2.8442758640 6.3263138529 
Si 7.4143833953 4.9249502411 2.2503647699 
Si 6.8074500659 1.3435820633 4.3622059080 
Si 9.2272834387 3.1542642078 9.1453584759 
Si 5.7824533451 9.6582000826 3.4695227019 
Si 3.5102369898 4.1899490892 9.1127870456 
Si 6.1602037826 7.5197124728 0.7139511785 

