&CONTROL
   calculation      = 'scf'
   tstress          = .true.
   tprnfor          = .true.
   outdir           = './'
   disk_io          = 'none'
   pseudo_dir       = '/home/ppiaggi/pseudos'
/
&SYSTEM
   ecutwfc          = 30
   occupations      = 'smearing'
   degauss          = 0.01
   smearing         = 'fermi-dirac'
   input_dft        = 'PBE'
   ntyp             = 1
   nat              = 64
   ibrav            = 0
/
&ELECTRONS
   electron_maxstep = 100
   mixing_beta      = 0.5
/
&IONS
/
&CELL
/

ATOMIC_SPECIES
Si 28.085 Si_ONCV_PBE_sr.upf

K_POINTS gamma

CELL_PARAMETERS angstrom
10.61399171425514 0.00000000000000 0.00000000000000
0.00000000000000 10.61399171425514 0.00000000000000
0.00000000000000 0.00000000000000 10.61399171425514

ATOMIC_POSITIONS angstrom
Si 1.8662687771 6.6791196360 8.8819687043 
Si 9.1955484756 2.0610036831 5.1165596178 
Si 10.4496765085 3.8044367341 10.1278815077 
Si 5.6607283590 2.3927758361 8.5866768409 
Si 2.6520544257 10.1944949197 7.5483949434 
Si 4.4241770963 2.6920797884 1.5728449762 
Si 7.2679626683 3.2120167866 2.6440408619 
Si 1.3778765624 10.3440354490 10.3603385403 
Si 0.2416084162 5.5172802610 6.3494384394 
Si 2.8721143159 4.1442755208 9.5921615039 
Si 6.2614909040 9.8557918301 6.7120973082 
Si 9.0589464022 1.6656112638 10.2911989982 
Si 8.6894096667 2.7796346061 7.4587491694 
Si 3.4775576313 0.0841217220 3.4210381254 
Si 8.7960272134 4.5285338628 5.0743796147 
Si 0.8852748385 9.4596988873 5.1009252080 
Si 6.5762912843 7.6149871274 5.2921362687 
Si 6.9538097416 4.9693753947 10.2344353706 
Si 2.9688183944 9.0106527399 1.4541062509 
Si 9.3920665321 7.8156446408 6.0305304443 
Si 8.4517411642 5.6912754271 1.4121385276 
Si 9.7544388233 10.0193216005 7.3206399092 
Si 0.4573155084 1.0395131205 8.4875315443 
Si 2.3530264371 7.8281479230 6.9065456364 
Si 4.7063925220 5.1683452834 0.2655620727 
Si 1.3970878874 8.0666973868 3.3036898330 
Si 9.9258972454 6.2456866703 9.1071657665 
Si 5.0276992792 7.9431611372 2.6289265377 
Si 10.0673711410 0.6703945763 1.4567491348 
Si 4.1440844689 0.2830496854 5.7760493790 
Si 4.3015748780 0.3691440178 8.9644288060 
Si 7.8131397387 9.8838446102 1.0488958892 
Si 5.3639823786 7.8914285416 8.2034374420 
Si 4.0288059049 8.2329655670 4.8382501411 
Si 5.5872158524 0.5063648869 1.6598266383 
Si 9.3923318819 2.7914267509 2.5118542091 
Si 1.5418945763 5.3249547311 1.0191873264 
Si 5.2546794920 5.2441716402 2.7250256187 
Si 2.2914122152 2.3878509439 6.4053423337 
Si 0.5719678469 3.6145311943 7.9415796525 
Si 3.6397288107 3.9039535204 3.9268054446 
Si 2.1958013779 5.8889291808 4.7160937104 
Si 9.4438734257 9.6404233243 3.2912926907 
Si 10.5732552141 7.2987220163 1.4994492235 
Si 1.5554274158 3.4964186945 2.4430543148 
Si 4.0362993831 3.6825456532 7.5206605830 
Si 10.1070356280 5.1305913148 3.1039451229 
Si 7.4701167545 7.5833786601 2.6168796571 
Si 4.5023809872 6.1438772618 6.8199248501 
Si 1.1133334329 1.2975286451 4.5703211482 
Si 7.1950127033 4.5019033576 7.8289652004 
Si 10.5168524621 8.4900046043 10.1280831736 
Si 5.2816921009 9.4042407806 10.3255883314 
Si 2.8661917085 1.7049042611 10.4338616609 
Si 8.2797520425 10.3349817141 4.9046937292 
Si 5.3180237945 3.0291907793 5.4019910830 
Si 8.0279669310 9.1212399196 9.4384496759 
Si 6.2779744331 1.0947695614 4.0866946157 
Si 1.7704138179 1.3023367833 2.2602283076 
Si 3.6531448962 7.3004627109 10.4150218256 
Si 7.0299439041 2.7436107182 0.2267275998 
Si 6.7009632309 5.2329526509 5.2161188601 
Si 8.2182864164 6.9067473023 8.0590553127 
Si 7.5761823737 0.6431431525 7.9990544176 

