&CONTROL
   calculation      = 'scf'
   tstress          = .true.
   tprnfor          = .true.
   outdir           = './'
   disk_io          = 'none'
   pseudo_dir       = '/home/ppiaggi/pseudos'
/
&SYSTEM
   ecutwfc          = 30
   occupations      = 'smearing'
   degauss          = 0.01
   smearing         = 'fermi-dirac'
   input_dft        = 'PBE'
   ntyp             = 1
   nat              = 64
   ibrav            = 0
/
&ELECTRONS
   electron_maxstep = 100
   mixing_beta      = 0.5
/
&IONS
/
&CELL
/

ATOMIC_SPECIES
Si 28.085 Si_ONCV_PBE_sr.upf

K_POINTS gamma

CELL_PARAMETERS angstrom
10.65422136716909 0.00000000000000 0.00000000000000
0.00000000000000 10.65422136716909 0.00000000000000
0.00000000000000 0.00000000000000 10.65422136716909

ATOMIC_POSITIONS angstrom
Si 5.1046505414 0.6854340045 1.1772701526 
Si 5.8150314053 5.7881934217 3.6965247202 
Si 1.7604822303 1.9909543469 7.1628543336 
Si 6.5065223347 3.0121401565 7.7735862650 
Si 8.6077159101 10.0389613917 2.7673913832 
Si 2.6850449063 4.8750201083 5.0194061163 
Si 3.5699951873 5.8139020579 3.0793576391 
Si 8.3498624445 6.7977554758 4.9445389027 
Si 5.2081243394 9.1434101604 8.1678989978 
Si 2.5964444014 2.6736768521 4.6056494295 
Si 3.5602039578 8.2798109391 3.1242651822 
Si 0.7650657859 3.9194216854 8.3174949200 
Si 3.2153694291 5.0306037029 7.2751285184 
Si 2.1163012613 6.9722183507 8.5387937521 
Si 10.3623276644 1.3929861727 6.0531958698 
Si 0.4322002094 2.0754636308 3.7146155881 
Si 2.8666248011 9.0299000860 0.7925174527 
Si 9.0957431740 7.4340575385 10.2303112074 
Si 8.8167836960 1.6940211974 2.8334475557 
Si 8.4724499156 6.0310031266 7.7211888043 
Si 7.0060241951 2.2565960482 9.8655745931 
Si 5.4170110035 4.0152244440 5.2822137947 
Si 4.2585562058 0.5032915669 5.8761866360 
Si 9.1485348409 3.9740458784 5.2983336317 
Si 3.7580421944 8.6303454763 5.7118133087 
Si 9.9377782513 9.0739872540 0.8270030364 
Si 7.0750102784 9.3188319152 4.8359084617 
Si 3.1974703372 3.2447431174 10.3025681367 
Si 8.8806344446 5.5807663859 2.6770116234 
Si 0.5680702982 5.1364640464 4.7837134312 
Si 5.3783361799 5.3960648043 10.2408269239 
Si 5.4133885682 3.0128326809 0.8561167617 
Si 5.9467282356 5.3452548226 7.6009665704 
Si 3.8101732995 0.3112950399 9.4389369527 
Si 4.0674514371 2.4506307278 8.2927664722 
Si 7.0224636586 6.2334439868 1.1789535196 
Si 0.0499332458 6.8720899783 3.3237548230 
Si 0.4633563489 5.9514587099 10.1142654283 
Si 1.2500597930 8.7716950311 6.8656122117 
Si 1.6242360474 1.8407617883 0.5348994454 
Si 7.0847695452 8.8192767838 1.0568572082 
Si 5.0262248180 2.1423614867 3.9832830883 
Si 6.7444097894 0.2515973067 6.6266380264 
Si 8.9496418364 2.4509183917 0.5053137381 
Si 10.5825610743 0.5589236492 10.1882483415 
Si 0.6793770797 3.9350088113 1.9243228465 
Si 7.5191847672 2.0938208542 5.1481623815 
Si 7.7408991139 8.2523869733 8.2099831722 
Si 8.8671568546 0.4269562016 8.0405810525 
Si 9.3406517606 9.3697484391 6.5028359741 
Si 10.4233656986 9.2720598834 4.1002451305 
Si 9.4551207150 4.6413197626 0.5271271909 
Si 7.1165723960 3.6452352986 2.8086125657 
Si 4.0042825586 7.5972802098 9.8847735000 
Si 1.7205395544 10.3194444234 4.3037407586 
Si 1.5246084234 10.5844042546 8.6585578544 
Si 7.0090713024 10.4105912872 9.9454705992 
Si 2.7349492792 5.3403432265 0.9294881226 
Si 8.9985234040 3.2587853811 7.8207098861 
Si 5.8773799088 7.5705594226 5.7007329185 
Si 5.3609378364 9.8789030241 3.2749158723 
Si 2.6739112450 0.4015544071 1.8612178933 
Si 1.1278558739 7.5868284187 1.1564091872 
Si 0.1437169229 5.7632305810 7.0646224126 

