&CONTROL
   calculation      = 'scf'
   tstress          = .true.
   tprnfor          = .true.
   outdir           = './'
   disk_io          = 'none'
   pseudo_dir       = '/home/ppiaggi/pseudos'
/
&SYSTEM
   ecutwfc          = 30
   occupations      = 'smearing'
   degauss          = 0.01
   smearing         = 'fermi-dirac'
   input_dft        = 'PBE'
   ntyp             = 1
   nat              = 64
   ibrav            = 0
/
&ELECTRONS
   electron_maxstep = 100
   mixing_beta      = 0.5
/
&IONS
/
&CELL
/

ATOMIC_SPECIES
Si 28.085 Si_ONCV_PBE_sr.upf

K_POINTS gamma

CELL_PARAMETERS angstrom
10.63233573794294 0.00000000000000 0.00000000000000
0.00000000000000 10.63233573794294 0.00000000000000
0.00000000000000 0.00000000000000 10.63233573794294

ATOMIC_POSITIONS angstrom
Si 7.9688931062 10.3887914555 0.0555347097 
Si 3.7387970682 6.7845253314 6.1497748878 
Si 6.2904300573 8.0188544519 7.6415766506 
Si 1.6320529034 3.2335272093 7.6107641416 
Si 5.7331042826 1.6031648472 5.5706421925 
Si 9.0648636418 6.8919650840 1.7700074596 
Si 9.9725461437 1.9374986445 7.3476988908 
Si 9.9563849934 4.9403785946 5.5693875769 
Si 5.2667168755 2.2440820455 2.9996583524 
Si 6.0934766701 0.7444187338 8.5284623038 
Si 5.2337460023 9.4721884239 9.7613135296 
Si 0.5171323559 10.1501699446 9.9986910573 
Si 4.5762636250 4.3325598575 0.8722810769 
Si 2.4404293896 5.8115177587 1.2834186146 
Si 9.0474478758 9.3591879597 8.7493916081 
Si 7.2524012655 4.7328991951 1.5854832729 
Si 4.4091764688 8.5664091100 3.8380711870 
Si 5.0958127108 6.9884110015 1.7554730567 
Si 3.2098915269 1.3068948119 3.8254506045 
Si 5.9811779400 4.8603915329 9.2841768310 
Si 2.9154502534 8.3965788113 1.7562279525 
Si 7.0677175938 2.8323691819 10.1482454918 
Si 3.9971628267 5.6671625364 8.2088330268 
Si 0.2905700401 0.0004323831 2.1715376188 
Si 8.2211559040 0.5515651752 6.7729360854 
Si 5.4801397507 4.6372081734 3.3100587619 
Si 2.2981581051 1.5881307245 1.9576043914 
Si 9.1737068627 1.4248286799 1.0374469699 
Si 8.5616989853 6.7200083181 7.8016464651 
Si 6.7270575567 3.8874052248 7.0144814887 
Si 4.2901581026 3.3888550021 6.8880204875 
Si 1.7214176853 4.9463858643 9.3492679904 
Si 0.9663262129 7.6297853902 4.0539182348 
Si 10.3772128419 3.7127053163 3.4348079571 
Si 2.7852041406 9.0702223390 7.3292517883 
Si 2.3078547953 9.6373192302 4.9706594868 
Si 2.4946117725 3.3201594809 5.0946006245 
Si 0.5938637965 7.9164650587 7.1052497389 
Si 3.4020603631 7.6445537046 9.3093754667 
Si 3.9582910072 2.2082936034 0.0963550110 
Si 0.3074584422 8.4152917222 1.5723842353 
Si 0.9804640298 3.6994255290 1.4523451648 
Si 7.3519624574 7.2501153134 5.3020587594 
Si 4.8802102067 10.0311515783 6.3470897745 
Si 0.9536088762 7.7028189044 9.5596287530 
Si 7.5374967160 0.7296684944 4.3127199190 
Si 5.5848150961 0.9097898309 0.9684494904 
Si 9.4455012612 6.9015022892 4.3592257555 
Si 5.7358367929 5.4486786693 5.4764078009 
Si 10.5944739904 0.0166940430 4.4132592858 
Si 7.0589352844 8.5726715558 1.4353121629 
Si 8.8416058560 4.1421772538 7.7498457254 
Si 3.0148625925 10.0943395496 0.1024217155 
Si 8.1940009185 2.6409233446 2.6515237833 
Si 1.2068657973 0.3735660529 8.1148431789 
Si 3.5154010620 1.5106528940 8.5020409495 
Si 0.3802612347 2.1291252315 5.0725597925 
Si 10.2598318554 3.6724087639 10.2863276360 
Si 2.9123987730 5.8076263238 4.1133317269 
Si 6.8960053716 9.0887545002 3.8685009319 
Si 6.9849235954 6.7713943968 9.9717061892 
Si 9.5330479137 9.1233840177 5.9899496170 
Si 1.2810050744 5.7461182615 6.6190968196 
Si 9.6364686434 6.1552292761 10.1762191671 

