&CONTROL
   calculation      = 'scf'
   tstress          = .true.
   tprnfor          = .true.
   outdir           = './'
   disk_io          = 'none'
   pseudo_dir       = '/home/ppiaggi/pseudos'
/
&SYSTEM
   ecutwfc          = 30
   occupations      = 'smearing'
   degauss          = 0.01
   smearing         = 'fermi-dirac'
   input_dft        = 'PBE'
   ntyp             = 1
   nat              = 64
   ibrav            = 0
/
&ELECTRONS
   electron_maxstep = 100
   mixing_beta      = 0.5
/
&IONS
/
&CELL
/

ATOMIC_SPECIES
Si 28.085 Si_ONCV_PBE_sr.upf

K_POINTS gamma

CELL_PARAMETERS angstrom
10.66453047190498 0.00000000000000 0.00000000000000
0.00000000000000 10.66453047190498 0.00000000000000
0.00000000000000 0.00000000000000 10.66453047190498

ATOMIC_POSITIONS angstrom
Si 3.0763117890 2.3467725885 2.2075471432 
Si 5.0263958375 4.8320347696 3.0949747173 
Si 9.5134543754 0.3407114860 1.3594183638 
Si 8.5773325551 5.0427658918 6.1516531057 
Si 3.8956250070 7.6069562630 10.4324489598 
Si 0.7746960219 1.8656209672 1.8062301970 
Si 2.9454260065 5.5549193031 3.8133374899 
Si 5.5118452646 6.1837106843 0.9180145140 
Si 5.1268557145 8.9406837728 6.9415108906 
Si 3.2304462479 5.5919145594 8.7561340730 
Si 7.6265896636 8.6256108846 9.2026259703 
Si 1.0799650073 1.2844573791 7.4529284494 
Si 7.7136335613 0.4599164082 9.4274556017 
Si 0.9898070667 8.1663108862 1.6450891415 
Si 2.3914676357 7.3830544457 6.3481577442 
Si 10.3802460831 6.1870166887 9.0112829646 
Si 4.1496754519 5.4866876372 6.3071846181 
Si 7.9510046805 3.3944987201 3.4297663224 
Si 7.6643207724 6.1109039348 8.0427516362 
Si 1.6571400610 9.9982426016 0.4016027556 
Si 1.3358390869 6.2606872652 0.1794093961 
Si 0.0812037875 8.6569539396 8.9296246547 
Si 8.7448509998 1.6750458076 5.4980773557 
Si 9.2300231491 4.8272357309 0.4728066262 
Si 1.1607168320 4.3109551462 7.8081532948 
Si 4.0961608380 1.8975719005 8.6736652589 
Si 3.1250593578 10.6051823598 7.8146906520 
Si 2.9184874025 3.3110914273 10.0836228326 
Si 2.4474457561 8.6803625840 8.8682076237 
Si 1.0743661288 10.4181691535 3.5641074128 
Si 6.1611658669 6.7905651263 6.0157976520 
Si 6.7503065237 9.0118161911 4.2195601201 
Si 7.2434877354 5.6544087079 3.9169540680 
Si 7.7123111595 6.5303825763 0.2656886470 
Si 7.5568116407 9.7077941142 6.7521514875 
Si 5.1274209346 0.4766586546 3.3772115163 
Si 10.6010871801 0.1161303381 5.6081246457 
Si 10.1107533981 4.6531372710 2.7641716466 
Si 3.5649285816 10.0084272282 5.2076715264 
Si 5.5121332069 3.1544614683 7.0560266188 
Si 5.0320480386 2.7801151197 4.4937025404 
Si 2.6473630443 7.9409800219 3.6506820711 
Si 5.8400141963 4.6315629258 8.8360327353 
Si 9.1730745563 3.2594964289 7.9912206249 
Si 5.4166110075 9.0753554636 9.4149887656 
Si 0.2481390957 2.9466417630 9.9696936535 
Si 4.8865091913 8.1559769562 2.4219361992 
Si 7.0987807214 1.7190583249 1.6302441151 
Si 2.2978437227 1.8109545840 4.9626006162 
Si 10.4858355993 6.7583049216 6.2972452757 
Si 7.2441276072 1.7791316250 7.2750440811 
Si 1.7088630338 4.6984295319 1.8038520067 
Si 1.5125396923 4.4163100428 5.4177521122 
Si 4.0484157351 10.4545991896 1.2110107577 
Si 10.5899747394 2.6580169103 3.8525829620 
Si 10.2972547070 0.6461159109 9.3685767290 
Si 5.4186692618 0.8583901906 10.3362548949 
Si 8.2152717456 0.1703210833 3.6166942125 
Si 8.3202853772 7.6190818341 2.7297145486 
Si 10.4451930737 6.7522261392 3.8468134511 
Si 4.9201877785 3.4806787909 0.9579478484 
Si 9.3718080817 8.8308497735 0.6041712461 
Si 9.7279927349 8.8175511040 6.6126487644 
Si 7.7553851981 3.0846194582 10.3286190911 

