&CONTROL
   calculation      = 'scf'
   tstress          = .true.
   tprnfor          = .true.
   outdir           = './'
   disk_io          = 'none'
   pseudo_dir       = '/home/ppiaggi/pseudos'
/
&SYSTEM
   ecutwfc          = 30
   occupations      = 'smearing'
   degauss          = 0.01
   smearing         = 'fermi-dirac'
   input_dft        = 'PBE'
   ntyp             = 1
   nat              = 64
   ibrav            = 0
/
&ELECTRONS
   electron_maxstep = 100
   mixing_beta      = 0.5
/
&IONS
/
&CELL
/

ATOMIC_SPECIES
Si 28.085 Si_ONCV_PBE_sr.upf

K_POINTS gamma

CELL_PARAMETERS angstrom
10.63124455808137 0.00000000000000 0.00000000000000
0.00000000000000 10.63124455808137 0.00000000000000
0.00000000000000 0.00000000000000 10.63124455808137

ATOMIC_POSITIONS angstrom
Si 1.5492806382 4.8761053665 2.6418642727 
Si 6.4336890067 2.2655607403 3.1225347329 
Si 4.8108933124 2.0000773012 6.8277360863 
Si 4.3684953326 5.5666259631 7.8757960685 
Si 6.5996427343 4.6949064343 5.2357922637 
Si 3.6738391819 9.8832195597 9.5530024725 
Si 3.6623149128 7.1986921026 4.7537397417 
Si 9.0041751034 3.6483879825 10.5494477625 
Si 2.2619248547 6.5475177422 8.0572714131 
Si 2.5093139155 0.3867083314 0.6015987408 
Si 10.1519136347 9.5041093788 7.7657839499 
Si 9.8214413976 7.6822223676 10.2937875933 
Si 1.7947986000 10.1522325720 5.5302671067 
Si 1.0077707548 6.3496171248 4.4229804610 
Si 10.4608044453 10.2777450453 3.1545666727 
Si 7.2393778756 10.5743142435 5.1306917800 
Si 2.7998977230 0.4008298136 3.1932537717 
Si 9.0475824750 3.8925132513 3.3366586295 
Si 10.4013013695 5.3856502869 1.0700985522 
Si 6.8860484627 5.1316166982 8.1043253016 
Si 9.9861087446 10.5488843065 10.1154165721 
Si 10.0568596771 2.0594421708 2.1058900783 
Si 10.0218403575 0.1963771601 5.6407576314 
Si 3.5195904546 2.7827388943 1.1612295806 
Si 4.0995992640 4.8687272828 5.5571747866 
Si 2.5799904294 7.4781556283 10.3018886017 
Si 8.1458828365 9.6842345553 2.8501835098 
Si 5.1748220761 8.3328120096 2.7690033264 
Si 9.9810057472 7.4086379202 2.9566554240 
Si 2.9379338024 3.0552814798 5.5256744090 
Si 7.2097379657 2.2964870307 5.4220835620 
Si 9.3537197933 2.6090456207 6.3753553678 
Si 9.6003752983 6.9044086220 7.6329784428 
Si 7.4225329568 7.2621287389 6.3751958992 
Si 4.6255269323 4.5389673391 10.4001850889 
Si 5.4842338177 8.3238073455 9.0306575336 
Si 4.4774655893 3.2462398946 3.2359382186 
Si 3.1647620363 0.5666857337 7.6128641281 
Si 5.3615811493 0.9792290525 10.5064656407 
Si 1.2568363629 3.9915645568 7.3215467647 
Si 0.7279149361 2.2287766341 10.4081159973 
Si 7.7482317651 9.4823365899 7.1246454843 
Si 8.1322004248 0.9054503415 1.0498162639 
Si 0.9111529411 1.4888526441 7.9705842450 
Si 7.8256165942 8.3461223278 0.8055910614 
Si 1.6274840732 2.5308847107 3.3400712590 
Si 9.3586952157 4.5608251779 8.1391638900 
Si 8.0471398371 1.9865224644 8.4918554282 
Si 6.5477622608 6.4127986112 10.2893862581 
Si 1.2510635971 8.0249524297 6.4492850425 
Si 7.7957959532 7.3998565122 3.8751630601 
Si 2.3175581574 8.5437040079 2.9786195753 
Si 8.0815106507 5.6808374233 1.9893929004 
Si 5.8358622315 2.7892239535 8.8339369843 
Si 5.4230935303 5.5104823605 3.0327432414 
Si 10.5864232310 4.0369280773 5.0790345626 
Si 0.9731458544 9.0358881060 0.8950933831 
Si 4.5485779842 10.3273291699 5.4576769688 
Si 1.7370177859 4.5152702950 10.1790126771 
Si 7.0812912690 9.9343558461 9.2580917485 
Si 6.6948030043 3.4881538645 1.0527462349 
Si 3.5881513508 6.3892822982 1.5880421559 
Si 5.2783597669 0.2041337161 2.4351822472 
Si 4.9937188251 7.7032403381 6.8109706136 

