&CONTROL
   calculation      = 'scf'
   tstress          = .true.
   tprnfor          = .true.
   outdir           = './'
   disk_io          = 'none'
   pseudo_dir       = '/home/ppiaggi/pseudos'
/
&SYSTEM
   ecutwfc          = 30
   occupations      = 'smearing'
   degauss          = 0.01
   smearing         = 'fermi-dirac'
   input_dft        = 'PBE'
   ntyp             = 1
   nat              = 64
   ibrav            = 0
/
&ELECTRONS
   electron_maxstep = 100
   mixing_beta      = 0.5
/
&IONS
/
&CELL
/

ATOMIC_SPECIES
Si 28.085 Si_ONCV_PBE_sr.upf

K_POINTS gamma

CELL_PARAMETERS angstrom
10.68786835414569 0.00000000000000 0.00000000000000
0.00000000000000 10.68786835414569 0.00000000000000
0.00000000000000 0.00000000000000 10.68786835414569

ATOMIC_POSITIONS angstrom
Si 2.8079488376 10.5198978151 6.9311467549 
Si 10.6612769377 3.8338131937 0.8848015944 
Si 5.9237937868 0.8324192828 10.4702740423 
Si 0.1962100248 7.8894317194 0.8238860887 
Si 4.0069566610 10.2768770645 4.5361557747 
Si 8.5626177955 6.9407551485 2.1361308086 
Si 7.7171967208 4.5295934236 3.0546462150 
Si 0.0355565073 9.8785295230 9.8382790108 
Si 7.1436322656 3.7889027709 8.8668586561 
Si 8.9465901540 4.9752561582 7.4467402121 
Si 5.2271692153 2.3826678679 8.2080905144 
Si 0.0600045787 3.1506018970 8.7824458718 
Si 8.9806310147 2.0384009404 4.1638331927 
Si 0.2333888437 6.5190332390 3.8872952870 
Si 1.0543988270 9.9237285183 5.3295162427 
Si 2.9632115012 8.6530692254 8.3913553930 
Si 4.1406298306 4.7938830322 6.2387866429 
Si 0.7963049757 4.1240315710 6.3715513436 
Si 0.7003193675 6.6876236744 6.4801293982 
Si 7.6207066453 4.8702799152 0.3865588226 
Si 2.5989155083 7.7892222657 4.3764469579 
Si 7.8144349471 9.2618608947 4.2213553002 
Si 1.6897733625 3.3681748331 4.1733453956 
Si 5.2483098189 5.4994319738 8.4562307539 
Si 5.9289346514 7.6508250584 6.9918859107 
Si 8.4875782718 6.8107692936 5.0237577048 
Si 2.6923809171 3.4679567721 8.4148687034 
Si 1.6972228068 1.0702403855 8.7434885917 
Si 10.0867612622 1.5805540358 0.4556302407 
Si 5.2211091939 1.0749323597 6.2882180340 
Si 5.7839750929 6.0871044152 3.3268555341 
Si 1.3667966687 6.2217501807 8.9131371261 
Si 8.8111534862 1.8573163868 7.7468448677 
Si 7.4341285275 10.2592848331 1.8164673540 
Si 4.2153594061 3.9625058166 3.9630188342 
Si 2.3308530821 5.6159083631 2.6418593634 
Si 9.9023741573 5.9576743294 10.1384905450 
Si 1.8636115413 0.4659611342 0.9402395676 
Si 2.1461667170 4.1868762369 0.6372545315 
Si 2.6007751974 8.5744813294 0.6162015685 
Si 1.7101871911 0.9550390589 3.3346576780 
Si 6.0895198735 6.8957057834 10.4762378729 
Si 5.6955757338 8.1780255407 4.8010973434 
Si 8.2694816302 0.0706085473 9.4303872029 
Si 3.2183629824 5.6671353161 9.6946768116 
Si 5.1063214878 9.0915497125 2.2759281267 
Si 7.7553737866 2.5314536833 1.4469663693 
Si 7.2438310314 2.5223796831 5.7964905868 
Si 3.1938557003 7.0895516518 6.5059192245 
Si 5.8608208664 2.4482272524 3.5642758417 
Si 10.6870988276 1.2282284555 6.2779042411 
Si 10.2272960432 4.3377461866 3.2701777682 
Si 6.5431130064 9.8879241593 7.4511222382 
Si 5.4249482192 9.3873364692 9.5207103784 
Si 8.1948375576 7.3796952140 8.1756635218 
Si 4.1433445491 7.0234685617 1.0761400888 
Si 9.7304597948 0.6577474503 2.5952816331 
Si 8.5378326288 10.1897923131 6.2723144859 
Si 6.8614832289 4.9919826722 5.4668981025 
Si 10.3793309705 8.9130836867 3.1330203536 
Si 10.0677047929 8.6956176293 7.5229660892 
Si 4.3546437065 0.7283141011 2.2766762775 
Si 3.6554433587 2.2825118536 0.1052402333 
Si 7.9813366994 8.3918684107 10.6182475797 

