&CONTROL
   calculation      = 'scf'
   tstress          = .true.
   tprnfor          = .true.
   outdir           = './'
   disk_io          = 'none'
   pseudo_dir       = '/home/ppiaggi/pseudos'
/
&SYSTEM
   ecutwfc          = 30
   occupations      = 'smearing'
   degauss          = 0.01
   smearing         = 'fermi-dirac'
   input_dft        = 'PBE'
   ntyp             = 1
   nat              = 64
   ibrav            = 0
/
&ELECTRONS
   electron_maxstep = 100
   mixing_beta      = 0.5
/
&IONS
/
&CELL
/

ATOMIC_SPECIES
Si 28.085 Si_ONCV_PBE_sr.upf

K_POINTS gamma

CELL_PARAMETERS angstrom
10.71959025800681 0.00000000000000 0.00000000000000
0.00000000000000 10.71959025800681 0.00000000000000
0.00000000000000 0.00000000000000 10.71959025800681

ATOMIC_POSITIONS angstrom
Si 3.3595624652 0.0410916197 3.4371294203 
Si 6.6442914708 7.9303314337 3.4576574357 
Si 8.4612620196 0.6614544608 8.2400311158 
Si 2.0230546714 9.9922660590 10.2474566247 
Si 10.5926595898 5.8646235126 3.1143303989 
Si 0.0834916726 10.7104357279 0.8109327152 
Si 8.4573600887 2.6343714647 9.5484428635 
Si 8.2497430646 6.0901744112 0.1523703998 
Si 1.2626819757 3.8993259935 5.8179825754 
Si 10.0988831037 0.4526786490 6.3351813662 
Si 0.2785796397 8.7738238323 7.9661455847 
Si 7.6015080025 2.7494248269 2.8937426706 
Si 8.8506404161 10.1220695774 10.3936075183 
Si 9.5990178904 4.1773278472 6.4649848846 
Si 5.9075661912 3.1340115666 4.2061635450 
Si 1.8605564027 8.1921895845 1.7634905129 
Si 5.3411644811 5.3613923480 6.0358260886 
Si 5.0539009014 4.3023075501 10.5448502172 
Si 6.9538196395 3.4875114945 6.7253637320 
Si 8.3933105369 8.2087513515 1.6990014579 
Si 3.2551750953 4.5438091990 1.4608764800 
Si 6.0393742730 1.1104637940 7.0797319467 
Si 4.4706158367 7.9398397103 10.2314415568 
Si 1.0443668005 3.5092401040 3.3078940402 
Si 5.0216349347 5.6692161018 3.4785070387 
Si 2.2568810937 6.2068249924 5.7905725831 
Si 3.0716664297 7.6719785889 3.9877840523 
Si 9.3336222748 5.9863337404 5.0902939103 
Si 7.2531320387 7.0240543949 5.5079077076 
Si 9.2593033555 9.5783505204 4.7269319594 
Si 5.6041696281 0.1095638601 4.8004897877 
Si 1.6028038550 0.6039095564 8.1292655897 
Si 3.6997593816 2.6032953725 3.7236426287 
Si 6.5726417296 7.1043762847 8.4558486265 
Si 10.1620750883 6.2022370078 9.6022980850 
Si 4.1267528204 0.5550989741 8.4013180709 
Si 2.4894854827 1.3841670921 5.8978220836 
Si 9.9154065969 2.7930857180 0.7202664208 
Si 1.8475749789 2.3053336417 0.9948530131 
Si 7.2127406226 4.9427173112 8.9711500498 
Si 8.9149257989 8.2022124014 8.7292946544 
Si 5.5649252082 0.8990166603 10.4488562865 
Si 1.1993077581 6.0566971309 0.8240674291 
Si 1.4526759934 2.7422427014 9.3132764925 
Si 1.7716266819 9.6609342437 4.8973841640 
Si 4.2243332505 3.0298707472 6.6941911635 
Si 0.1813583158 7.6334631011 5.8773155075 
Si 4.9458259924 8.8801192893 7.5755344353 
Si 3.5449470591 6.3903229385 7.7379576669 
Si 9.6898771374 2.2071314754 4.4278339520 
Si 3.4415994895 4.0124498295 8.9367187259 
Si 7.7279884480 9.4098492811 6.9802541491 
Si 6.6588165156 2.4989080026 0.5463239175 
Si 8.7303344546 4.7024591348 2.0228724384 
Si 10.1528026427 3.9904532303 8.6837149566 
Si 4.7859540233 8.5480799811 5.0862204660 
Si 2.0082187585 7.4245168478 9.6337922412 
Si 3.4993888005 0.5420671682 0.8425426429 
Si 0.5761511774 0.8999599842 3.1167744655 
Si 10.4872752979 8.3787533334 2.9141420508 
Si 6.6669098063 10.3081938231 1.2984210896 
Si 4.7663157340 8.8314201908 2.0110380108 
Si 5.8216057969 6.3621304161 0.9320158469 
Si 7.5347785532 0.2664086169 3.4745836687 

