&CONTROL
   calculation      = 'scf'
   tstress          = .true.
   tprnfor          = .true.
   outdir           = './'
   disk_io          = 'none'
   pseudo_dir       = '/home/ppiaggi/pseudos'
/
&SYSTEM
   ecutwfc          = 30
   occupations      = 'smearing'
   degauss          = 0.01
   smearing         = 'fermi-dirac'
   input_dft        = 'PBE'
   ntyp             = 1
   nat              = 64
   ibrav            = 0
/
&ELECTRONS
   electron_maxstep = 100
   mixing_beta      = 0.5
/
&IONS
/
&CELL
/

ATOMIC_SPECIES
Si 28.085 Si_ONCV_PBE_sr.upf

K_POINTS gamma

CELL_PARAMETERS angstrom
10.61300634735742 0.00000000000000 0.00000000000000
0.00000000000000 10.61300634735742 0.00000000000000
0.00000000000000 0.00000000000000 10.61300634735742

ATOMIC_POSITIONS angstrom
Si 4.8957692150 6.3695337284 6.1544717678 
Si 0.5396448402 0.4507831994 5.7648895308 
Si 10.2148700272 2.9733292453 6.0091054199 
Si 5.1406006585 8.3958325783 4.6804525423 
Si 3.8842117410 0.1832919261 1.7037908130 
Si 8.4083665388 4.0967053541 9.1154899257 
Si 10.5290256281 5.3820571659 7.1993859208 
Si 5.8954719609 4.3928294572 9.5332284686 
Si 2.5914308249 4.7358524354 8.6945887070 
Si 1.5819110481 4.5109097659 2.5249827921 
Si 5.5150381354 0.2357923459 7.3643969435 
Si 1.9146394101 0.1008376756 3.2806712961 
Si 9.4769370829 9.3906851803 6.8903988540 
Si 8.3589417683 8.5716688675 4.7093729846 
Si 5.9976221470 0.1706932263 4.7341437414 
Si 8.2804691993 5.2297286858 6.5077893621 
Si 2.6689694492 5.4260799162 6.1947375139 
Si 2.5650044391 9.4628536235 8.2132570301 
Si 4.6412268708 2.7374445662 1.3435959906 
Si 4.4202534656 5.6412904589 0.5081539278 
Si 10.3731630169 7.9075599953 3.3607888810 
Si 9.3254682563 0.8823218344 8.0000311196 
Si 7.1478491619 1.7937891068 8.0736959967 
Si 3.2476542333 1.7050643738 4.4997236572 
Si 9.7834088672 6.3498572147 9.4526120724 
Si 6.7619920902 3.1640874214 6.2610794166 
Si 2.8476818631 8.6531449172 1.0219497298 
Si 10.3798598239 6.2322438783 1.5643571356 
Si 2.9640853167 9.3484135760 5.5155369467 
Si 1.8328449702 6.8403691420 10.2283060933 
Si 2.7509973753 3.5269567214 0.4302618903 
Si 6.8627413594 8.6245640911 6.8793188753 
Si 5.6333837692 2.5070680374 3.9327662451 
Si 9.5886814267 4.7512412946 3.6266022380 
Si 3.7859565283 5.7555182462 2.8403907278 
Si 0.5345378616 8.1996723820 8.2967707771 
Si 8.0643140991 0.1716664390 3.6563292688 
Si 7.7035461743 0.1708991186 0.9666687023 
Si 1.5520142092 3.6481890929 4.6560956927 
Si 0.7685344868 9.8953442451 10.5502516408 
Si 5.1731189099 8.5363593954 10.3868750211 
Si 6.4632784135 6.4280644585 8.2030791570 
Si 6.2217794541 1.8639410788 10.4782423928 
Si 4.0191561168 7.3974140062 8.7673196395 
Si 5.8708710122 7.4322352800 2.4811404629 
Si 5.5956969836 5.0303209095 4.1736178111 
Si 10.1705182737 10.0419735408 2.2957524680 
Si 5.8998869716 9.7476111968 2.1396245317 
Si 0.1580711778 1.9566563022 2.9874869957 
Si 2.8975736060 1.3337471207 7.1484434903 
Si 10.3439029584 2.0595493988 9.8372698744 
Si 2.4030393492 1.1686405809 10.1349965415 
Si 4.7436211560 0.0442484890 9.5362107234 
Si 2.2156030441 7.9359073353 3.3392763171 
Si 8.7136178274 2.3792343760 1.2207398291 
Si 7.7516655451 6.3692896293 4.4239043398 
Si 7.9890678840 6.4122404660 1.5024833086 
Si 7.2681157499 4.3631661045 1.1845919295 
Si 4.4590121648 3.2036102570 7.8248422238 
Si 7.5368264576 7.6952574163 10.1476154060 
Si 8.8273468034 9.4812990285 9.8258184406 
Si 1.1841355702 3.0325179817 8.0109943552 
Si 1.1369713700 7.6880193460 5.9187356708 
Si 8.3444550146 2.4602434534 4.1226329286 

