&CONTROL
   calculation      = 'scf'
   tstress          = .true.
   tprnfor          = .true.
   outdir           = './'
   disk_io          = 'none'
   pseudo_dir       = './'
/
&SYSTEM
   ecutwfc          = 30
   input_dft        = 'PBE'
   ntyp             = 1
   nat              = 64
   ibrav            = 0
/
&ELECTRONS
   electron_maxstep = 1000
   mixing_beta      = 0.5
/
&IONS
/
&CELL
/

ATOMIC_SPECIES
Si 28.085 Si_ONCV_PBE-1.0.upf

K_POINTS gamma

CELL_PARAMETERS angstrom
11.00984648515100 0.00000000000000 0.00000000000000
0.00000000000000 11.09278395942577 0.00000000000000
0.00000000000000 0.00000000000000 10.80479950534429

ATOMIC_POSITIONS angstrom
Si 4.2163373353 4.2319616945 1.3114458797 
Si -0.0446068521 2.8056784539 2.6914271394 
Si 4.2218469984 1.4185325698 4.0182823890 
Si -0.0066452134 -0.0331939646 -0.0449194203 
Si 1.4125457838 4.2001248809 3.9657533110 
Si 2.7621067768 2.8490690806 0.0350770582 
Si 1.3637315014 1.4127059215 1.3739477478 
Si 2.8275322996 0.0445936464 2.6445063779 
Si 4.2387870043 4.2437456152 6.6023639509 
Si -0.0028228131 2.8292730126 7.9746312202 
Si 4.2446435123 1.4374066387 9.2744952459 
Si -0.0310336959 0.0484784483 5.3488518139 
Si 1.4020901895 4.2821358652 9.2765493055 
Si 2.7569770152 2.8122375986 5.2807505741 
Si 1.4016406962 1.3735456679 6.6681195962 
Si 2.8461287972 -0.0441790159 7.9644995094 
Si 4.1875662411 9.8408478923 1.3391590029 
Si 0.0033423033 8.4806386966 2.6756275492 
Si 4.2408756464 7.0680204770 4.0028865982 
Si 0.0112561007 5.6067710960 -0.0355296298 
Si 1.3721259969 9.8958665572 4.0020067014 
Si 2.7570916187 8.5034821746 -0.0291892644 
Si 1.3717700623 7.0325212774 1.3183321846 
Si 2.8261376158 5.6667770877 2.6443146645 
Si 4.2035916570 9.8413671629 6.6278001272 
Si 0.0175519341 8.4769175863 7.9241549800 
Si 4.2102182701 7.0739310350 9.2707583651 
Si -0.0020558887 5.6935695772 5.3296724556 
Si 1.4164771940 9.8866705575 9.2969660883 
Si 2.8506367825 8.5104766230 5.3043825159 
Si 1.4492365964 7.0483851356 6.6634965639 
Si 2.7976016690 5.6731111757 7.9283647543 
Si 9.8714110482 4.2370975790 1.3185430926 
Si 5.6147822064 2.8306241108 2.6619047803 
Si 9.8654615412 1.3973163615 3.9911221738 
Si 5.5665712657 0.0353899563 -0.0448224556 
Si 7.0509979548 4.1979056936 4.0295969269 
Si 8.3858381013 2.8375858557 -0.0198476709 
Si 6.9927509972 1.4430218309 1.3072626563 
Si 8.3878790525 -0.0205888707 2.6110384313 
Si 9.8462880968 4.2808458391 6.6306367299 
Si 5.6161949411 2.8518537839 7.9194995376 
Si 9.7974942968 1.3619966206 9.2828931993 
Si 5.6589046875 0.0275065931 5.2925744489 
Si 6.9929990927 4.2587584244 9.2669031245 
Si 8.4451901702 2.8418697571 5.2863399061 
Si 7.0407689541 1.3682100479 6.6192378614 
Si 8.4629740133 -0.0264875867 8.0075427948 
Si 9.8502426938 9.9116265048 1.2899916097 
Si 5.5861510591 8.4301383570 2.6440096014 
Si 9.7867828748 7.0080349639 3.9351579089 
Si 5.6345776871 5.5967956460 -0.0135065605 
Si 7.0464698490 9.9051340400 4.0240154517 
Si 8.4314505737 8.4585760299 -0.0427996277 
Si 7.0175419505 7.0679550256 1.3478342221 
Si 8.4319875135 5.6526772284 2.6545899733 
Si 9.8129108971 9.8913594914 6.6085237698 
Si 5.5668660921 8.5018320676 8.0115383402 
Si 9.8707085531 7.0551511664 9.2939059931 
Si 5.5916109398 5.6400818127 5.3472511736 
Si 7.0045432783 9.8654685440 9.3064585459 
Si 8.3887598691 8.4224081745 5.2679944424 
Si 6.9813807634 7.1022648856 6.6753300923 
Si 8.3814843604 5.6359454481 8.0000741944 

