&CONTROL
   calculation      = 'scf'
   tstress          = .true.
   tprnfor          = .true.
   outdir           = './'
   disk_io          = 'none'
   pseudo_dir       = './'
/
&SYSTEM
   ecutwfc          = 30
   input_dft        = 'PBE'
   ntyp             = 1
   nat              = 64
   ibrav            = 0
/
&ELECTRONS
   electron_maxstep = 1000
   mixing_beta      = 0.5
/
&IONS
/
&CELL
/

ATOMIC_SPECIES
Si 28.085 Si_ONCV_PBE-1.0.upf

K_POINTS gamma

CELL_PARAMETERS angstrom
10.94383897041848 0.00000000000000 0.00000000000000
0.00000000000000 10.88085317311487 0.00000000000000
0.00000000000000 0.00000000000000 11.04233084695305

ATOMIC_POSITIONS angstrom
Si 4.1846535594 4.1024787091 1.3443546718 
Si -0.0073781269 2.7363358714 2.8104325802 
Si 4.1800213821 1.3465394666 4.1954132311 
Si 0.0365628943 -0.0353269821 -0.0089021122 
Si 1.3784653680 4.0970130058 4.2131879692 
Si 2.7455467286 2.7566689733 0.0442708017 
Si 1.4248938578 1.3203137177 1.4192140203 
Si 2.8275061385 -0.0461430618 2.7414676735 
Si 4.1830503525 4.0900416093 7.0144181066 
Si 0.0046201895 2.7573490672 8.3961881981 
Si 4.1632053221 1.3749419725 9.7569622659 
Si 0.0247846563 0.0200796125 5.5341419476 
Si 1.4133737505 4.0987237228 9.8027435350 
Si 2.7570318406 2.6946926738 5.5667667702 
Si 1.4138240439 1.3224513941 7.0069479915 
Si 2.8343527007 0.0321291573 8.3348077323 
Si 4.1960487446 9.4816829935 1.4324308076 
Si -0.0507336365 8.1377853541 2.7441823614 
Si 4.1874441741 6.7783242934 4.2091736503 
Si -0.0103565142 5.4069830701 -0.0502427807 
Si 1.4261969783 9.4751569034 4.1760455693 
Si 2.8331538174 8.1957218449 0.0175155736 
Si 1.4304039334 6.7779359421 1.3557916681 
Si 2.8147199046 5.4316925741 2.7383422279 
Si 4.2256002453 9.5541258484 6.9625424459 
Si -0.0495480082 8.1313465439 8.4110600957 
Si 4.1751595613 6.8233990605 9.7537587454 
Si -0.0314524989 5.4230329881 5.5915025297 
Si 1.3818388433 9.5111656648 9.7554573862 
Si 2.8323159190 8.1226360310 5.5524954894 
Si 1.4096319987 6.7469469685 6.9689621134 
Si 2.7644112422 5.3975692399 8.3225246303 
Si 9.7420363875 4.0482779151 1.3817686772 
Si 5.5380517828 2.7277807331 2.7655427726 
Si 9.8012165149 1.3322175619 4.1385479124 
Si 5.5391057317 -0.0397913634 0.0117109332 
Si 6.9315539440 4.1231388387 4.1773915051 
Si 8.3665239618 2.6770945560 -0.0467261484 
Si 6.9945382698 1.3424301798 1.3438745182 
Si 8.3454184862 -0.0234890675 2.7491872204 
Si 9.7490757196 4.0416650512 6.9770278947 
Si 5.5379227270 2.6831169229 8.4066479727 
Si 9.7410452068 1.3658326615 9.7407461769 
Si 5.6126860419 0.0387714297 5.5899949725 
Si 7.0058459063 4.0851921633 9.7941932555 
Si 8.4029081674 2.7445450477 5.5569348146 
Si 6.9345544939 1.3673986719 6.9427628099 
Si 8.3442634778 -0.0495036617 8.4084391874 
Si 9.8120019388 9.4863008795 1.3567659287 
Si 5.5630539288 8.1848336257 2.7998331515 
Si 9.7798450941 6.7865684157 4.2073039609 
Si 5.6118444890 5.4479141422 -0.0481829574 
Si 6.9415883651 9.4780950772 4.1931389098 
Si 8.4137762759 8.1865992588 -0.0154180390 
Si 7.0032460083 6.8236188663 1.3525412248 
Si 8.4026628277 5.4505733828 2.8280594978 
Si 9.7304869110 9.4732265408 6.9332793607 
Si 5.5559144631 8.1573979345 8.4089960851 
Si 9.7322545216 6.7622091703 9.7662188935 
Si 5.5336810820 5.4371869778 5.5524835443 
Si 6.9497632881 9.4731661196 9.7904212692 
Si 8.3279629266 8.1374210440 5.5870882197 
Si 6.9821465888 6.7980058445 7.0085484170 
Si 8.4073491831 5.4307949306 8.3562075457 

