&CONTROL
   calculation      = 'scf'
   tstress          = .true.
   tprnfor          = .true.
   outdir           = './'
   disk_io          = 'none'
   pseudo_dir       = './'
/
&SYSTEM
   ecutwfc          = 30
   input_dft        = 'PBE'
   ntyp             = 1
   nat              = 64
   ibrav            = 0
/
&ELECTRONS
   electron_maxstep = 1000
   mixing_beta      = 0.5
/
&IONS
/
&CELL
/

ATOMIC_SPECIES
Si 28.085 Si_ONCV_PBE-1.0.upf

K_POINTS gamma

CELL_PARAMETERS angstrom
10.94268379883143 0.00000000000000 0.00000000000000
0.00000000000000 10.91505009839878 0.00000000000000
0.00000000000000 0.00000000000000 10.75709016070995

ATOMIC_POSITIONS angstrom
Si 4.1527927193 4.1610908772 1.3680262488 
Si 0.0321068968 2.8116027651 2.7100086918 
Si 4.0640591521 1.3638528576 3.9860249374 
Si 0.0442535879 0.0450360503 -0.0017361583 
Si 1.3778396193 4.1456150266 4.0447665862 
Si 2.7727688896 2.7966313843 0.0350221012 
Si 1.3742519293 1.3431795670 1.3628093376 
Si 2.6904945803 0.0301692408 2.7046685916 
Si 4.1274169572 4.1467912960 6.6377726011 
Si -0.0450866333 2.8081633061 8.0140999077 
Si 4.1450345789 1.4322672188 9.3555964279 
Si -0.0316239239 0.0112627971 5.3534810945 
Si 1.3604127635 4.2141978190 9.4006158732 
Si 2.7690977854 2.7460053284 5.3863513743 
Si 1.4089382132 1.3874000997 6.6421177556 
Si 2.7231618262 -0.0463436743 7.9741409731 
Si 4.1141090592 9.6753000151 1.3509938754 
Si 0.0067836744 8.3683798159 2.6815558995 
Si 4.0978680462 6.9508950965 3.9862051768 
Si -0.0188479246 5.5971378519 0.0189778102 
Si 1.3842576469 9.7553171636 3.9844533181 
Si 2.7665138099 8.3839339589 0.0156293320 
Si 1.3698349204 6.9579967461 1.3278238217 
Si 2.7522984610 5.5728011448 2.7108295399 
Si 4.1169023866 9.7179544726 6.6650613266 
Si 0.0468400657 8.2951429989 8.0552969713 
Si 4.0888705750 6.9848033794 9.3806137683 
Si -0.0363793293 5.5169981159 5.3457042986 
Si 1.4174251988 9.6869147137 9.3743711118 
Si 2.7211314923 8.2868304886 5.3841350994 
Si 1.3845208652 6.9238073823 6.7214179940 
Si 2.7570883551 5.5490863960 8.0084336499 
Si 9.5381471715 4.1537323580 1.3318337308 
Si 5.5051327981 2.7568517751 2.6579107084 
Si 9.5534080750 1.3523411722 3.9740232766 
Si 5.5123099654 -0.0167090397 -0.0385217399 
Si 6.8254307009 4.1492678591 4.0446745147 
Si 8.1975345348 2.7795217974 -0.0367186860 
Si 6.8170122547 1.3825579298 1.3014901654 
Si 8.2207938039 -0.0161441812 2.6552147797 
Si 9.5427665893 4.1753125992 6.6463566762 
Si 5.4585933842 2.8073233328 8.0294552119 
Si 9.5710845111 1.4253602002 9.3644535065 
Si 5.4360119511 0.0137046793 5.3857066828 
Si 6.8870542679 4.1523981663 9.3823395707 
Si 8.2241460113 2.7437770694 5.3864879088 
Si 6.8610557107 1.3849324438 6.7150339932 
Si 8.1914675245 -0.0499762119 7.9929633505 
Si 9.5376407365 9.7079332515 1.2945900973 
Si 5.4476137443 8.3288051864 2.7107700365 
Si 9.5967599848 6.9659499015 3.9875931773 
Si 5.4677716499 5.5196267761 0.0278215898 
Si 6.8743988348 9.6795524670 4.0581578561 
Si 8.2257456074 8.3465855277 0.0019673825 
Si 6.8339826954 6.9846324770 1.3644474384 
Si 8.1905994415 5.5947095467 2.6731942554 
Si 9.5461055628 9.7161173678 6.6760363031 
Si 5.4429392683 8.3324287830 8.0660347270 
Si 9.5335434037 6.9110331293 9.3675643956 
Si 5.4458520621 5.5866165044 5.3807249868 
Si 6.7965123026 9.7446463226 9.3860498012 
Si 8.1871975323 8.2989301010 5.3391971946 
Si 6.8773887797 6.9297672207 6.7205076098 
Si 8.1784540293 5.5278790348 7.9802704662 

