&CONTROL
   calculation      = 'scf'
   tstress          = .true.
   tprnfor          = .true.
   outdir           = './'
   disk_io          = 'none'
   pseudo_dir       = './'
/
&SYSTEM
   ecutwfc          = 30
   input_dft        = 'PBE'
   ntyp             = 1
   nat              = 64
   ibrav            = 0
/
&ELECTRONS
   electron_maxstep = 1000
   mixing_beta      = 0.5
/
&IONS
/
&CELL
/

ATOMIC_SPECIES
Si 28.085 Si_ONCV_PBE-1.0.upf

K_POINTS gamma

CELL_PARAMETERS angstrom
10.75818937175158 0.00000000000000 0.00000000000000
0.00000000000000 10.90185679030349 0.00000000000000
0.00000000000000 0.00000000000000 10.85437111830376

ATOMIC_POSITIONS angstrom
Si 4.0314145078 4.0492657961 1.3507012125 
Si -0.0480894148 2.6616720329 2.7238072971 
Si 3.9673125802 1.3045082661 4.0624108568 
Si -0.0179019985 -0.0031059253 0.0106071564 
Si 1.3510899536 3.9954444783 4.0922099742 
Si 2.6388040072 2.6667519860 -0.0106044490 
Si 1.3549409792 1.3024342172 1.3553144311 
Si 2.6280477383 0.0314953789 2.6829078304 
Si 4.0334404728 3.9947110312 6.7672103442 
Si -0.0246846083 2.6899567276 8.2153622188 
Si 3.9996169908 1.2983149753 9.4910186070 
Si -0.0280162306 -0.0059490069 5.4934023776 
Si 1.3282961719 4.0375113803 9.5300272982 
Si 2.6215566199 2.7059164681 5.4167779417 
Si 1.3180762217 1.3460957048 6.8210886307 
Si 2.7016087688 0.0167110936 8.1741863466 
Si 3.9947799886 9.4207621530 1.3850152241 
Si -0.0197402247 8.0311694359 2.6780488348 
Si 4.0082939808 6.6879575776 4.0444071014 
Si -0.0381031618 5.3324413214 -0.0235552728 
Si 1.3619767616 9.3877033758 4.1028919680 
Si 2.6754830903 8.0805725236 -0.0276009492 
Si 1.3544563502 6.7317158485 1.3509173232 
Si 2.7118024737 5.3617655313 2.7200442788 
Si 4.0182971791 9.4095191934 6.7662298545 
Si -0.0079301203 8.0260381955 8.2131804962 
Si 4.0016629564 6.7176468143 9.5265763703 
Si 0.0353854372 5.4097573539 5.4496648955 
Si 1.2856832457 9.4078990371 9.5374607289 
Si 2.7115512360 8.0118736719 5.4800917749 
Si 1.2855185186 6.6842645565 6.8027214593 
Si 2.6946286267 5.3678740958 8.1412382027 
Si 9.3260265363 3.9990589806 1.3835794025 
Si 5.3237929762 2.6355695726 2.7519002533 
Si 9.3046389875 1.3466769554 4.0425398719 
Si 5.3172534172 -0.0051639801 -0.0497126135 
Si 6.6286934871 4.0610682944 4.1232980082 
Si 8.0047002803 2.7220754033 0.0333167206 
Si 6.6701475355 1.3729881263 1.3952615342 
Si 7.9949682407 0.0210395422 2.7146961816 
Si 9.3735121212 4.0476344064 6.7773113013 
Si 5.3151128241 2.6984347820 8.2080342275 
Si 9.2914348959 1.2972651886 9.5420235630 
Si 5.3679154511 -0.0252633687 5.4868553743 
Si 6.6901135420 4.0591257386 9.5068050778 
Si 8.0190623738 2.6678533392 5.4436071003 
Si 6.6480718021 1.3551168002 6.8172648498 
Si 8.0148923406 -0.0472111560 8.1618854098 
Si 9.3249908180 9.4263324653 1.3402051696 
Si 5.3034144376 8.0525723199 2.7049154392 
Si 9.3799768667 6.7007551427 4.0432871979 
Si 5.3466711193 5.3218716987 -0.0141698143 
Si 6.6788178380 9.3979575226 4.1181611063 
Si 8.0444776269 8.0308950049 0.0413593274 
Si 6.6442675354 6.6923663026 1.4096682321 
Si 8.0457122883 5.3441410326 2.7421495201 
Si 9.2959823614 9.3523867161 6.8297707915 
Si 5.3583014299 8.0885339846 8.1263573882 
Si 9.3107234251 6.7438639096 9.5273177768 
Si 5.3263265305 5.4153463624 5.4475277106 
Si 6.6946917971 9.4371415844 9.5665547631 
Si 7.9884295898 8.0191967855 5.4560535336 
Si 6.6698975737 6.7001364984 6.7975135729 
Si 8.0106922281 5.3973274240 8.1221499055 

