&CONTROL
   calculation      = 'scf'
   tstress          = .true.
   tprnfor          = .true.
   outdir           = './'
   disk_io          = 'none'
   pseudo_dir       = './'
/
&SYSTEM
   ecutwfc          = 30
   input_dft        = 'PBE'
   ntyp             = 1
   nat              = 64
   ibrav            = 0
/
&ELECTRONS
   electron_maxstep = 1000
   mixing_beta      = 0.5
/
&IONS
/
&CELL
/

ATOMIC_SPECIES
Si 28.085 Si_ONCV_PBE-1.0.upf

K_POINTS gamma

CELL_PARAMETERS angstrom
11.09647648091920 0.00000000000000 0.00000000000000
0.00000000000000 10.85252033530564 0.00000000000000
0.00000000000000 0.00000000000000 10.76481037388541

ATOMIC_POSITIONS angstrom
Si 4.1296919346 4.0937842345 1.3448934217 
Si -0.0051366231 2.6612310768 2.7020738350 
Si 4.1267842468 1.3768544822 4.0621407238 
Si -0.0294500047 0.0296790773 -0.0165875347 
Si 1.4188117287 4.0422682610 4.0894731224 
Si 2.7524573670 2.6884377732 0.0230062427 
Si 1.3892642100 1.3925350872 1.3752721229 
Si 2.7219574343 -0.0125570244 2.7803203934 
Si 4.1035903291 4.0596285029 6.8527894116 
Si -0.0275314069 2.6922069546 8.1703506392 
Si 4.1657447030 1.3037539669 9.5685459806 
Si -0.0215581182 0.0098722370 5.4917883906 
Si 1.3651484529 4.0074574109 9.5542533957 
Si 2.7118007041 2.7345314546 5.4631442253 
Si 1.4060067283 1.3854510491 6.8613889858 
Si 2.7656132301 -0.0306348573 8.2167134677 
Si 4.1202341644 9.4560100522 1.3956026279 
Si 0.0181187639 8.1397933232 2.7140457878 
Si 4.1224200540 6.7989341140 4.0666529483 
Si 0.0138579991 5.4434990206 0.0119267694 
Si 1.4140076928 9.4346805147 4.0892905592 
Si 2.7539353700 8.0681856844 -0.0214602257 
Si 1.4107458127 6.7879865706 1.4112486463 
Si 2.8032196554 5.4047752084 2.7784329827 
Si 4.1138168785 9.4264286915 6.8767678217 
Si -0.0074785013 8.1520892576 8.2559288548 
Si 4.1051590959 6.7330003003 9.5319669278 
Si 0.0492819145 5.3792237440 5.4655165396 
Si 1.3544891913 9.4209988586 9.5369890433 
Si 2.7974843748 8.0762698461 5.4245627415 
Si 1.3926457352 6.7792043018 6.8834662187 
Si 2.7843829892 5.4423896409 8.2512628860 
Si 9.6747736488 4.0911935521 1.3416810987 
Si 5.4963185165 2.7471745276 2.7266912671 
Si 9.6589596789 1.3669394369 4.1023324740 
Si 5.5386630375 0.0162577367 0.0357782531 
Si 6.9140312089 4.0722091253 4.1413533536 
Si 8.2328402576 2.6810594163 0.0397667239 
Si 6.8560241831 1.3438422729 1.3516041304 
Si 8.2627809056 0.0208798854 2.6889049833 
Si 9.6142765109 4.0664584135 6.8321228609 
Si 5.5287532277 2.6621102275 8.2224913943 
Si 9.6375055480 1.3581843854 9.5675239929 
Si 5.5224295727 -0.0288174641 5.4926970146 
Si 6.8645455868 4.0984546397 9.6161648562 
Si 8.2939030421 2.7129341755 5.5207848550 
Si 6.8932303057 1.3786201928 6.8127405403 
Si 8.2550240019 0.0155233895 8.2525056420 
Si 9.7029119632 9.4168905076 1.3393285045 
Si 5.4700800103 8.1200191213 2.6871715581 
Si 9.6761359679 6.7656150506 4.0830778229 
Si 5.5008304705 5.4129363430 0.0182546752 
Si 6.9168220277 9.4624768050 4.1189221915 
Si 8.2927240624 8.1565060600 0.0355378617 
Si 6.9383103373 6.7497054271 1.3929427033 
Si 8.2872760857 5.4148898733 2.7141400464 
Si 9.6808065844 9.5075973963 6.8554428202 
Si 5.4792776135 8.1496152201 8.2372613884 
Si 9.6426137889 6.7912489091 9.5831502927 
Si 5.5546222546 5.3582846648 5.4937794911 
Si 6.8693297755 9.4254794225 9.5862884941 
Si 8.2996699619 8.1184519994 5.4342536352 
Si 6.8887465822 6.7438449908 6.8340226183 
Si 8.2865440842 5.3937845582 8.2182739316 

