&CONTROL
   calculation      = 'scf'
   tstress          = .true.
   tprnfor          = .true.
   outdir           = './'
   disk_io          = 'none'
   pseudo_dir       = './'
/
&SYSTEM
   ecutwfc          = 30
   input_dft        = 'PBE'
   ntyp             = 1
   nat              = 64
   ibrav            = 0
/
&ELECTRONS
   electron_maxstep = 1000
   mixing_beta      = 0.5
/
&IONS
/
&CELL
/

ATOMIC_SPECIES
Si 28.085 Si_ONCV_PBE-1.0.upf

K_POINTS gamma

CELL_PARAMETERS angstrom
11.11902856716615 0.00000000000000 0.00000000000000
0.00000000000000 11.04188419980041 0.00000000000000
0.00000000000000 0.00000000000000 11.15826280103013

ATOMIC_POSITIONS angstrom
Si 4.1739647415 4.0774442325 1.4370556224 
Si -0.0458155228 2.7845890010 2.8414997850 
Si 4.1350418905 1.3948054419 4.2396319739 
Si -0.0428217671 -0.0328038448 0.0381082539 
Si 1.3293609926 4.1600777743 4.1875214358 
Si 2.7668930389 2.7796217434 0.0467891708 
Si 1.4103843033 1.4175899302 1.3677458831 
Si 2.7163116207 -0.0369410108 2.8380041219 
Si 4.0940694018 4.1409413025 7.0126040843 
Si 0.0288588319 2.7127755926 8.4185738255 
Si 4.1501816136 1.3606324252 9.7722117094 
Si 0.0369508588 -0.0493506769 5.5635135993 
Si 1.4105087350 4.0799502384 9.7957287969 
Si 2.7076192793 2.7920687411 5.6245870697 
Si 1.3511462287 1.3887485146 7.0303087294 
Si 2.7882050583 0.0079534259 8.4129177375 
Si 4.1564908151 9.5797187259 1.4427533879 
Si -0.0068338109 8.2288816437 2.8449460954 
Si 4.0882787621 6.8882274187 4.2038278757 
Si 0.0235172620 5.5366564961 -0.0264120440 
Si 1.3423035417 9.6137761586 4.1638819713 
Si 2.7704092881 8.2399250824 0.0477096013 
Si 1.3574502662 6.9204394806 1.3821943640 
Si 2.7117777806 5.5044505992 2.8358527582 
Si 4.1413964239 9.6469609249 6.9349420995 
Si 0.0012912842 8.2180287824 8.3393409781 
Si 4.1220921950 6.8338993299 9.8031541693 
Si 0.0421365454 5.5129389709 5.5894848623 
Si 1.3834504538 9.6312540583 9.7900611098 
Si 2.7533713301 8.2862252204 5.5505997038 
Si 1.3404985264 6.8502455286 6.9759241826 
Si 2.7125421196 5.4816592433 8.4267296302 
Si 9.6182871639 4.1735476648 1.3680959124 
Si 5.4997284062 2.7442851698 2.7550268134 
Si 9.6170748504 1.3861441476 4.2024862477 
Si 5.4724250022 -0.0075908325 -0.0311497748 
Si 6.8978697734 4.0813954133 4.1540257949 
Si 8.2815504398 2.7803159214 0.0319226765 
Si 6.8759884710 1.4052887895 1.3866287283 
Si 8.3006626109 0.0334895385 2.7697403570 
Si 9.6704301461 4.1419142470 7.0021901755 
Si 5.4976850850 2.7737429931 8.3433131991 
Si 9.6064663883 1.4023608492 9.7540084224 
Si 5.5351184211 0.0249715566 5.5575246174 
Si 6.8594484523 4.0863963743 9.7874937163 
Si 8.2919683842 2.7967586921 5.6239666079 
Si 6.8629594391 1.4170795447 6.9645519705 
Si 8.2398211098 0.0245300957 8.3391176940 
Si 9.6348961877 9.6580063628 1.3524315609 
Si 5.5138330335 8.2074476604 2.7435436375 
Si 9.5977527830 6.8364313969 4.2044267399 
Si 5.5552254345 5.5468509226 -0.0393631226 
Si 6.8878291968 9.5897721004 4.2131722921 
Si 8.3129867853 8.2802914691 0.0040384375 
Si 6.9195910209 6.8343307674 1.4456578348 
Si 8.2525797365 5.4742554311 2.8429757489 
Si 9.6586768160 9.6193635326 6.9730058475 
Si 5.5491144373 8.2604007857 8.3695041603 
Si 9.6052448962 6.8709261356 9.7891428204 
Si 5.5167739576 5.4675870891 5.6066613111 
Si 6.9239388038 9.6391487298 9.7862423858 
Si 8.2771598029 8.2656272598 5.5404812273 
Si 6.9386909805 6.8888708968 7.0045031513 
Si 8.2439397828 5.4614768502 8.3606735168 

