&CONTROL
   calculation      = 'scf'
   tstress          = '.true.'
   tprnfor          = '.true.'
   outdir           = './'
   disk_io          = 'none'
   pseudo_dir       = './'
/
&SYSTEM
   ecutwfc          = 30
   input_dft        = 'PBE'
   ntyp             = 1
   nat              = 64
   ibrav            = 0
/
&ELECTRONS
   electron_maxstep = 1000
   mixing_beta      = 0.5
/
&IONS
/
&CELL
/

ATOMIC_SPECIES
Si 28.085 Si_ONCV_PBE-1.0.upf

K_POINTS gamma

CELL_PARAMETERS angstrom
11.03451233793916 0.00000000000000 0.00000000000000
0.00000000000000 10.85831216372887 0.00000000000000
0.00000000000000 0.00000000000000 11.11022251478927

ATOMIC_POSITIONS angstrom
Si 4.2183261827 4.0910491065 1.3814185077 
Si -0.0302042193 2.7488944055 2.7597313814 
Si 4.2293355356 1.3837702771 4.2335656994 
Si 0.0351011147 -0.0389130979 0.0405956444 
Si 1.4272438998 4.0967686639 4.2227972715 
Si 2.8381499208 2.7177196831 -0.0261721936 
Si 1.4445863249 1.3746810956 1.3712629571 
Si 2.8435270935 -0.0032980261 2.7828841031 
Si 4.2418243327 4.0743230089 6.9887328552 
Si 0.0227759180 2.6823764584 8.3974809547 
Si 4.2003246101 1.3157670318 9.7906840436 
Si -0.0187413215 0.0352018480 5.5495891080 
Si 1.4407839476 4.0377823120 9.7369046697 
Si 2.7883526632 2.6891549678 5.5426323521 
Si 1.4380233480 1.3133329050 7.0372087743 
Si 2.8319892700 0.0290892587 8.3621865888 
Si 4.2275478814 9.4861840143 1.4354847134 
Si -0.0065898373 8.0754252686 2.7612401037 
Si 4.1896341350 6.8118588506 4.1833416856 
Si -0.0432258065 5.4497207168 -0.0182942888 
Si 1.4461487575 9.4573707357 4.2219843638 
Si 2.7882413899 8.1264145874 0.0393214427 
Si 1.4325061445 6.7346391991 1.3779588052 
Si 2.8420246574 5.4339345394 2.7543700511 
Si 4.1881970092 9.4446420999 6.9433321402 
Si 0.0253563764 8.1078673521 8.3813716803 
Si 4.2028973217 6.7873371271 9.7551045249 
Si -0.0355251897 5.3702045523 5.5973459743 
Si 1.4316617466 9.4240291326 9.8051660109 
Si 2.8138332961 8.1115757731 5.6044237318 
Si 1.4493942104 6.7528422962 6.9434057002 
Si 2.8035791102 5.3693815160 8.3808331693 
Si 9.8319779823 4.0337517024 1.4287408772 
Si 5.6107240909 2.7470707684 2.7810366126 
Si 9.8315306796 1.3194454027 4.1641270129 
Si 5.6020980519 -0.0166060403 -0.0427281249 
Si 7.0675526401 4.0220529942 4.1955250299 
Si 8.3848559054 2.7547683106 0.0023314238 
Si 7.0187790763 1.3203239901 1.3702615251 
Si 8.4006801958 -0.0121467354 2.7918176932 
Si 9.8469067585 4.0570687745 6.9509058697 
Si 5.6583516438 2.7317361926 8.3790026839 
Si 9.8302972547 1.3533131783 9.7546689855 
Si 5.5921335449 -0.0126244621 5.5769538101 
Si 6.9994623881 4.0930676303 9.8058671761 
Si 8.4174936108 2.6881882643 5.5949223000 
Si 7.0356748828 1.3827709923 6.9553153376 
Si 8.4190444811 0.0292444747 8.3482402244 
Si 9.8331262125 9.4539536713 1.3945876847 
Si 5.5950978593 8.1215974944 2.8051190787 
Si 9.7936545251 6.7431454516 4.2220084267 
Si 5.6620002558 5.4124554132 -0.0466787587 
Si 7.0402348869 9.4229295216 4.2218370297 
Si 8.3957882569 8.1653450800 -0.0482759727 
Si 7.0558898125 6.7520643995 1.4326228136 
Si 8.4572297515 5.4415278024 2.8172493847 
Si 9.8142250318 9.4480646759 6.9397238709 
Si 5.6726178131 8.0836410014 8.3564341146 
Si 9.8169297483 6.7533902493 9.7429827428 
Si 5.6108245751 5.4006750579 5.5754369546 
Si 6.9897173657 9.4364510093 9.7872545861 
Si 8.4392712069 8.0983032376 5.5586214936 
Si 7.0445221032 6.7733663571 6.9787842609 
Si 8.4207075693 5.4318816489 8.4321549531 

