&CONTROL
   calculation      = 'scf'
   tstress          = .true.
   tprnfor          = .true.
   outdir           = './'
   disk_io          = 'none'
   pseudo_dir       = './'
/
&SYSTEM
   ecutwfc          = 30
   input_dft        = 'PBE'
   ntyp             = 1
   nat              = 64
   ibrav            = 0
/
&ELECTRONS
   electron_maxstep = 1000
   mixing_beta      = 0.5
/
&IONS
/
&CELL
/

ATOMIC_SPECIES
Si 28.085 Si_ONCV_PBE-1.0.upf

K_POINTS gamma

CELL_PARAMETERS angstrom
10.73593064655369 0.00000000000000 0.00000000000000
0.00000000000000 10.75480118486008 0.00000000000000
0.00000000000000 0.00000000000000 11.14199276636189

ATOMIC_POSITIONS angstrom
Si 3.9714804948 4.0628265415 1.3504432625 
Si -0.0121578860 2.7095387159 2.7319400809 
Si 4.0147231496 1.3707506434 4.1179680756 
Si -0.0325599540 0.0391900481 0.0107373370 
Si 1.3667157471 4.0919715667 4.1332580969 
Si 2.6366543147 2.7137364400 0.0237185136 
Si 1.3309549530 1.3707963637 1.4360007038 
Si 2.6945917024 -0.0421557129 2.7847874762 
Si 4.0296617144 4.0909359530 6.9105081801 
Si 0.0424643810 2.6753045918 8.3508822963 
Si 4.0210025878 1.3526455876 9.6837471211 
Si -0.0199743423 0.0226620128 5.5328124034 
Si 1.3119674538 4.0554145528 9.6697574385 
Si 2.6534580814 2.6947958683 5.4943328966 
Si 1.3352825021 1.3908794772 6.9611980731 
Si 2.6215693361 0.0487626622 8.3352426895 
Si 4.0349246691 9.4535292012 1.3708827923 
Si -0.0270101724 8.0943932727 2.7892223982 
Si 4.0500300350 6.7975450155 4.1279934226 
Si -0.0481761651 5.3849444879 0.0386641375 
Si 1.3055278027 9.5092935788 4.1435959674 
Si 2.6347748981 8.1731265618 -0.0046063142 
Si 1.3093452845 6.7362539555 1.3880218769 
Si 2.6627668116 5.4081822412 2.7515358506 
Si 4.0031407044 9.4421116008 6.8985143027 
Si 0.0237113113 8.0899764860 8.2690055503 
Si 3.9899633629 6.7304976674 9.7119333123 
Si -0.0114841588 5.4217349262 5.4978889416 
Si 1.3383563038 9.5007089681 9.7374063064 
Si 2.7066436725 8.1504717796 5.5021176341 
Si 1.3702850378 6.7984110854 6.9347869719 
Si 2.6287327864 5.4528038009 8.2657904122 
Si 9.3824584771 4.0144251607 1.3582954064 
Si 5.3104777898 2.7350393773 2.8100341112 
Si 9.3819187851 1.3373819977 4.1954547732 
Si 5.3316148225 0.0059195049 0.0419705375 
Si 6.6595806011 4.0526956484 4.1870218080 
Si 7.9839294542 2.7429703449 0.0495406418 
Si 6.6880069814 1.3564347497 1.3726330546 
Si 7.9992387170 0.0391489067 2.7401283180 
Si 9.3249092477 4.0401385674 6.9602402755 
Si 5.3454267821 2.6813267864 8.2758154718 
Si 9.3707083040 1.3251109416 9.7200813418 
Si 5.3362438176 0.0106002256 5.5478644304 
Si 6.6686081549 4.0303282441 9.7134076982 
Si 8.0214669279 2.6784180042 5.5863040741 
Si 6.6880860402 1.3700828657 6.9484011283 
Si 7.9942515701 -0.0468800589 8.2820041412 
Si 9.3202419453 9.4721386727 1.3469635796 
Si 5.3122840431 8.1633060439 2.7780562851 
Si 9.3562531428 6.7584794606 4.1684591901 
Si 5.3225540841 5.4359439434 0.0156775141 
Si 6.7137835800 9.4511489243 4.1509966164 
Si 7.9894328932 8.1290741603 0.0138995903 
Si 6.6470305021 6.7676954347 1.3984026430 
Si 8.0047742739 5.4097816568 2.7726950133 
Si 9.3870455279 9.5094196780 6.9371472207 
Si 5.3603573387 8.1452941756 8.3384351144 
Si 9.3503366792 6.7850171793 9.6602979244 
Si 5.3217811973 5.3803970967 5.5276763684 
Si 6.6453539668 9.4382050538 9.6711514955 
Si 8.0546959309 8.1568363134 5.5025536889 
Si 6.6537763673 6.7293063576 6.9198183057 
Si 8.0455472652 5.3843568580 8.2945767769 

