&CONTROL
   calculation      = 'scf'
   tstress          = .true.
   tprnfor          = .true.
   outdir           = './'
   disk_io          = 'none'
   pseudo_dir       = './'
/
&SYSTEM
   ecutwfc          = 30
   input_dft        = 'PBE'
   ntyp             = 1
   nat              = 64
   ibrav            = 0
/
&ELECTRONS
   electron_maxstep = 1000
   mixing_beta      = 0.5
/
&IONS
/
&CELL
/

ATOMIC_SPECIES
Si 28.085 Si_ONCV_PBE-1.0.upf

K_POINTS gamma

CELL_PARAMETERS angstrom
10.98229402981143 0.00000000000000 0.00000000000000
0.00000000000000 11.04311456336658 0.00000000000000
0.00000000000000 0.00000000000000 11.00426270193741

ATOMIC_POSITIONS angstrom
Si 4.1958126797 4.0412221626 1.3582787587 
Si -0.0038735654 2.7589877940 2.7920607629 
Si 4.1079870898 1.3843688979 4.1720169403 
Si 0.0354489604 -0.0417275736 0.0380472461 
Si 1.3704881842 4.0477119366 4.1758648403 
Si 2.7950039850 2.7672730722 0.0004013967 
Si 1.3742626057 1.3167533913 1.4001197168 
Si 2.7384584458 -0.0401637489 2.7480836340 
Si 4.1905201862 4.1313735867 6.8903800454 
Si 0.0131780591 2.6775479119 8.2937255829 
Si 4.1777768456 1.3195794864 9.7144242500 
Si -0.0398657372 0.0052339794 5.5865649446 
Si 1.4054788471 4.0474163309 9.6673882564 
Si 2.8060308260 2.7450467199 5.5516927225 
Si 1.4174274579 1.4040487091 6.9024805546 
Si 2.7518508785 0.0267930599 8.3328432128 
Si 4.1934472268 9.4998440777 1.3822404724 
Si -0.0413051601 8.1245511442 2.7390385251 
Si 4.1423388488 6.7922887736 4.1244530393 
Si -0.0312413492 5.4378887846 -0.0437050873 
Si 1.4194389733 9.5358955483 4.1739012097 
Si 2.7341136021 8.1791906966 -0.0075682482 
Si 1.3702655515 6.8257680293 1.3796749475 
Si 2.8196810613 5.4219001747 2.7697995648 
Si 4.1447236156 9.5426877378 6.8872950066 
Si -0.0154128014 8.1280158822 8.3341408043 
Si 4.1713885624 6.8509287540 9.7393526828 
Si -0.0265065586 5.4370828960 5.5099431294 
Si 1.3377682872 9.5141557862 9.6865985019 
Si 2.7463757162 8.1497532439 5.5832463153 
Si 1.3690053280 6.8021772694 6.9223330891 
Si 2.7965900713 5.4404875911 8.2714349107 
Si 9.6562171881 4.0738670280 1.3598186595 
Si 5.5702318124 2.6796683314 2.8037021040 
Si 9.7260358386 1.4077429291 4.1637614539 
Si 5.5813782985 0.0053687971 0.0169360893 
Si 6.9126977861 4.0696387509 4.1080584631 
Si 8.2917907239 2.6806255042 -0.0142839581 
Si 6.9090654200 1.3266580961 1.4018372376 
Si 8.2893757038 -0.0212141762 2.7700462709 
Si 9.6767721043 4.1232372096 6.9610258137 
Si 5.5068492148 2.6886942755 8.2710770891 
Si 9.6919293587 1.3631021665 9.7469498956 
Si 5.5580668484 -0.0385086824 5.5041828730 
Si 6.8762367870 4.1065579214 9.6616892744 
Si 8.3490470843 2.7041740779 5.5738261571 
Si 6.9081500089 1.3441146841 6.9200392331 
Si 8.3184569551 -0.0399538138 8.2935355678 
Si 9.7129646106 9.5462615813 1.4307145600 
Si 5.5013882610 8.1514240111 2.7238666473 
Si 9.6608185555 6.8466475468 4.1285331930 
Si 5.5304548204 5.4602765912 -0.0256943286 
Si 6.9434919835 9.5234010149 4.1363074011 
Si 8.3519423261 8.1661751143 -0.0352494805 
Si 6.9218543708 6.8401996579 1.3711743644 
Si 8.2667075502 5.4768608176 2.7503921968 
Si 9.6526624284 9.5259172701 6.9469847825 
Si 5.5284156407 8.1896402052 8.3053862054 
Si 9.7190373684 6.8253590644 9.6786161384 
Si 5.5237399201 5.4483321354 5.5284588175 
Si 6.8809604474 9.5627037188 9.6744915304 
Si 8.2824559950 8.1965833811 5.4950212377 
Si 6.8929765168 6.8224521841 6.8784439532 
Si 8.3201621666 5.4861237458 8.3466254936 

