&CONTROL
   calculation      = 'scf'
   tstress          = .true.
   tprnfor          = .true.
   outdir           = './'
   disk_io          = 'none'
   pseudo_dir       = './'
/
&SYSTEM
   ecutwfc          = 30
   input_dft        = 'PBE'
   ntyp             = 1
   nat              = 64
   ibrav            = 0
/
&ELECTRONS
   electron_maxstep = 1000
   mixing_beta      = 0.5
/
&IONS
/
&CELL
/

ATOMIC_SPECIES
Si 28.085 Si_ONCV_PBE-1.0.upf

K_POINTS gamma

CELL_PARAMETERS angstrom
11.02024294283288 0.00000000000000 0.00000000000000
0.00000000000000 10.74581779549885 0.00000000000000
0.00000000000000 0.00000000000000 11.16079925095385

ATOMIC_POSITIONS angstrom
Si 4.1898783541 3.9948894746 1.3894982029 
Si 0.0364926284 2.6606928222 2.7144460912 
Si 4.1663208819 1.3523522105 4.0642004041 
Si -0.0382460641 -0.0016052622 0.0239049186 
Si 1.3611128474 4.0429571673 4.1261757675 
Si 2.8127161923 2.6533831730 0.0310249959 
Si 1.3392671957 1.3162548774 1.3732182219 
Si 2.7559449259 0.0048226028 2.7523833636 
Si 4.1065302085 3.9890416730 6.8128230999 
Si -0.0100972125 2.6318913651 8.2065385507 
Si 4.1773693896 1.3476931969 9.5966706354 
Si -0.0462032610 0.0148130067 5.4663681976 
Si 1.4287466963 3.9698536762 9.5602143678 
Si 2.7249998709 2.6987928577 5.5237598853 
Si 1.3934349716 1.3330299739 6.8725034269 
Si 2.7713457584 0.0241606646 8.2666738044 
Si 4.1436773105 9.3686426560 1.3892772624 
Si 0.0211901098 7.9987798839 2.7437076496 
Si 4.1130106671 6.7204145583 4.0854418947 
Si -0.0210161508 5.3699631273 -0.0378269958 
Si 1.3470508238 9.3914982636 4.0691646437 
Si 2.7800934839 8.0417407251 -0.0441255062 
Si 1.3815081725 6.7011825514 1.3585802578 
Si 2.7139567376 5.3174126862 2.7554609253 
Si 4.1256417876 9.3569451110 6.8144757556 
Si -0.0063669518 8.0513152701 8.2355913140 
Si 4.0931114022 6.7187837581 9.6480354758 
Si 0.0381416801 5.3253954917 5.5100285120 
Si 1.3726801054 9.3705888132 9.5706631278 
Si 2.7369212074 8.0279303411 5.4353724295 
Si 1.3906628528 6.6526174202 6.8755732799 
Si 2.7880393516 5.3578221732 8.2592383491 
Si 9.6690079502 3.9778811008 1.3317379363 
Si 5.5188718471 2.6517986482 2.7753934948 
Si 9.6415479787 1.3698691576 4.1174994268 
Si 5.4809963432 0.0262273443 0.0327627448 
Si 6.9101798979 4.0331391297 4.1296157045 
Si 8.3202505598 2.6547795736 -0.0143289449 
Si 6.8878370656 1.3862972971 1.3578500282 
Si 8.3297166698 -0.0269209244 2.7075729175 
Si 9.6784316773 4.0553958366 6.8772922159 
Si 5.5173712546 2.6966788610 8.2754023830 
Si 9.7101457735 1.3785247614 9.5547000763 
Si 5.5454575070 -0.0200012298 5.4917854208 
Si 6.9082183109 4.0360643642 9.5713569911 
Si 8.3290216949 2.6615006169 5.4575468054 
Si 6.8900515880 1.3702475583 6.8183558450 
Si 8.2850899365 -0.0047406651 8.2526046830 
Si 9.7048727708 9.4105933070 1.3375401865 
Si 5.5145485314 8.0031451111 2.7834374657 
Si 9.6248488674 6.6482198998 4.1191365629 
Si 5.5424809470 5.3554638970 0.0110879942 
Si 6.9532405131 9.3874160343 4.1572228804 
Si 8.3265140790 8.0464372687 -0.0380782917 
Si 6.9355153622 6.6856128731 1.3931123050 
Si 8.3357538884 5.3571843077 2.7106529929 
Si 9.6821630357 9.4044702690 6.8374796526 
Si 5.4843744133 8.0451410776 8.2048178266 
Si 9.6240769791 6.7210911729 9.6350262868 
Si 5.5234421608 5.3381190193 5.4386489999 
Si 6.8922662886 9.4145845140 9.5797262599 
Si 8.3017079178 8.0359356215 5.4914829851 
Si 6.8565689667 6.7318726174 6.8635172880 
Si 8.2645035398 5.3443208356 8.1922095738 

