&CONTROL
   calculation      = 'scf'
   tstress          = '.true.'
   tprnfor          = '.true.'
   outdir           = './'
   disk_io          = 'none'
   pseudo_dir       = './'
/
&SYSTEM
   ecutwfc          = 30
   input_dft        = 'PBE'
   ntyp             = 1
   nat              = 64
   ibrav            = 0
/
&ELECTRONS
   electron_maxstep = 1000
   mixing_beta      = 0.5
/
&IONS
/
&CELL
/

ATOMIC_SPECIES
Si 28.085 Si_ONCV_PBE-1.0.upf

K_POINTS gamma

CELL_PARAMETERS angstrom
11.14280323614997 0.00000000000000 0.00000000000000
0.00000000000000 10.94318611706399 0.00000000000000
0.00000000000000 0.00000000000000 10.85604244777324

ATOMIC_POSITIONS angstrom
Si 4.0609421378 4.1255845806 1.3527696195 
Si 0.0240925792 2.8178854940 2.6443929174 
Si 4.1409800883 1.3954677426 3.9844873507 
Si 0.0152990427 -0.0039744860 0.0134784299 
Si 1.3511576938 4.1316605167 4.0619161363 
Si 2.7219781726 2.7717850370 -0.0353101417 
Si 1.3407665805 1.3987127151 1.3007094972 
Si 2.7494257467 -0.0330757573 2.7103290590 
Si 4.1534688817 4.2050291076 6.6508675606 
Si -0.0428561327 2.7789280928 8.0629294958 
Si 4.0696676344 1.3833748338 9.3640772709 
Si -0.0485344172 0.0095644175 5.3283025293 
Si 1.3608474884 4.1069178373 9.3403915826 
Si 2.7186193621 2.7985695459 5.3351006665 
Si 1.3967772546 1.3729610045 6.6812005333 
Si 2.7835629988 0.0387294648 8.0312770962 
Si 4.0732586696 9.6785843764 1.3598445216 
Si -0.0442849409 8.2845338211 2.7009970336 
Si 4.1426069077 6.9359470340 4.0250194976 
Si 0.0210296285 5.5379352055 -0.0313977830 
Si 1.4113586724 9.6600134913 3.9930697291 
Si 2.7859110708 8.3542178038 0.0434006964 
Si 1.3477207626 6.9186467178 1.3010020090 
Si 2.7356218382 5.5499293229 2.7190712835 
Si 4.0802733611 9.7082502308 6.6625026092 
Si -0.0497537371 8.2661115483 8.0009516682 
Si 4.0664348576 6.8803919783 9.3823003023 
Si -0.0152891038 5.5684872919 5.3724047505 
Si 1.4104928463 9.6816802177 9.3839388615 
Si 2.7194116647 8.2787165822 5.3626606590 
Si 1.3718712389 6.9473650547 6.6695170111 
Si 2.7283347039 5.5602078461 8.0600894117 
Si 9.5424949695 4.2004102935 1.3093281528 
Si 5.4846845856 2.7805162726 2.7070282883 
Si 9.5580367737 1.3393404279 4.0468968987 
Si 5.4511431749 0.0138290385 0.0166626059 
Si 6.8816035314 4.1557401592 4.0334529646 
Si 8.1971407767 2.7786306756 0.0256781552 
Si 6.8031930305 1.3895744165 1.3168218036 
Si 8.2444296423 0.0466881729 2.6615725186 
Si 9.5407574158 4.1998413050 6.6568900566 
Si 5.5127315881 2.7941968622 8.0353452019 
Si 9.5494661221 1.3566185127 9.3404529818 
Si 5.4382173885 0.0479018939 5.3556705071 
Si 6.8623286270 4.1159356852 9.3426478074 
Si 8.2471695503 2.8167106461 5.3115026323 
Si 6.8783717103 1.4267551200 6.7260523123 
Si 8.1709304592 -0.0151122474 8.0553551705 
Si 9.5379718116 9.7161133606 1.3558621344 
Si 5.5247084831 8.2616184008 2.6976906807 
Si 9.6150353562 6.9002805159 3.9788351654 
Si 5.5031121115 5.5523563787 -0.0063337003 
Si 6.8572782070 9.6654236478 4.0585410761 
Si 8.2529334563 8.2906455229 -0.0133344951 
Si 6.8374137610 6.9154466276 1.3031487973 
Si 8.1874559360 5.5173658864 2.6743364926 
Si 9.5739064343 9.6921660825 6.6890139871 
Si 5.5071181584 8.2703422354 8.0707644666 
Si 9.5702931085 6.8810209448 9.3881203007 
Si 5.5187261192 5.5616005042 5.3862379426 
Si 6.8812664903 9.6507603837 9.4091359621 
Si 8.2616651840 8.3326835718 5.3883005072 
Si 6.8845722441 6.9675021020 6.7107653327 
Si 8.2487509850 5.5263762065 8.0340517980 

