&CONTROL
   calculation      = 'scf'
   tstress          = .true.
   tprnfor          = .true.
   outdir           = './'
   disk_io          = 'none'
   pseudo_dir       = '/home/ppiaggi/pseudos'
/
&SYSTEM
   ecutwfc          = 30
   input_dft        = 'PBE'
   ntyp             = 1
   nat              = 64
   ibrav            = 0
/
&ELECTRONS
   electron_maxstep = 1000
   mixing_beta      = 0.5
/
&IONS
/
&CELL
/

ATOMIC_SPECIES
Si 28.085 Si_ONCV_PBE_sr.upf

K_POINTS gamma

CELL_PARAMETERS angstrom
11.00558537565190 0.00000000000000 0.00000000000000
0.00000000000000 11.03208034924473 0.00000000000000
0.00000000000000 0.00000000000000 10.47926216397864

ATOMIC_POSITIONS angstrom
Si 0.1192788770 -0.0936216353 0.1756677712 
Si 0.0038576825 2.5154123901 2.7330867149 
Si 2.9517929021 -0.0260946733 2.5394783343 
Si 2.6459987024 2.6114116374 -0.0530167411 
Si 1.3362896176 1.4073837727 1.1529957796 
Si 5.4018696278 -0.1286835581 -0.0750413787 
Si 5.3979725811 2.7529165473 2.7063625559 
Si 7.1398242328 1.2643541392 1.1299783324 
Si 8.4024548211 -0.1722247562 2.6282529966 
Si 8.3326536029 2.8867257906 0.1219351909 
Si 0.0048604276 5.5540739909 0.0703021852 
Si 2.9531861156 5.2539935151 2.6903438168 
Si 1.5112235433 6.8481968204 1.1156615051 
Si 4.2128769821 4.1835132401 1.1459723485 
Si 5.5942572235 5.4852745668 -0.0493823993 
Si 7.0554333329 6.7681732683 1.3835818409 
Si 9.7072453913 4.1177325003 1.2446131985 
Si 8.1548262835 5.2468052650 2.6459980078 
Si 0.1192147555 8.0917524516 2.4733146048 
Si 2.7628297602 8.0948073545 -0.1068129790 
Si 4.2989134851 9.4525106979 1.4090205561 
Si 5.5102979262 8.0344402260 2.5995174867 
Si 8.2566940978 8.2586214633 -0.0724605918 
Si 9.6264687413 9.4988479190 1.3784325380 
Si -0.1737452147 -0.1903295579 5.2679651077 
Si 2.8718696413 2.6038877890 5.0653604188 
Si 1.5329058102 1.4089430099 6.6584257933 
Si 4.0588879430 1.1839052422 3.7558175895 
Si 5.6319240398 -0.0112765098 5.0621206816 
Si 6.8068431552 1.2902865962 6.3222925735 
Si 9.7729140960 1.2274696882 3.9199543842 
Si 8.5296909745 2.5408724690 5.3384123304 
Si 1.3205492680 4.0012822266 3.8122792133 
Si -0.1157028783 5.5417237476 5.2810879446 
Si 1.4979346967 6.9561661777 6.5917492185 
Si 6.9099757444 3.8882073049 4.0887483127 
Si 4.3231591010 6.7922496186 3.7237385789 
Si 3.9823350075 4.2186885334 6.4832926954 
Si 5.6655515941 5.6074069170 5.0449921655 
Si 7.0296099469 6.6244493520 6.6860854874 
Si 9.5631503827 6.7938201411 3.9945309242 
Si 9.6271838348 4.2344590232 6.6268421876 
Si 1.3004315981 9.4207674730 3.8109568059 
Si 2.7861942835 8.0369648541 5.3652215398 
Si 6.7626036148 9.5078681303 3.9147510867 
Si 4.2263585977 9.5290382514 6.5600533427 
Si 8.3718662845 7.9309156336 5.2200549994 
Si 9.6556844449 9.6492697593 6.3759684273 
Si -0.0018075624 2.5903104568 7.7565517165 
Si 2.8508742251 0.0345934943 7.9567043535 
Si 4.1887980437 1.3036245752 9.2488140028 
Si 5.5879226534 2.5311587102 7.9036686958 
Si 8.3559328135 -0.1280086393 7.6853593467 
Si 9.8101146597 1.5005073973 9.1763636774 
Si 1.2305111027 3.9727857801 9.0701445306 
Si 2.9329122408 5.5013471028 7.6492408072 
Si 7.1489860935 4.0668293985 8.9450044608 
Si 4.1903804081 6.8510813843 9.2417786568 
Si 8.1547887411 5.2377246601 7.7241497032 
Si 9.6259764864 6.7455461484 9.0385868064 
Si 0.0749436011 8.1207105296 7.7518603184 
Si 1.3902305316 9.5824398316 9.0336700102 
Si 5.6735010747 8.0037957151 7.8190158329 
Si 6.9748636121 9.5680051973 9.1640000579 

