&CONTROL
   calculation      = 'scf'
   tstress          = .true.
   tprnfor          = .true.
   outdir           = './'
   disk_io          = 'none'
   pseudo_dir       = '/home/ppiaggi/pseudos'
/
&SYSTEM
   ecutwfc          = 30
   input_dft        = 'PBE'
   ntyp             = 1
   nat              = 64
   ibrav            = 0
/
&ELECTRONS
   electron_maxstep = 1000
   mixing_beta      = 0.5
/
&IONS
/
&CELL
/

ATOMIC_SPECIES
Si 28.085 Si_ONCV_PBE_sr.upf

K_POINTS gamma

CELL_PARAMETERS angstrom
11.11358471064609 0.00000000000000 0.00000000000000
0.00000000000000 11.30177456549584 0.00000000000000
0.00000000000000 0.00000000000000 11.06396294268546

ATOMIC_POSITIONS angstrom
Si 0.1340718055 0.1055619667 -0.1556004786 
Si 0.0010590409 2.8959220524 3.0454887000 
Si 2.9859622857 0.1848397555 2.7520053702 
Si 2.9414903397 2.7217514590 -0.0992154209 
Si 1.2957993793 1.3762463751 1.4215307252 
Si 5.8718773332 0.1950879288 0.1713441162 
Si 5.6758138796 2.9099056770 2.8601323388 
Si 7.1044005262 1.2083648715 1.3875185268 
Si 8.5375834535 0.1754707202 3.0370882844 
Si 8.8127351824 2.7503748900 -0.1802243856 
Si -0.1724898791 5.5504724188 0.1178256674 
Si 2.9438966992 5.4868183908 3.0649979229 
Si 1.5266094219 6.9930162758 1.2770280691 
Si 4.3384564272 4.0337947543 1.3811346052 
Si 5.7857520982 5.5894083273 0.0578282993 
Si 7.1567826073 7.1953164918 1.4073674156 
Si 10.4136266508 4.1636839978 1.5841705181 
Si 8.8139528994 5.3966683891 3.0023740712 
Si -0.1380276658 8.3417189081 2.9627660936 
Si 2.9823682431 8.1947573588 -0.1090787869 
Si 4.3086292347 9.9039301535 1.5832916095 
Si 5.7884529715 8.3379386998 2.8400615195 
Si 8.6639323946 8.3275716350 0.1862421655 
Si 10.1762685784 9.7232405190 1.4993441652 
Si -0.0705906593 -0.1000086935 5.7898707121 
Si 2.8013733280 2.9210721728 5.9677587380 
Si 1.6430522040 1.4258561692 7.1352497731 
Si 4.5089430039 1.2315333313 4.4705206599 
Si 5.8725935357 0.0324095306 5.8713351221 
Si 7.4546171424 1.3005785480 7.2174934395 
Si 10.0139068149 1.4241585467 4.2916392034 
Si 8.8671686419 2.7205042274 5.7645189184 
Si 1.4445321763 4.2511862607 4.2789159963 
Si 0.2097368479 5.4621129572 5.9589675680 
Si 1.5596762868 6.8622354157 7.1458798875 
Si 7.4958046329 4.1877571616 4.4086311453 
Si 4.5201449012 6.8635121977 4.2076878346 
Si 4.1708768728 4.0174633549 7.3844240936 
Si 5.9081592971 5.7694981968 5.7595385742 
Si 7.3397387750 6.8037751708 7.2377994483 
Si 10.0101304202 6.8727473790 4.3533406669 
Si 10.3629974691 4.0291568650 7.4071126569 
Si 1.3850427942 9.9342237906 4.2029163215 
Si 3.0432760573 8.4224098972 5.6332142254 
Si 7.2408545124 9.6208310691 4.1534165212 
Si 4.4016136199 9.8297383076 7.4272016224 
Si 8.7909770285 8.3604191381 5.7404794434 
Si 10.0147398477 9.9398085789 7.3003264907 
Si 0.0927640107 2.9463394783 8.6927508555 
Si 3.0073281579 -0.0639078801 8.5557859956 
Si 4.3711390776 1.2818566568 10.2993973782 
Si 5.7605918592 2.8729991461 8.5206546856 
Si 8.9339773404 0.1119944296 8.6029306056 
Si 10.2838954791 1.2567956901 10.2853639575 
Si 1.4121040700 4.1260497319 10.0792248869 
Si 2.7483248951 5.6432533865 8.7176624955 
Si 7.4304351872 3.9941723888 10.2816417072 
Si 4.5044736498 7.1600030658 9.9726793127 
Si 8.8112199822 5.7111345115 8.5282331702 
Si 10.3339338009 7.1140064608 10.1719642976 
Si 0.1090995548 8.5729822804 8.7203411856 
Si 1.3217753472 9.9354276415 10.1204701559 
Si 5.7484272676 8.2835375581 8.7757645824 
Si 7.2863548730 9.6959413526 10.2950077599 

