&CONTROL
   calculation      = 'scf'
   tstress          = .true.
   tprnfor          = .true.
   outdir           = './'
   disk_io          = 'none'
   pseudo_dir       = '/home/ppiaggi/pseudos'
/
&SYSTEM
   ecutwfc          = 30
   input_dft        = 'PBE'
   ntyp             = 1
   nat              = 64
   ibrav            = 0
/
&ELECTRONS
   electron_maxstep = 1000
   mixing_beta      = 0.5
/
&IONS
/
&CELL
/

ATOMIC_SPECIES
Si 28.085 Si_ONCV_PBE_sr.upf

K_POINTS gamma

CELL_PARAMETERS angstrom
11.19254729518561 0.00000000000000 0.00000000000000
0.00000000000000 10.62921455431546 0.00000000000000
0.00000000000000 0.00000000000000 11.04000202500391

ATOMIC_POSITIONS angstrom
Si -0.0897785027 0.0381927718 -0.0272366292 
Si -0.0914235090 2.7116963378 3.0091726167 
Si 2.9671550357 -0.0564572723 2.6763717145 
Si 2.8290879819 2.7641809810 -0.0288663407 
Si 1.3698211538 1.4917825044 1.2895250143 
Si 5.7777786155 -0.1296664372 -0.0358652411 
Si 5.5650955880 2.4569632098 2.8991520892 
Si 7.0639825101 1.3980578986 1.5010603243 
Si 8.4934662163 0.0407474783 2.9557664546 
Si 8.3612737774 2.4632013341 -0.1612830917 
Si -0.1274148295 5.2492841505 0.1119894442 
Si 2.9379599268 5.3816567359 2.8949793285 
Si 1.5541183347 6.4687627701 1.4430089060 
Si 4.0204685898 4.0645445471 1.2925075730 
Si 5.7032885375 5.2746720906 0.0122490585 
Si 6.9126086266 6.5536653166 1.3886670547 
Si 9.9442295861 3.8957446562 1.5866495842 
Si 8.5692665745 5.1896557775 2.9691433021 
Si -0.0561152007 7.9185961782 3.0155882143 
Si 2.6331845871 7.8580895288 0.0215053058 
Si 4.3215631388 9.1142924347 1.2988661101 
Si 5.5129056222 7.9664122224 2.7498160432 
Si 8.3965129834 8.0257456063 -0.0766190788 
Si 9.9392301797 9.1070807532 1.2686020519 
Si -0.0726734631 0.0340848701 5.6728796369 
Si 2.8085633234 2.7202130997 5.5265174356 
Si 1.3229456673 1.2051456452 7.0765406378 
Si 4.1719018819 1.2540483606 4.3862147248 
Si 5.5832915731 -0.0024552569 5.7846479915 
Si 6.9368609410 1.3088806889 6.8630505531 
Si 9.7785669391 1.3674450268 4.3290415608 
Si 8.5822026836 2.5810665859 5.7658837560 
Si 1.3295669347 3.8347258259 4.4312838651 
Si 0.1799458585 5.4211927126 5.5910729222 
Si 1.4575778251 6.6399600269 7.1444512318 
Si 6.8907630646 3.9249130313 4.4220904163 
Si 4.0450649684 6.6144595820 4.1236244991 
Si 4.3697265256 3.8974582694 6.8854641899 
Si 5.4576137265 5.0991900394 5.7285046766 
Si 6.9580368237 6.6930714211 7.0868268994 
Si 9.7810648508 6.4194418830 4.1298862470 
Si 9.9140730587 3.9471607256 6.9549507338 
Si 1.5347859454 9.1706433981 4.2014632388 
Si 2.7764694386 8.0322788440 5.4591869835 
Si 7.1184648612 9.3639026518 4.2956646666 
Si 4.3017122628 9.2765062654 6.9230831253 
Si 8.2690710599 8.0419379026 5.8192458541 
Si 9.7020727130 9.2502111981 6.9507246594 
Si -0.0074100596 2.7591311336 8.3338189534 
Si 2.8984411211 -0.1794382904 8.3721484369 
Si 4.3139459759 1.4263171535 9.9016095069 
Si 5.5879957336 2.8009300537 8.4766210378 
Si 8.4068976699 -0.1432713954 8.3190782964 
Si 9.7594674604 1.4579095029 9.8062082682 
Si 1.5769829104 3.8109458036 9.8974217891 
Si 2.8846987405 5.3739744337 8.5215271822 
Si 7.0510158431 4.0247900411 9.9386385276 
Si 4.0983534792 6.5519364158 9.8515294626 
Si 8.5158812136 5.0887657818 8.4938384666 
Si 9.6553869475 6.5745189344 9.9449763179 
Si -0.1680490936 7.7885658865 8.6359429840 
Si 1.5152763710 9.2284852099 9.8169251999 
Si 5.6900360429 7.7376282168 8.2939116681 
Si 6.9570260210 9.2872835333 9.6792491654 

