&CONTROL
   calculation      = 'scf'
   tstress          = .true.
   tprnfor          = .true.
   outdir           = './'
   disk_io          = 'none'
   pseudo_dir       = '/home/ppiaggi/pseudos'
/
&SYSTEM
   ecutwfc          = 30
   input_dft        = 'PBE'
   ntyp             = 1
   nat              = 64
   ibrav            = 0
/
&ELECTRONS
   electron_maxstep = 1000
   mixing_beta      = 0.5
/
&IONS
/
&CELL
/

ATOMIC_SPECIES
Si 28.085 Si_ONCV_PBE_sr.upf

K_POINTS gamma

CELL_PARAMETERS angstrom
11.49709616058193 0.00000000000000 0.00000000000000
0.00000000000000 10.71215950807492 0.00000000000000
0.00000000000000 0.00000000000000 10.78118276746537

ATOMIC_POSITIONS angstrom
Si -0.1622085751 -0.0725473062 0.0980977349 
Si 0.0818443098 2.6565921124 2.6351978415 
Si 2.9191441826 -0.0990172874 2.9318744606 
Si 3.2328407209 2.5853997840 0.0292345305 
Si 1.4326808327 1.4005429985 1.4734760493 
Si 5.8635853748 0.0931064277 -0.1323864782 
Si 6.1563102930 2.5518973012 2.8874545747 
Si 7.5023437130 1.3069584838 1.3989402210 
Si 8.9721204111 0.1879976850 2.9170581319 
Si 9.1190231119 2.6920198873 0.0658873831 
Si -0.0984486847 5.0664775816 0.1251585575 
Si 3.2226526426 5.3072446503 2.7827365037 
Si 1.3302707140 6.5336536443 1.3145549261 
Si 4.6460098057 4.0421653380 1.4752210152 
Si 6.0490654957 5.1091159362 0.1175139593 
Si 7.3990575589 6.2762663113 1.1895190910 
Si 10.7784873964 3.8341257120 1.2943928928 
Si 8.9535259833 5.3460008883 2.6759022789 
Si 0.0540835238 7.7665395181 2.8832575259 
Si 3.2018944997 7.9260413608 -0.1911147816 
Si 4.6733152889 9.0977922176 1.4756175223 
Si 5.9977784694 7.7799631613 2.7960799586 
Si 8.8770778207 7.7314631285 -0.0291269174 
Si 10.4480727312 9.0534067751 1.4890683031 
Si 0.0577353589 0.1001486329 5.5627544422 
Si 2.8195889657 2.4496827515 5.6814452125 
Si 1.3698222403 1.2002129561 7.0371037085 
Si 4.5955769696 1.3760489348 3.9963182569 
Si 5.9095469700 0.1083426716 5.4621513719 
Si 7.4037736701 1.3292853494 6.8005801744 
Si 10.5967860103 1.3765561456 4.3214349127 
Si 8.9896260099 2.7702427046 5.6725600930 
Si 1.4862563509 3.8614131639 4.0468953532 
Si 0.1268992735 5.1872450593 5.6960918670 
Si 1.3496265518 6.5856569304 6.7596669622 
Si 7.4130188830 3.8553923991 4.1178926445 
Si 4.6034751487 6.3829183307 3.9568755600 
Si 4.4754461725 3.7693024258 6.9514956594 
Si 6.2599143340 5.2270225421 5.5992820726 
Si 7.3868899824 6.3684641057 7.0529006726 
Si 10.7591557111 6.3581802741 3.9496025002 
Si 10.7608125359 3.8346556399 6.9419517947 
Si 1.5056828787 9.1260655223 4.1848081067 
Si 3.0116432697 7.6409452053 5.5513291994 
Si 7.7363975760 9.0878992420 4.1748181057 
Si 4.5868138615 9.2273371870 6.9870004399 
Si 9.2451431947 7.5655165970 5.7134211008 
Si 10.5627663946 8.8634407989 6.7510180206 
Si -0.0467904868 2.7350907344 8.1128126333 
Si 3.0212460609 -0.0970781367 8.2715469370 
Si 4.3184870409 1.3710186012 9.8711812492 
Si 5.8303854510 2.6021635122 8.1417734959 
Si 9.1830164852 0.0793065336 8.1913072325 
Si 10.4037813506 1.2371878697 9.4928566703 
Si 1.6151323719 3.8910417976 9.5576414844 
Si 2.8105362676 5.0392418987 8.3484104404 
Si 7.5976950014 3.7821185878 9.8566835415 
Si 4.5059500403 6.4176830230 9.4816886701 
Si 9.2133610988 5.3381597093 8.4741177497 
Si 10.4822351464 6.4698536484 9.7563569823 
Si 0.0330562876 7.8881332234 8.4217489843 
Si 1.6023093279 8.9584024101 9.5768799028 
Si 5.9838589748 7.8601982556 8.1075289237 
Si 7.4322609698 9.0527642680 9.7100571427 

