&CONTROL
   calculation      = 'scf'
   tstress          = .true.
   tprnfor          = .true.
   outdir           = './'
   disk_io          = 'none'
   pseudo_dir       = '/home/ppiaggi/pseudos'
/
&SYSTEM
   ecutwfc          = 30
   input_dft        = 'PBE'
   ntyp             = 1
   nat              = 64
   ibrav            = 0
/
&ELECTRONS
   electron_maxstep = 1000
   mixing_beta      = 0.5
/
&IONS
/
&CELL
/

ATOMIC_SPECIES
Si 28.085 Si_ONCV_PBE_sr.upf

K_POINTS gamma

CELL_PARAMETERS angstrom
11.07010381847851 0.00000000000000 0.00000000000000
0.00000000000000 11.23351900712371 0.00000000000000
0.00000000000000 0.00000000000000 10.52341902891218

ATOMIC_POSITIONS angstrom
Si -0.0174647602 0.0697862091 -0.1170292441 
Si -0.0019756591 2.6056858981 2.8858775004 
Si 2.8154527603 -0.0906275237 2.6165845909 
Si 2.6209427363 2.5201270954 -0.0379746487 
Si 1.4832928683 1.4963541075 1.4438939177 
Si 5.4257606609 -0.0209557423 0.0121030081 
Si 5.4665321059 2.7855121017 2.7721122835 
Si 6.9730489583 1.5029188647 1.4912489373 
Si 8.4265407934 -0.0979091301 2.8688556338 
Si 8.4961381777 2.5168842514 0.0395543995 
Si 0.1605875703 5.5143736064 -0.1279638950 
Si 2.7633608017 5.4355500245 2.6859119272 
Si 1.4722613237 6.6510869413 1.3257942003 
Si 4.1023872333 3.9141669446 1.2076189088 
Si 5.8084035148 5.2992926386 -0.0087722203 
Si 7.1540362599 6.7568979379 1.5314308876 
Si 9.9850969759 4.1791543329 1.4340344860 
Si 8.3530266625 5.5058035175 2.8063748523 
Si -0.0560262445 8.2945637115 2.6079139671 
Si 2.6377123810 8.2489946197 -0.1923713231 
Si 4.3950629284 9.5778589952 1.4284065512 
Si 5.7298301485 8.2620954416 2.7359933706 
Si 8.4668059714 8.0529695216 -0.0786263834 
Si 9.8739319473 9.3894672093 1.2174152240 
Si 0.0816359654 -0.1183537843 5.3343086443 
Si 2.8026369244 2.7529507733 5.4817391605 
Si 1.4525503732 1.5173186249 6.9100266195 
Si 4.1191844185 1.5141763774 4.0059262420 
Si 5.6558534188 -0.1266132152 5.3211888438 
Si 7.0452727651 1.5454654304 6.9846065898 
Si 9.7381235616 1.5157537404 4.0827908512 
Si 8.2164052693 2.6283594663 5.2911130047 
Si 1.5783898243 4.2339870601 3.8774481575 
Si 0.0670715443 5.5681090376 5.4054350990 
Si 1.5691731208 6.8589857724 6.9269560213 
Si 6.9240959607 3.9629470569 4.0753121712 
Si 4.0710835300 6.7660115651 4.1086738387 
Si 4.3919816779 4.0240086384 6.6602118044 
Si 5.7328046871 5.4901639656 5.3686701306 
Si 7.0707468834 6.6297841301 6.6275619388 
Si 9.7401239723 6.5576246244 3.9150346277 
Si 9.6626884903 4.1455186827 6.7893346696 
Si 1.5175807900 9.3523140081 4.1990128347 
Si 2.6408788865 8.0955970343 5.5803794284 
Si 7.1741758119 9.6382070839 4.1346153616 
Si 4.1173309899 9.3241108102 6.7832679395 
Si 8.2603557236 8.2570080465 5.3621718439 
Si 9.7522392000 9.2903700612 6.9769558116 
Si 0.1853459599 2.7770529946 8.0913217342 
Si 2.9796193457 0.0807164023 8.2075655274 
Si 4.0395543030 1.3189261358 9.6540382530 
Si 5.7076571496 2.6740351795 8.2536532872 
Si 8.4954609206 0.1499681677 8.1615349616 
Si 9.9070376962 1.2797022245 9.4839890716 
Si 1.3418170837 4.0220059664 9.3507117118 
Si 2.6012857903 5.3898869571 8.0874797274 
Si 6.8139720870 4.1616528239 9.7031024617 
Si 4.2300297587 6.6365379973 9.3417557661 
Si 8.2314041043 5.3463953713 8.1597332485 
Si 9.9637871988 6.7606989042 9.6921096589 
Si -0.0441398293 8.2382942159 8.1969354887 
Si 1.2098651136 9.5665795734 9.4647453358 
Si 5.8088564661 8.2332346549 8.1658586142 
Si 7.1641623135 9.3327463001 9.5285307430 

