&CONTROL
   calculation      = 'scf'
   tstress          = .true.
   tprnfor          = .true.
   outdir           = './'
   disk_io          = 'none'
   pseudo_dir       = '/home/ppiaggi/pseudos'
/
&SYSTEM
   ecutwfc          = 30
   input_dft        = 'PBE'
   ntyp             = 1
   nat              = 64
   ibrav            = 0
/
&ELECTRONS
   electron_maxstep = 1000
   mixing_beta      = 0.5
/
&IONS
/
&CELL
/

ATOMIC_SPECIES
Si 28.085 Si_ONCV_PBE_sr.upf

K_POINTS gamma

CELL_PARAMETERS angstrom
10.52622970475819 0.00000000000000 0.00000000000000
0.00000000000000 11.13531183007642 0.00000000000000
0.00000000000000 0.00000000000000 11.38335712284260

ATOMIC_POSITIONS angstrom
Si 0.0634821810 0.0241438602 0.1934622638 
Si 0.1425802123 2.6278955420 2.6594496370 
Si 2.8423744242 -0.0229283329 2.6411980259 
Si 2.9306720976 2.7014693525 0.0866360945 
Si 1.2467798938 1.3108670983 1.5023563035 
Si 5.4008812345 -0.0494930482 0.1379347513 
Si 5.4667184967 2.7882438939 2.7304197831 
Si 6.9372291871 1.2509357136 1.3535903181 
Si 8.4329302637 -0.0281280821 2.8367889514 
Si 8.0724478884 2.7345726499 -0.1435612422 
Si -0.1353081707 5.4462301951 0.1724964219 
Si 2.6830177539 5.7542156427 2.6074495600 
Si 1.4783606313 7.0515356439 1.5389848959 
Si 4.0829941998 4.0178059744 1.4627773687 
Si 5.4151258481 5.6431113654 -0.0464982463 
Si 6.9904124985 7.0531408944 1.3513058874 
Si 9.7856339020 4.1246575405 1.5376875062 
Si 8.1578182470 5.7636205288 2.9450391519 
Si 0.0056815269 8.4365656088 2.8147637546 
Si 2.5892900629 8.4788116547 -0.0378800249 
Si 4.2141018429 9.8659669566 1.5596888766 
Si 5.5006590554 8.5101610685 2.7934336030 
Si 8.2156582951 8.3654315527 0.1792182885 
Si 9.7368441288 9.8908621938 1.1916233808 
Si -0.1316383838 -0.0508324958 5.4304946944 
Si 2.9346274142 2.7703553919 5.6611502179 
Si 1.3872260334 1.2528950331 6.9808450592 
Si 4.0600980760 1.4153485192 4.1195405333 
Si 5.4121976460 0.1911338439 5.4171664833 
Si 6.8695985374 1.5667888521 6.9033855787 
Si 9.7427795209 1.2229851031 4.2523732513 
Si 8.3802973193 2.7220806935 5.4636573628 
Si 1.1789178479 4.2543774320 4.1873192875 
Si -0.1698713617 5.4115559023 5.3787645106 
Si 1.4288410526 6.9310023037 6.9487483318 
Si 6.7535512669 4.1456666386 4.0567048250 
Si 4.2893873961 6.9431539747 4.3641846004 
Si 4.2568275354 4.2069606635 6.9285543120 
Si 5.4485435187 5.4474180139 5.4603710731 
Si 6.8496895908 6.7978563583 7.1015820114 
Si 9.7598498719 7.0134187025 4.0426280919 
Si 9.5119402501 4.1067291308 6.8887311232 
Si 1.2575281799 9.7834733779 4.1701281916 
Si 2.9039841476 8.5160595005 5.6672613126 
Si 6.9235911407 9.8234196058 4.0436612496 
Si 4.0905692717 9.8946140429 6.7749551841 
Si 8.1015494383 8.3599052304 5.6492350846 
Si 9.7459613203 9.8866075112 7.0160554539 
Si 0.0378903257 2.9499242679 8.1948051734 
Si 2.9173328070 -0.1768734555 8.2680768276 
Si 4.2172519359 1.4169139122 9.7581110050 
Si 5.5368698307 2.6774644822 8.1556545341 
Si 8.2800722952 0.1677776968 8.2645915207 
Si 9.5360371365 1.6008096040 9.7477273824 
Si 1.3680632374 4.3937895703 9.6150639847 
Si 2.9176503777 5.3872802587 8.1804912251 
Si 7.0227618026 4.0579705173 9.7032440620 
Si 4.1284881156 7.0400372692 9.7251196230 
Si 8.1588191809 5.5056495484 8.4061604193 
Si 9.4225450977 7.1276503524 9.8216879326 
Si 0.0567830456 8.3812756983 8.1416108461 
Si 1.2270502705 9.8505751498 9.5563014012 
Si 5.4475512620 8.2855613493 8.1978842138 
Si 6.8959348731 9.9526960611 9.6952266358 

