&CONTROL
   calculation      = 'scf'
   tstress          = .true.
   tprnfor          = .true.
   outdir           = './'
   disk_io          = 'none'
   pseudo_dir       = '/home/ppiaggi/pseudos'
/
&SYSTEM
   ecutwfc          = 30
   occupations      = 'smearing'
   degauss          = 0.01
   smearing         = 'fermi-dirac'
   input_dft        = 'PBE'
   ntyp             = 1
   nat              = 64
   ibrav            = 0
/
&ELECTRONS
   electron_maxstep = 100
   mixing_beta      = 0.5
/
&IONS
/
&CELL
/

ATOMIC_SPECIES
Si 28.085 Si_ONCV_PBE_sr.upf

K_POINTS gamma

CELL_PARAMETERS angstrom
10.62612419225673 0.00000000000000 0.00000000000000
0.00000000000000 10.62612419225673 0.00000000000000
0.00000000000000 0.00000000000000 10.62612419225673

ATOMIC_POSITIONS angstrom
Si 4.1998799519 9.3686074031 4.0266953798 
Si 7.2224065955 7.3307718100 7.4471703744 
Si 4.9221907438 7.0572022427 3.0365318753 
Si 4.0895276521 4.8293396706 3.9003188848 
Si 1.3608877253 0.5755310759 8.9530940688 
Si 1.0222225212 7.3456165055 6.7524875053 
Si 7.8010521884 4.5748333701 7.5984651307 
Si 5.6243012737 2.6230481307 5.6120918570 
Si 3.4923075942 2.4643575920 3.8387298689 
Si 6.4249266010 3.0770067824 1.1213217554 
Si 8.2671458738 8.6778030694 4.8050696030 
Si 0.3638969360 8.7607293426 5.0301415395 
Si 6.5071409239 8.5905200852 0.6528425051 
Si 8.1034185523 4.3791320409 5.3482983239 
Si 0.6602478510 6.1271294705 10.3030156339 
Si 3.9483808445 1.6996910690 9.0571875814 
Si 0.8157016723 8.8807620414 0.9500838893 
Si 6.9520036132 0.6963182296 8.4816554429 
Si 10.4550648450 3.6441974134 5.4445391308 
Si 9.2422309081 1.1672797425 5.5624678570 
Si 4.3479656186 9.0597272251 9.0876951840 
Si 6.3043413437 3.1281821965 8.3571703980 
Si 0.0005842328 10.1467265993 6.9642555344 
Si 3.2337527403 3.8593445499 1.3273729296 
Si 8.5300574386 9.2463113398 8.0069333446 
Si 0.8482718055 7.2606925210 3.1005011429 
Si 9.2188959394 0.2256043053 2.1377424127 
Si 4.5680220245 1.5081233021 1.3678584628 
Si 1.8306899281 5.6504415392 4.7488361538 
Si 9.9104334757 7.1113742238 8.6301236501 
Si 5.8335402852 0.4209454090 3.2539848808 
Si 8.1372946362 5.5702993106 9.9627671373 
Si 0.3314745059 4.4011281179 8.3604538704 
Si 9.6571173010 1.2456686607 9.6728758432 
Si 1.8724293439 0.7334097787 1.0636537794 
Si 9.0964404842 9.4314928061 10.5170895319 
Si 5.2771989270 4.2925503810 10.2937177753 
Si 3.7551554022 9.1934782503 1.2570598658 
Si 5.0802968457 8.5235755028 5.9360505053 
Si 7.3330776790 9.4319497294 2.8768424809 
Si 5.6676133559 0.2420376064 10.4798768450 
Si 3.4033669347 6.3230645745 9.9513653060 
Si 3.2966593955 6.8069888963 7.1558020491 
Si 9.8668344881 5.6101897808 3.0491132063 
Si 7.6403214338 6.5414314266 2.0279214192 
Si 4.9134985743 4.8916406368 6.5008502583 
Si 4.2411093137 10.3737962472 7.2088582871 
Si 9.9638403759 4.1881380846 0.9199428880 
Si 0.9269614430 3.2977326341 2.9964926393 
Si 2.2709940101 3.3059891326 6.3477384349 
Si 0.2301682257 1.2018146461 3.6184821928 
Si 1.7641491384 8.7377875404 9.2401694400 
Si 2.9784388543 4.0973272273 8.3728864357 
Si 2.6890044836 6.6747467807 1.5084633381 
Si 2.2562236975 0.7798884459 6.1490724170 
Si 5.9517240385 6.9914265339 9.4860579538 
Si 9.2100018734 2.6130702001 7.7121965379 
Si 6.4744868442 6.6952764527 5.0205142710 
Si 1.4282998572 2.8571628989 10.4980050129 
Si 7.2865565072 2.0759727528 4.0906221429 
Si 7.0412736825 0.0621041703 6.1565957129 
Si 2.0467509113 10.0809933951 4.1310864239 
Si 6.5008608845 4.6176991551 2.9837519164 
Si 8.6855388878 2.2830652872 1.0273602522 

