&CONTROL
   calculation      = 'scf'
   tstress          = .true.
   tprnfor          = .true.
   outdir           = './'
   disk_io          = 'none'
   pseudo_dir       = '/home/ppiaggi/pseudos'
/
&SYSTEM
   ecutwfc          = 30
   occupations      = 'smearing'
   degauss          = 0.01
   smearing         = 'fermi-dirac'
   input_dft        = 'PBE'
   ntyp             = 1
   nat              = 64
   ibrav            = 0
/
&ELECTRONS
   electron_maxstep = 100
   mixing_beta      = 0.5
/
&IONS
/
&CELL
/

ATOMIC_SPECIES
Si 28.085 Si_ONCV_PBE_sr.upf

K_POINTS gamma

CELL_PARAMETERS angstrom
10.66642773716745 0.00000000000000 0.00000000000000
0.00000000000000 10.66642773716745 0.00000000000000
0.00000000000000 0.00000000000000 10.66642773716745

ATOMIC_POSITIONS angstrom
Si 7.7879535487 0.4244246262 4.3454066623 
Si 9.2948104616 5.4013190097 6.4210508342 
Si 1.3448232091 0.2557105387 10.6034318150 
Si 0.6708521728 8.6852881150 6.6715838889 
Si 3.4845192796 1.7965890895 5.2683086558 
Si 4.9063754298 9.3247831235 10.3201314943 
Si 6.9406445286 9.2471848617 6.4252214075 
Si 6.2257805416 2.2132837555 7.7634420978 
Si 5.6737289077 2.9102708095 1.8964055202 
Si 9.9481931591 2.6882597826 8.9616339248 
Si 3.9171922543 4.2208654520 4.1923434242 
Si 1.3226370394 5.1326956936 7.7427278951 
Si 7.4018075318 5.6040451353 4.0474933356 
Si 9.4504763080 4.2820374151 3.1604518721 
Si 3.7424761680 3.5014469004 9.6673141175 
Si 1.5705141536 2.7102752894 8.0475637334 
Si 9.9151485659 1.5622583385 0.6847942605 
Si 9.7655305841 5.1091655540 9.0429014377 
Si 6.8272817346 6.7434542790 1.1161029991 
Si 5.2497064058 5.3789408443 2.2328459839 
Si 1.0781411828 9.9272549614 3.3443730856 
Si 0.3915304297 6.4038032206 10.4406087955 
Si 5.5384359382 0.5002490610 6.1852801155 
Si 0.8899064660 1.7569313112 5.8705138330 
Si 8.8908835096 9.2738402647 7.8728263142 
Si 6.0942741541 8.0058580010 8.4434695317 
Si 3.4093102976 8.8867022699 1.5631116527 
Si 9.6722100078 0.1885888422 5.7140906702 
Si 3.3596260772 0.4940571997 3.2595856515 
Si 6.4054671833 3.5069187779 10.4856957856 
Si 8.5425393126 4.3016743085 0.6623328970 
Si 0.4840840898 3.8802117494 5.0949152065 
Si 1.2686862479 6.8629822682 3.0976159463 
Si 4.3613636382 3.8821637056 7.1024969031 
Si 1.0098461793 4.8817039825 1.9963286153 
Si 2.5228448213 3.0195590281 2.4561049829 
Si 6.5649729437 5.5658059918 6.5758100343 
Si 6.7497901371 3.2645455404 5.2206083910 
Si 5.5600887866 10.0182822557 3.2165039499 
Si 3.3011953861 5.2779724393 0.6078263846 
Si 7.5728650334 1.0179942635 0.4173613177 
Si 9.2224280830 6.6287261823 1.7520674201 
Si 2.4134819377 9.6846150632 5.7836997776 
Si 4.0253818309 7.8838234012 5.7254077501 
Si 8.9452182925 8.2282636857 10.0186342478 
Si 3.5158145786 1.7747975776 0.5842183801 
Si 7.8998230428 2.4549636751 2.8131636514 
Si 8.2574470320 0.6770045683 8.4750634907 
Si 2.2088891872 5.7122347118 5.3594852801 
Si 3.9264613800 7.2358805819 3.1663397402 
Si 0.1001388769 1.7039084989 3.3461117133 
Si 0.9834062382 8.7470360651 1.1435797170 
Si 10.3682264169 7.2389205138 4.9457025489 
Si 4.2442355952 6.6567575544 7.8675890982 
Si 8.9954358343 2.8365551274 6.5150860611 
Si 9.3005916654 9.7079425407 1.2497853380 
Si 3.0060019985 0.4753856180 7.9041429461 
Si 7.3800266864 6.2708675317 9.3707554271 
Si 5.0203035445 0.7455352999 9.4619107185 
Si 2.5069731768 6.8696274527 9.4797663186 
Si 6.5790206290 7.9496459268 4.6174965674 
Si 1.6650613691 9.2776908451 8.8459031838 
Si 6.5895803925 9.2542993690 1.3157358607 
Si 9.0071049062 8.7639530195 3.5362941198 

