&CONTROL
   calculation      = 'scf'
   tstress          = .true.
   tprnfor          = .true.
   outdir           = './'
   disk_io          = 'none'
   pseudo_dir       = '/home/ppiaggi/pseudos'
/
&SYSTEM
   ecutwfc          = 30
   occupations      = 'smearing'
   degauss          = 0.01
   smearing         = 'fermi-dirac'
   input_dft        = 'PBE'
   ntyp             = 1
   nat              = 64
   ibrav            = 0
/
&ELECTRONS
   electron_maxstep = 100
   mixing_beta      = 0.5
/
&IONS
/
&CELL
/

ATOMIC_SPECIES
Si 28.085 Si_ONCV_PBE_sr.upf

K_POINTS gamma

CELL_PARAMETERS angstrom
10.60395768387740 0.00000000000000 0.00000000000000
0.00000000000000 10.60395768387740 0.00000000000000
0.00000000000000 0.00000000000000 10.60395768387740

ATOMIC_POSITIONS angstrom
Si 7.2874426708 7.9268719230 1.1445063607 
Si 6.5612518367 10.0163075570 5.5504295705 
Si 5.0093414217 7.1972135948 0.8425395786 
Si 4.4921758015 2.5866127939 1.1851195187 
Si 3.1649314380 9.1335598916 7.3376630143 
Si 8.8120478947 10.2032023111 7.5606854524 
Si 9.3000950471 8.3375101844 6.1515255157 
Si 2.0614517896 5.9399659560 0.3391421370 
Si 5.9250461875 4.4243422842 7.7557876698 
Si 4.8796338113 7.9618119636 3.8206907852 
Si 0.2528428878 0.4254647149 8.5934791189 
Si 8.8709740875 10.4456936154 3.5672561965 
Si 0.0958490675 3.9460401689 0.8465362102 
Si 4.6585306897 10.3573732519 9.6725802686 
Si 3.5319344135 5.3098893944 7.0588213431 
Si 0.9229737788 9.7620246517 6.2023714928 
Si 4.4296442631 0.9484041901 7.0718642110 
Si 7.4742844051 4.7336597299 10.5979770517 
Si 3.4476859697 2.9085383452 4.2362810947 
Si 0.4306341443 3.8107866887 3.5687725625 
Si 2.2226107385 9.7046572406 9.8685944264 
Si 8.0764195383 4.6634827379 5.9344837099 
Si 4.9528859510 7.0935280966 9.0366821342 
Si 9.1220652015 10.3154239953 0.2405794107 
Si 7.7703256958 2.3263174446 9.6854746812 
Si 2.4591638265 0.9440279368 0.9092480160 
Si 1.8934320801 2.7785126161 9.9867013071 
Si 5.0383538500 7.7378563773 6.3345922412 
Si 7.4836689077 6.9462179164 6.1805061321 
Si 2.4846663447 8.0867902089 1.6066586485 
Si 5.7392118291 2.6793868196 5.8595985607 
Si 4.3611957162 9.7993505827 1.5520906822 
Si 5.5625604981 1.5615494125 3.0527309618 
Si 7.3203149396 7.8179162578 3.6711219620 
Si 7.7369232291 2.6318704853 3.8442527791 
Si 9.2142666136 5.7727415433 1.2625390137 
Si 1.4720944255 3.6948642233 6.0145966102 
Si 0.1428066793 7.4442221851 0.0835339491 
Si 7.2346349615 0.0651913292 1.8785865393 
Si 7.9947266483 1.7529296408 7.0994132931 
Si 3.4156514135 4.5530107068 9.4500244048 
Si 2.0646223729 7.0266171236 8.5015215979 
Si 7.0617162235 6.0977634503 8.7717528555 
Si 5.2481107369 4.7509547849 0.7888718883 
Si 5.3708833590 2.2591519766 9.2869249316 
Si 9.7068840717 1.9717210997 5.2352269283 
Si 9.9423449521 4.3665082990 7.1111836861 
Si 2.6935112913 6.4196147739 3.6261081617 
Si 1.4951050136 0.7965703616 4.6434942777 
Si 10.3263884875 2.8637790398 8.8897112807 
Si 4.2209901877 0.0170603894 4.6667593608 
Si 0.8716665295 6.2673949614 5.1384658145 
Si 4.8442484046 4.9473824970 4.8932705009 
Si 0.3604974474 9.6152128576 1.6013990855 
Si 9.3368589684 5.5339722281 3.5700874532 
Si 10.1822382868 8.1035762739 3.5728338783 
Si 8.8288127518 2.2340312009 1.5978361557 
Si 0.4873101773 1.2328903480 2.5023537461 
Si 8.8752580864 8.1234374866 9.3484172822 
Si 2.0371157067 1.4816804032 7.2316870613 
Si 10.2951810401 6.7254223095 7.7499554931 
Si 2.5859871604 4.3985746671 2.2689288256 
Si 6.4997276742 9.1782237614 8.2231571047 
Si 6.6637815035 5.0363178901 3.0364644907 

