&CONTROL
   calculation      = 'scf'
   tstress          = .true.
   tprnfor          = .true.
   outdir           = './'
   disk_io          = 'none'
   pseudo_dir       = '/home/ppiaggi/pseudos'
/
&SYSTEM
   ecutwfc          = 30
   occupations      = 'smearing'
   degauss          = 0.01
   smearing         = 'fermi-dirac'
   input_dft        = 'PBE'
   ntyp             = 1
   nat              = 64
   ibrav            = 0
/
&ELECTRONS
   electron_maxstep = 100
   mixing_beta      = 0.5
/
&IONS
/
&CELL
/

ATOMIC_SPECIES
Si 28.085 Si_ONCV_PBE_sr.upf

K_POINTS gamma

CELL_PARAMETERS angstrom
10.67282459359377 0.00000000000000 0.00000000000000
0.00000000000000 10.67282459359377 0.00000000000000
0.00000000000000 0.00000000000000 10.67282459359377

ATOMIC_POSITIONS angstrom
Si 8.7907787048 4.1278750039 8.0172550695 
Si 7.8867370976 6.5000596894 7.5820813195 
Si 1.6605847785 0.2941035563 4.9663641225 
Si 8.1428528693 3.8490154430 10.6008257189 
Si 1.3079866724 0.4510111544 2.4126880548 
Si 0.1426433680 2.8844802660 3.3946092631 
Si 7.7990278250 6.9423628862 9.8330440633 
Si 10.2391450391 4.0637206553 5.5858788988 
Si 1.7138635189 7.4864528112 6.6788295014 
Si 2.6573732314 2.3097273159 0.6024265169 
Si 2.9326573962 2.5110701519 4.1776530578 
Si 3.7618077932 10.3906991483 1.7938349936 
Si 6.2189054711 7.3144922613 3.0970722590 
Si 3.2416356682 5.8973119205 2.4945379466 
Si 9.3880192962 1.5649242517 7.1498639420 
Si 1.7176203531 7.5642470296 3.7157865736 
Si 9.6087226360 1.9596693421 1.6219278078 
Si 3.4444086626 10.3966866029 8.5617825803 
Si 9.9798380927 1.0806875270 4.9797158261 
Si 7.3891700150 2.1253542711 8.3075452256 
Si 1.7784234349 7.0426447461 0.4747325743 
Si 5.1830224617 3.0905938545 9.5776113523 
Si 0.3774732584 1.2597134868 10.2837254274 
Si 0.7991063958 2.6379486907 8.2152893298 
Si 5.7115193900 6.1423919916 6.8248337418 
Si 7.9960481670 3.1684627827 4.7554157444 
Si 5.8965861684 5.1697881592 10.5066700603 
Si 4.5265476938 8.0233385795 1.3357039979 
Si 5.6631074576 4.2987682713 5.0594738442 
Si 3.1356972112 5.3538090009 4.9306315057 
Si 2.6696896710 7.6245057973 8.7550567608 
Si 6.7436135466 10.0291572152 1.5306965032 
Si 5.7281903420 8.3589348761 9.9399110559 
Si 3.0539327020 8.9500172477 5.1880173436 
Si 8.1155411112 9.7877272500 7.9533355230 
Si 8.7237960576 8.5790191920 1.5005351009 
Si 4.4967491675 6.3224211969 9.0530206778 
Si 8.0050133397 0.6922404704 10.0935997301 
Si 5.5277013320 8.1947121240 5.5730821822 
Si 8.3091674950 10.0707919039 3.6435422239 
Si 10.1087124497 5.2244863853 0.6598260348 
Si 1.4961272244 9.7000073047 10.4073380818 
Si 9.8544217309 7.3337033456 6.3687946197 
Si 10.6635178905 6.2482023747 9.1998573986 
Si 6.9325865789 1.7935681730 1.6777680261 
Si 10.3176009726 6.2567513072 4.3785689808 
Si 8.5475236866 6.6630017025 2.8373170541 
Si 8.0900650789 8.5339051624 5.5925387414 
Si 6.7646923752 1.0312072450 4.5822705110 
Si 1.5914995849 5.1004574907 7.0892636439 
Si 1.6319389173 4.2429600715 1.9604377855 
Si 5.8996599419 1.1848222766 6.8613027834 
Si 0.3830145889 10.1723011386 7.5353877119 
Si 9.8417744338 8.7006146826 9.6889075671 
Si 0.5109219880 8.6664616439 1.9513979030 
Si 5.6084412500 4.7654375267 2.6363584398 
Si 3.4544411177 4.0908936667 8.2949833111 
Si 5.0564534349 0.7392126387 10.4086828577 
Si 4.2985014507 2.6904269692 2.3133347307 
Si 4.2762379386 2.7299270930 6.2607749620 
Si 8.0062300417 4.3833183878 2.6724219141 
Si 5.5121403537 9.4251180345 7.7966584580 
Si 4.6017270702 0.2879741532 4.0316274718 
Si 2.2305242846 1.2798210883 7.0925935652 

