&CONTROL
   calculation      = 'scf'
   tstress          = .true.
   tprnfor          = .true.
   outdir           = './'
   disk_io          = 'none'
   pseudo_dir       = '/home/ppiaggi/pseudos'
/
&SYSTEM
   ecutwfc          = 30
   occupations      = 'smearing'
   degauss          = 0.01
   smearing         = 'fermi-dirac'
   input_dft        = 'PBE'
   ntyp             = 1
   nat              = 64
   ibrav            = 0
/
&ELECTRONS
   electron_maxstep = 100
   mixing_beta      = 0.5
/
&IONS
/
&CELL
/

ATOMIC_SPECIES
Si 28.085 Si_ONCV_PBE_sr.upf

K_POINTS gamma

CELL_PARAMETERS angstrom
10.70953118625378 0.00000000000000 0.00000000000000
0.00000000000000 10.70953118625378 0.00000000000000
0.00000000000000 0.00000000000000 10.70953118625378

ATOMIC_POSITIONS angstrom
Si 1.9924011819 7.7315639779 1.8288666407 
Si 8.9715027891 2.2023829599 3.5386540041 
Si 5.7052350012 7.6836281163 8.4430516822 
Si 6.9207453718 7.0834766981 6.2367704530 
Si 9.8516441906 5.6871466030 6.9195351948 
Si 4.7160812818 9.0835780330 4.9303254532 
Si 1.3395267417 8.7679467298 10.5414665133 
Si 1.2514836858 2.4531573421 4.8761352254 
Si 9.7324363989 0.3211895498 8.8250713692 
Si 5.2568055114 9.8515692239 6.9755139143 
Si 0.1731495583 1.2042760724 1.6003680833 
Si 3.2887256748 3.8917686664 9.9785521351 
Si 8.5042673625 3.2348460234 0.8269728630 
Si 7.4744816818 3.1644201463 6.4661043539 
Si 4.1219272011 6.9325151465 1.5651551447 
Si 9.5003501486 8.7740725817 2.3321824778 
Si 7.9170423485 9.1269623438 8.7797272141 
Si 7.8186645950 0.1828063426 4.9283227708 
Si 7.4908565549 5.1083821187 4.9663201875 
Si 6.3950787430 2.3959684456 2.9536351535 
Si 1.7280256950 9.0915137956 5.8071897381 
Si 0.6308824179 6.6085411186 9.3844194735 
Si 1.4647104518 1.4999555189 9.6240452338 
Si 9.8564420606 5.5672105633 0.5263370454 
Si 3.0645751871 10.5313138778 10.2747777677 
Si 8.0832221439 1.9743234932 9.4034396009 
Si 5.5993284473 10.6718229269 3.2074510426 
Si 9.8527044342 2.9043606005 6.7496177729 
Si 2.7319157294 7.3190649652 8.3411183644 
Si 6.7719792741 4.1235122117 8.6259597654 
Si 8.9609003532 9.1464429810 6.1884918864 
Si 0.0106266608 7.2446979806 5.1933943772 
Si 10.4737394381 6.4025111577 2.5910211371 
Si 2.5677814544 9.3736242661 3.4665253116 
Si 4.9896027083 4.1502324920 4.3494083530 
Si 4.5031222541 1.7205076041 6.3504521266 
Si 4.8561298211 4.2749878208 7.0946467392 
Si 1.7802453691 4.0828588313 7.9881750546 
Si 0.2313076674 0.3222497934 6.7122736377 
Si 6.4375634532 6.1377072896 2.9187220818 
Si 1.2056468924 3.6327158165 0.9184311883 
Si 7.2870113383 8.3644008852 4.0036404291 
Si 7.4859194611 6.1733914475 0.3150090794 
Si 7.1042853172 0.7192178440 7.2143150407 
Si 1.5647910207 4.7721135489 4.4244607476 
Si 10.0510021136 10.1072164428 0.2416188040 
Si 6.6288785184 0.8148796603 0.5695253718 
Si 3.3759548063 4.2133437593 2.2150630448 
Si 3.0519914879 9.8311889860 7.7834195279 
Si 7.8639766215 8.4717639354 0.5860662427 
Si 9.6735768155 4.4546937541 4.1323047368 
Si 10.0940330099 3.6079553804 9.2147269519 
Si 4.5624423474 6.7523379939 5.7078802554 
Si 2.2388382040 0.4466077986 1.9099056632 
Si 5.5160618423 8.8034702448 1.5982261770 
Si 4.9281192897 2.1328031357 9.3645425836 
Si 2.1170387058 1.7959562513 7.1396374797 
Si 8.1288126182 6.2981467763 8.6012528769 
Si 5.1539511739 9.7910496631 10.0557357264 
Si 4.4636255031 6.1258839671 9.9063056378 
Si 10.3485878567 10.5081277428 3.8894339886 
Si 2.0956517721 6.1648773702 6.2651507107 
Si 5.9384671714 3.7480895960 0.8734211707 
Si 3.4380915063 1.8604597577 3.6563303328 

