&CONTROL
   calculation      = 'scf'
   tstress          = .true.
   tprnfor          = .true.
   outdir           = './'
   disk_io          = 'none'
   pseudo_dir       = '/home/ppiaggi/pseudos'
/
&SYSTEM
   ecutwfc          = 30
   occupations      = 'smearing'
   degauss          = 0.01
   smearing         = 'fermi-dirac'
   input_dft        = 'PBE'
   ntyp             = 1
   nat              = 64
   ibrav            = 0
/
&ELECTRONS
   electron_maxstep = 100
   mixing_beta      = 0.5
/
&IONS
/
&CELL
/

ATOMIC_SPECIES
Si 28.085 Si_ONCV_PBE_sr.upf

K_POINTS gamma

CELL_PARAMETERS angstrom
10.65136564625206 0.00000000000000 0.00000000000000
0.00000000000000 10.65136564625206 0.00000000000000
0.00000000000000 0.00000000000000 10.65136564625206

ATOMIC_POSITIONS angstrom
Si 2.3709939929 4.8637757005 1.9091720812 
Si 9.7043314239 8.8812045381 4.3641627435 
Si 8.1961406539 3.7361049682 1.1241131762 
Si 1.6769723101 8.4886165031 4.2339391471 
Si 10.4956107264 3.5494291339 2.5069373726 
Si 6.0727483068 0.6220749032 7.4102083369 
Si 9.2368216830 3.5671423549 7.6693134576 
Si 4.7977372335 2.5661057088 5.6578456608 
Si 1.1063360469 6.7343152785 5.8362134299 
Si 5.8176587510 0.9970881849 3.4060084954 
Si 3.9897565897 1.2697706014 8.3833703592 
Si 7.5567391741 0.9183820488 1.3741326820 
Si 9.0648873387 7.4931398698 6.4669233953 
Si 8.4027877988 5.3642514181 5.9749687702 
Si 2.1473685711 0.8730828558 10.1895437346 
Si 0.2699290385 0.3443511954 7.6373061039 
Si 2.3283352734 2.5541548765 5.4632665132 
Si 5.4890854235 8.2687190594 0.2758256345 
Si 3.5122558678 0.8725044866 1.7903774001 
Si 0.0089220525 5.2321425300 0.4315123856 
Si 3.8331495606 8.3690442724 1.9772343076 
Si 3.8935428038 10.2178231104 4.1060908053 
Si 10.0767351210 8.3984633443 8.5193669958 
Si 1.1963400867 9.7478529039 1.7141136221 
Si 6.8318711364 8.0218736605 6.5586742590 
Si 6.2831447324 9.3681956268 8.8770505055 
Si 1.9164895694 7.3929318218 0.8777630659 
Si 3.0375564550 6.1427064764 3.7245162824 
Si 5.3820072447 5.0471602628 3.5607941410 
Si 8.5205919028 10.1673143345 9.9151858582 
Si 6.4620876753 10.1435085322 5.4372132728 
Si 3.8733478145 9.0406767846 7.8135116458 
Si 7.4685458666 7.2521314194 0.8817349601 
Si 5.1888766828 0.6307930460 10.4798254025 
Si 9.4455458442 8.9733708051 1.1165081011 
Si 4.5052081274 6.6994001019 9.6322962380 
Si 3.5394488042 4.9952881121 6.4128251092 
Si 5.7730508316 7.5459067353 3.6152119681 
Si 7.9594460065 5.3974730276 2.8321235658 
Si 3.9244850210 4.5979069626 0.3221324466 
Si 1.6034672358 4.4201889268 9.1112420820 
Si 7.7641212633 2.7585758860 3.7251766670 
Si 8.9768538016 0.2631611607 5.9342272966 
Si 2.1834980034 2.5779180733 3.1277202652 
Si 1.6976572622 9.2380891955 9.5438472977 
Si 6.4956927339 2.9773549364 10.0244795211 
Si 4.4601208966 7.4453684949 5.8950515737 
Si 5.7322454498 5.8692859202 7.7940729035 
Si 7.7221229285 9.0940720806 2.9575327449 
Si 10.2461344402 6.9849206094 2.6364260248 
Si 6.4802695564 4.2263021179 5.4476090057 
Si 5.2421015569 3.0639931445 1.7166486471 
Si 10.4921916380 2.3944056945 9.9429326658 
Si 9.2352346295 6.7140350783 9.8785238577 
Si 10.2313183906 1.3437762899 1.6249616916 
Si 4.0087053692 3.6408924107 8.5614185873 
Si 9.8199946035 2.3874397014 5.0142475430 
Si 0.7237709470 0.4984583490 4.0731674341 
Si 2.2908211636 0.2245169410 6.4798328505 
Si 2.0896275179 7.0578292073 8.1966093140 
Si 10.3451069298 5.1877582894 4.7532251765 
Si 8.3249476186 1.4536025211 8.3456219193 
Si 0.8326630534 4.1256147585 6.8606830805 
Si 7.7433511002 5.1352896622 8.9097288953 

