&CONTROL
   calculation      = 'scf'
   tstress          = .true.
   tprnfor          = .true.
   outdir           = './'
   disk_io          = 'none'
   pseudo_dir       = '/home/ppiaggi/pseudos'
/
&SYSTEM
   ecutwfc          = 30
   occupations      = 'smearing'
   degauss          = 0.01
   smearing         = 'fermi-dirac'
   input_dft        = 'PBE'
   ntyp             = 1
   nat              = 64
   ibrav            = 0
/
&ELECTRONS
   electron_maxstep = 100
   mixing_beta      = 0.5
/
&IONS
/
&CELL
/

ATOMIC_SPECIES
Si 28.085 Si_ONCV_PBE_sr.upf

K_POINTS gamma

CELL_PARAMETERS angstrom
10.72792970519173 0.00000000000000 0.00000000000000
0.00000000000000 10.72792970519173 0.00000000000000
0.00000000000000 0.00000000000000 10.72792970519173

ATOMIC_POSITIONS angstrom
Si 1.8357311474 2.2931593421 7.6435855474 
Si 0.2116695626 1.1968722055 2.4163803427 
Si 10.6445951472 7.3152572587 2.1799153161 
Si 9.5628658113 6.5129046682 7.0211081542 
Si 0.1223874405 0.7073342444 0.1967212654 
Si 3.4181329627 0.2296098795 2.3689521654 
Si 4.8297032253 3.8150985455 2.5161930006 
Si 5.4928609280 6.0945046817 7.0272659858 
Si 5.8985054060 4.7942796015 0.4920740437 
Si 9.6681711693 0.9644859378 8.2000218053 
Si 5.4439737523 9.0412631411 3.9896848736 
Si 7.1316165581 3.4350187240 6.5134088809 
Si 6.9934086397 4.0549857817 8.9633354597 
Si 0.6302390504 8.4898046425 5.5573894252 
Si 0.4129737996 7.6646230175 10.5639103879 
Si 7.1036595732 10.5942167893 7.8207787623 
Si 8.5677537798 1.7501866359 2.8435128639 
Si 1.4102721832 0.1048939419 6.5741289630 
Si 4.9738866006 9.9972504130 6.6675585028 
Si 3.6351697085 8.3374144011 1.9554333870 
Si 3.8901618697 8.1567775207 8.1644265346 
Si 9.5326452333 3.5593768852 7.6615011900 
Si 6.2775124346 0.4392926295 2.0615862514 
Si 9.1088705541 3.2245796549 10.6799973153 
Si 6.5544968516 1.5949749489 9.5102560440 
Si 3.9424605270 6.8594275256 4.2229529771 
Si 7.4015205415 6.6014422720 3.5214321978 
Si 4.1270881972 6.0389554617 9.8269338010 
Si 2.7931452339 7.5690264359 6.0883361221 
Si 8.9705231726 9.1862618390 0.2203034005 
Si 9.4128464423 4.1513869580 5.0632609830 
Si 2.4756306984 0.9633423405 9.7746029599 
Si 7.7629123095 9.1211754895 2.3521200437 
Si 9.0769978749 6.0305662207 0.0162683690 
Si 4.0723221161 1.8629157212 4.7706352444 
Si 8.8919303596 9.0634806835 6.4131027381 
Si 7.3487176715 8.4064164449 9.3412589674 
Si 10.4422342092 9.0127268481 8.5144681529 
Si 2.8169719658 5.1493740747 3.0953724696 
Si 10.0649221936 1.4198629523 5.3240140424 
Si 0.2310914066 5.5900130594 8.6494684203 
Si 4.5708275536 0.4839497825 10.6372786992 
Si 2.2141588677 5.4697100557 6.9639068330 
Si 6.2795078295 2.4326975237 3.8396440487 
Si 3.2339558655 10.5892497579 4.6923749972 
Si 8.1217293743 4.1438130396 2.1591996838 
Si 2.3253431312 3.6767618920 5.3350638100 
Si 3.9149541152 4.4568433005 7.9071493244 
Si 0.3299932633 4.7040148009 1.6785240655 
Si 7.5277024507 6.1738699057 8.0903823637 
Si 9.4769887340 6.6076966550 4.2924163219 
Si 0.8983761438 9.5098269268 3.3089870058 
Si 8.2345013714 0.8185646380 0.1988121389 
Si 4.5862757724 2.2229879539 7.1765236718 
Si 5.8843981785 5.3053045330 4.8094274382 
Si 0.3898068354 3.5189004064 3.5139762867 
Si 2.6291259166 2.6489404028 1.1719834086 
Si 2.1026420384 9.5432444278 8.6257704236 
Si 0.8482777849 3.4470661891 10.0690739023 
Si 6.7409589978 8.1403852441 5.4789897149 
Si 7.0026775709 6.8934994303 1.0450741457 
Si 9.2239812398 10.0901971959 4.2284027654 
Si 2.4621778746 6.4931223658 0.7826571844 
Si 5.0217868067 8.7238344290 10.6964432315 

