&CONTROL
   calculation      = 'scf'
   tstress          = .true.
   tprnfor          = .true.
   outdir           = './'
   disk_io          = 'none'
   pseudo_dir       = '/home/ppiaggi/pseudos'
/
&SYSTEM
   ecutwfc          = 30
   occupations      = 'smearing'
   degauss          = 0.01
   smearing         = 'fermi-dirac'
   input_dft        = 'PBE'
   ntyp             = 1
   nat              = 64
   ibrav            = 0
/
&ELECTRONS
   electron_maxstep = 100
   mixing_beta      = 0.5
/
&IONS
/
&CELL
/

ATOMIC_SPECIES
Si 28.085 Si_ONCV_PBE_sr.upf

K_POINTS gamma

CELL_PARAMETERS angstrom
10.86808846188777 0.00000000000000 0.00000000000000
0.00000000000000 10.86808846188777 0.00000000000000
0.00000000000000 0.00000000000000 10.86808846188777

ATOMIC_POSITIONS angstrom
Si 1.0740268873 0.5604771033 0.9447509751 
Si 1.5150876082 8.9369052188 6.3857410014 
Si 6.0840319976 10.8548728663 3.9453008692 
Si 4.5846270410 2.2674853724 2.2278820581 
Si 0.6181920870 7.6977909809 9.9882514924 
Si 7.0204808399 1.7774649999 5.6449829599 
Si 5.4235673937 9.9044259261 6.3584947036 
Si 3.2286265117 8.7329003303 1.4491835198 
Si 8.7804808216 3.5365085898 0.3236668897 
Si 5.5678521361 2.9681619036 9.2722726926 
Si 1.1177068217 9.4777882454 2.4709794608 
Si 9.9651676725 2.3534302160 6.2279363569 
Si 10.2656051099 10.6896453174 10.4517102567 
Si 0.7762130065 2.9612063270 4.6273277606 
Si 5.2104876513 5.7261023722 6.5402960874 
Si 4.3948158760 6.8662409285 8.9075396438 
Si 3.3468061057 9.7652383171 7.6382881966 
Si 7.0406846164 7.0104821985 9.3065615117 
Si 7.5362694502 8.5182121108 1.0715359215 
Si 0.6784154256 7.0114168541 3.3563156831 
Si 9.1864691342 0.0116561336 4.7902621428 
Si 6.7137942516 6.1531747764 1.7621627313 
Si 0.9225235606 6.8071076591 5.8596059708 
Si 1.0419877626 4.7432793964 0.7346599570 
Si 0.0701723128 9.0630511216 8.0174975392 
Si 5.4670071432 10.1082460571 0.6454829440 
Si 2.9014101043 8.4205840722 9.5984892359 
Si 8.9547397520 5.8298817489 10.5214725166 
Si 10.0672950998 8.6580192008 1.0314707134 
Si 2.8503735609 5.5053280232 6.9770628265 
Si 0.0061393288 5.3466647997 9.3110391641 
Si 5.9596249890 9.5158591593 9.1361933570 
Si 2.0342670621 0.9423665165 4.5129954700 
Si 8.3094361315 0.4712446629 1.2974650048 
Si 10.6306207290 2.9149517425 8.5462083067 
Si 3.0435973057 6.0462110497 2.2802662445 
Si 9.7418393227 6.2413693142 1.9303029279 
Si 3.5374323773 3.6455698575 0.2407672845 
Si 9.1019914826 4.6148294589 6.6639966703 
Si 7.7803015085 9.2776306602 3.4286971522 
Si 4.4372883658 3.6092813101 4.3456269077 
Si 6.5748892130 7.7519901381 5.2179105557 
Si 0.1096296687 2.6726694465 1.8340551365 
Si 1.1471050010 0.3760543365 8.7548647371 
Si 6.8951500438 0.6158326250 8.0846731940 
Si 8.5211790990 1.8127971554 3.2162803632 
Si 2.2843961181 3.9030566093 8.7618746542 
Si 7.1001656645 3.7322863353 2.3819372120 
Si 6.2741257329 1.6756636152 0.5496753101 
Si 3.1482569976 1.2357559986 10.7472353182 
Si 4.0236706551 1.3971579803 5.8776469977 
Si 3.5337372272 0.1859269102 2.8327129171 
Si 9.8204482065 6.6958184333 7.4419235743 
Si 5.1152831964 5.9559407070 3.8112429980 
Si 9.2393641207 10.6824180386 7.2645237663 
Si 7.2011628106 4.2644422869 5.0231544105 
Si 3.3396983758 1.6242684249 8.2420648511 
Si 0.5616030372 9.9997607980 4.6714630678 
Si 2.2458470083 4.5997336840 4.4052601091 
Si 4.6116559770 5.6593179686 0.2608167341 
Si 8.0283221553 8.2699523661 7.3960167686 
Si 8.7280966352 1.8841026838 9.3612823371 
Si 6.8908028084 4.9036706459 8.1278738456 
Si 8.3581360359 6.4566118062 4.0699687119 

