&CONTROL
   calculation      = 'scf'
   tstress          = .true.
   tprnfor          = .true.
   outdir           = './'
   disk_io          = 'none'
   pseudo_dir       = '/home/ppiaggi/pseudos'
/
&SYSTEM
   ecutwfc          = 30
   occupations      = 'smearing'
   degauss          = 0.01
   smearing         = 'fermi-dirac'
   input_dft        = 'PBE'
   ntyp             = 1
   nat              = 64
   ibrav            = 0
/
&ELECTRONS
   electron_maxstep = 100
   mixing_beta      = 0.5
/
&IONS
/
&CELL
/

ATOMIC_SPECIES
Si 28.085 Si_ONCV_PBE_sr.upf

K_POINTS gamma

CELL_PARAMETERS angstrom
10.77163858845128 0.00000000000000 0.00000000000000
0.00000000000000 10.77163858845128 0.00000000000000
0.00000000000000 0.00000000000000 10.77163858845128

ATOMIC_POSITIONS angstrom
Si 6.7645351754 8.3786544462 7.3068548634 
Si 7.3208041353 7.7010106626 1.5113147522 
Si 5.4721755208 0.8345014619 2.8418598655 
Si 5.5087775487 3.6895339642 1.0570596726 
Si 3.3599110518 6.6667179253 6.2875777903 
Si 10.6885246251 7.5143597091 4.5088140236 
Si 4.9857821803 1.2142975897 9.8946440895 
Si 1.7789253412 1.3513128326 1.0456557388 
Si 0.9453093080 4.8893437000 1.5276876428 
Si 3.6674736484 2.2816161709 2.0633073716 
Si 1.7717945165 4.0086760723 5.7423820748 
Si 7.7791589006 7.7640139767 4.8759222384 
Si 7.3215473784 3.7891069913 2.7036705141 
Si 0.2745755306 8.0962113108 7.0952244800 
Si 6.1454783340 7.3989416017 3.3566364737 
Si 9.6638617327 3.6825000842 4.1173080475 
Si 3.5548992535 9.2044513469 2.9991042456 
Si 0.8516240586 10.0813489011 2.4297262015 
Si 8.2612759005 10.7414349138 3.7267715188 
Si 3.4642774581 5.0415038667 1.8469374673 
Si 0.6270946380 3.4008755933 9.6648634951 
Si 2.1849083996 5.6544208741 9.8957427966 
Si 3.5504290235 6.7362811673 3.9064424505 
Si 1.8971440748 9.1237071441 0.3259099286 
Si 0.6112775639 7.3093861984 10.5422780880 
Si 2.3229900347 7.9167450402 8.2581198104 
Si 5.3707390002 1.6308907121 5.4901533856 
Si 10.3796909751 5.7576131717 7.5803898537 
Si 9.4751318530 8.8459496714 2.5829635320 
Si 10.5192483247 2.9631054295 7.1685470239 
Si 3.0503233871 1.3104344641 6.5828822622 
Si 9.9246754179 6.3632270081 1.8178109565 
Si 9.0476916906 5.5894355785 5.6151474798 
Si 5.1419493966 6.3117816622 7.7710801716 
Si 0.8976932797 0.8425403358 5.9831389689 
Si 6.9888545490 6.1344158612 10.6096439157 
Si 5.4773782222 4.9219279068 3.8769173891 
Si 5.2679775681 3.3768117527 7.3197054282 
Si 4.0677369667 9.5399771173 6.6416738656 
Si 7.6300686509 2.4066425800 5.1267075280 
Si 8.2247277308 1.2023087560 1.6568072746 
Si 6.2038821585 2.9602940318 9.6882487225 
Si 5.7821294212 9.8174868423 4.6628592271 
Si 10.3610668120 2.6365093475 1.7812627868 
Si 8.2708949738 9.8013724710 0.1906870864 
Si 10.3478069249 10.6543785308 7.7026048651 
Si 5.9755665069 10.4476707863 0.6930386095 
Si 1.8749006411 9.2322206312 5.0318524786 
Si 4.4049646560 8.4462033918 0.9991825813 
Si 4.6978024227 6.3984825812 10.2377100069 
Si 8.7078357215 4.5152554635 0.8077544061 
Si 6.5336343306 5.0478699052 6.0804499519 
Si 8.3855159800 1.6168121805 7.3734235898 
Si 6.2609826146 0.1078057905 7.8248952780 
Si 10.0834709140 0.8183547756 10.0949857956 
Si 2.6569539175 1.8953775260 9.2715694270 
Si 8.7223558903 2.9490915277 9.8613489546 
Si 9.1837590292 7.1050913010 9.6501817517 
Si 3.7350118224 3.1603018171 4.3417997673 
Si 10.5203685751 0.9462625981 3.9644154094 
Si 1.8849074933 10.4989437859 8.9888785439 
Si 1.3833261424 5.5544600680 3.9427644158 
Si 3.0435695697 4.3226908805 7.8527399638 
Si 8.8607283596 9.0347549526 8.4871787050 

