&CONTROL
   calculation      = 'scf'
   tstress          = .true.
   tprnfor          = .true.
   outdir           = './'
   disk_io          = 'none'
   pseudo_dir       = '/home/ppiaggi/pseudos'
/
&SYSTEM
   ecutwfc          = 30
   occupations      = 'smearing'
   degauss          = 0.01
   smearing         = 'fermi-dirac'
   input_dft        = 'PBE'
   ntyp             = 1
   nat              = 64
   ibrav            = 0
/
&ELECTRONS
   electron_maxstep = 100
   mixing_beta      = 0.5
/
&IONS
/
&CELL
/

ATOMIC_SPECIES
Si 28.085 Si_ONCV_PBE_sr.upf

K_POINTS gamma

CELL_PARAMETERS angstrom
10.65576718176882 0.00000000000000 0.00000000000000
0.00000000000000 10.65576718176882 0.00000000000000
0.00000000000000 0.00000000000000 10.65576718176882

ATOMIC_POSITIONS angstrom
Si 0.2337917943 5.5826629842 1.0521174186 
Si 0.1060918017 1.0862382507 9.7907320020 
Si 8.1677627583 5.1340978089 1.4612999440 
Si 6.1212374249 8.1443520378 9.2289706119 
Si 4.4104220365 5.4732282552 7.2779102967 
Si 7.9282211120 8.2195817541 5.3755574933 
Si 8.7958562990 3.9724060708 4.9093783348 
Si 10.5011946230 6.7803392481 9.5457132914 
Si 5.1637741205 4.8304936904 0.7828301983 
Si 4.3163422681 2.4305165596 10.3233285572 
Si 2.8036708705 6.3938439167 5.4241797589 
Si 3.5125351265 4.2478576524 4.3093733963 
Si 2.9231646437 2.9953041875 2.1735633897 
Si 3.9353453125 8.3227722035 10.3148465666 
Si 3.8444835857 9.1242563878 5.9021868189 
Si 10.2721275959 9.7217252537 1.7413867844 
Si 9.0150347742 8.3883264832 7.9844622512 
Si 3.1228963437 0.0494868746 10.3925377651 
Si 7.4411566499 3.5775246505 8.6035516687 
Si 0.3480589136 4.7447893549 8.0633682072 
Si 4.5349240203 10.0775213199 1.6705792115 
Si 4.4530557610 7.3719687536 3.6057624336 
Si 1.0453360884 1.0801111846 1.3789095522 
Si 1.0526566005 9.1842163897 9.8787806062 
Si 1.2001484019 7.7788698792 1.6270717141 
Si 3.9519043747 2.8981555581 6.0832815822 
Si 6.5094163675 0.0623531807 0.1523455034 
Si 10.0477917294 2.9894541713 1.6313020536 
Si 9.9978268371 0.2478701939 3.8949706107 
Si 0.0692770851 0.9175787678 6.8881329889 
Si 8.8443400397 9.9687685600 10.2160249817 
Si 2.3535819205 3.5130572591 8.3710108615 
Si 8.4297987290 10.5975334141 7.4032540860 
Si 2.5115962920 0.2148735452 3.5789418676 
Si 8.2574630064 2.0568827391 2.8958539124 
Si 9.5716281172 3.1297373463 9.7718180152 
Si 1.7204055788 8.7513045364 3.9551437279 
Si 2.2147479299 1.2300697962 8.0273730256 
Si 7.4490419176 5.7862307604 5.4077805332 
Si 9.4300875617 6.3628036669 3.3058984893 
Si 5.7487437715 5.0780910966 3.1328594860 
Si 1.6054511624 8.6363501201 7.3295374887 
Si 5.8400317289 7.5005412404 6.9380765697 
Si 1.2002762711 1.7327556130 4.6375603698 
Si 4.9103693212 1.7343006992 2.3559581566 
Si 4.2901930154 0.1793269715 7.7430665015 
Si 5.7807856634 5.6227286688 9.2015746345 
Si 6.5705485039 2.8636521840 4.0762145546 
Si 0.9835624749 4.1858197759 3.7428488784 
Si 8.2049513857 6.8281623312 10.4066779681 
Si 10.4415436383 8.4466028739 5.6159622566 
Si 6.1774039737 3.7161881489 6.4198439886 
Si 2.7013328825 6.2383016831 8.9415206364 
Si 9.2846789627 2.7563272969 6.8982879351 
Si 0.3862022979 5.7642905358 5.6587238503 
Si 6.4554981856 9.1848024569 3.3478715562 
Si 6.2257278779 1.2646690722 8.4915275883 
Si 3.4336398263 6.8892305330 1.5685395849 
Si 2.3938713762 4.6920433074 0.2891058817 
Si 8.4017847171 5.7169895853 7.7922854901 
Si 7.5738102956 0.1364780005 4.9878367486 
Si 8.1012281480 8.3115623364 1.8930929417 
Si 4.7893198060 0.5764897915 5.0960140970 
Si 6.8253492087 2.4124763457 0.8645002603 

