&CONTROL
   calculation      = 'scf'
   tstress          = .true.
   tprnfor          = .true.
   outdir           = './'
   disk_io          = 'none'
   pseudo_dir       = '/home/ppiaggi/pseudos'
/
&SYSTEM
   ecutwfc          = 30
   occupations      = 'smearing'
   degauss          = 0.01
   smearing         = 'fermi-dirac'
   input_dft        = 'PBE'
   ntyp             = 1
   nat              = 64
   ibrav            = 0
/
&ELECTRONS
   electron_maxstep = 100
   mixing_beta      = 0.5
/
&IONS
/
&CELL
/

ATOMIC_SPECIES
Si 28.085 Si_ONCV_PBE_sr.upf

K_POINTS gamma

CELL_PARAMETERS angstrom
10.71167618395281 0.00000000000000 0.00000000000000
0.00000000000000 10.71167618395281 0.00000000000000
0.00000000000000 0.00000000000000 10.71167618395281

ATOMIC_POSITIONS angstrom
Si 6.9009652465 7.7007418371 5.5924161722 
Si 8.2632869352 3.1354682942 2.5690669926 
Si 8.3187841295 9.7397415337 5.3224176623 
Si 9.1873618163 5.2467182467 4.2433876736 
Si 2.2617382912 1.9046967006 5.5447492132 
Si 3.8282459514 5.4455698034 9.6224272562 
Si 8.7983672957 1.6941694169 5.3725161718 
Si 3.2587382637 9.7701734058 0.4109630973 
Si 5.4449913729 9.8209574626 9.5959372810 
Si 2.7563178040 9.1764144832 8.3501050707 
Si 10.5965899350 1.1307031146 6.9003546809 
Si 0.2338112542 7.6363003932 0.8140327604 
Si 8.4445284963 5.4712242678 9.3973856512 
Si 7.9237160885 3.9918560934 5.9751229389 
Si 7.6983102866 2.1411569524 8.9170633794 
Si 4.7059714096 9.9508900947 5.2865335471 
Si 5.5908415558 10.2274334387 1.2517129205 
Si 6.8859581881 4.2697062620 7.9964805048 
Si 8.7590447324 8.7812071904 7.0895121707 
Si 3.4985405584 0.4538987090 7.1452771569 
Si 4.6128333852 1.9943427186 5.8014545329 
Si 9.0198526241 0.0222872491 8.3443314772 
Si 4.1521884625 8.2491046760 3.5386557857 
Si 4.5047418608 3.1815927718 10.6463242476 
Si 2.1707747371 4.2401527474 2.6802327680 
Si 10.4333011433 3.0499569832 2.0939291721 
Si 0.6576701385 0.2291709561 9.0818518059 
Si 7.5152477406 10.1409045185 2.8853720786 
Si 7.3291966370 6.4370639743 0.5710415997 
Si 6.7763563174 2.9700050322 4.2469011034 
Si 2.2807408048 5.9777901462 4.3528824275 
Si 0.4539297728 3.1536674320 4.3141168714 
Si 5.3512320712 9.2013726887 7.2917807521 
Si 6.2187278787 1.6492446470 0.1672371156 
Si 9.7229563371 8.9646553567 9.7701626941 
Si 4.6179964131 3.1417560481 7.8010781079 
Si 5.2207959903 7.6270562166 1.0652290651 
Si 10.3047717408 0.7762773154 2.0381213392 
Si 4.0876291902 6.5518717196 6.4860056228 
Si 10.2423440920 3.2492370069 7.7842500646 
Si 1.6673366681 9.9985463420 5.8294869895 
Si 9.7131337301 4.5309319091 0.2329382526 
Si 1.8184998424 0.9305404488 0.8744134079 
Si 1.3639819986 8.4258151980 4.4762809372 
Si 1.5088038606 6.8770889203 9.8898442521 
Si 1.9835667724 6.3791673645 7.5806960821 
Si 5.0038202775 7.4220454461 9.0722434323 
Si 1.2171891881 4.1673026376 6.4859306411 
Si 8.5900251939 1.7874788282 0.5576487910 
Si 7.0504895343 7.8763062097 2.5139554186 
Si 0.1868384118 5.1874184073 9.0322674568 
Si 10.5035911624 10.6085334540 4.2993668933 
Si 3.9143464045 2.2687115924 1.8989766656 
Si 1.7955018736 8.6276124656 2.0027192494 
Si 6.0976109560 3.4123544119 1.8721974751 
Si 0.1139765193 2.4816061566 10.1087159316 
Si 5.7249303182 6.3893434569 3.6746940733 
Si 10.5330589836 6.6688432236 6.5864490104 
Si 7.6598875041 8.1033830332 9.1420085793 
Si 9.5562505207 7.5597761785 4.5152285918 
Si 9.0530481086 9.9189692996 1.1290320931 
Si 0.6208198301 8.4610459009 7.6813537032 
Si 9.5882355858 6.1279999814 2.1517400885 
Si 3.8208441831 5.6937379172 2.2870499820 

