&CONTROL
   calculation      = 'scf'
   tstress          = .true.
   tprnfor          = .true.
   outdir           = './'
   disk_io          = 'none'
   pseudo_dir       = '/home/ppiaggi/pseudos'
/
&SYSTEM
   ecutwfc          = 30
   occupations      = 'smearing'
   degauss          = 0.01
   smearing         = 'fermi-dirac'
   input_dft        = 'PBE'
   ntyp             = 1
   nat              = 64
   ibrav            = 0
/
&ELECTRONS
   electron_maxstep = 100
   mixing_beta      = 0.5
/
&IONS
/
&CELL
/

ATOMIC_SPECIES
Si 28.085 Si_ONCV_PBE_sr.upf

K_POINTS gamma

CELL_PARAMETERS angstrom
11.27515306580468 0.00000000000000 0.00000000000000
0.00000000000000 11.27515306580468 0.00000000000000
0.00000000000000 0.00000000000000 11.27515306580468

ATOMIC_POSITIONS angstrom
Si 10.4501275657 4.5483516461 6.9906512766 
Si 8.5515721918 6.3249436893 1.2315624191 
Si 8.3039360051 9.9203870492 4.3485559338 
Si 8.0820860933 5.0539520599 3.7826447263 
Si 9.9635145097 2.0073718761 5.9141560376 
Si 2.2504190756 5.2311636406 9.9928073573 
Si 10.7833083388 2.3358058097 0.5879924673 
Si 2.8475511819 9.5919531155 11.2093625477 
Si 6.6542458097 9.9405921235 2.8051791567 
Si 3.5155476253 0.4691185285 0.1849959464 
Si 11.2106253648 1.4781612918 9.6456228441 
Si 0.8018606982 7.3791028500 0.0335700770 
Si 6.2457470141 3.6463168506 7.4449271936 
Si 10.4573774891 2.2967599547 3.5547738828 
Si 7.2838841823 2.6472819132 10.6008538119 
Si 8.0821537443 5.0039354809 6.2936213140 
Si 4.9322029571 2.0735570246 1.3075682259 
Si 9.1547590554 3.0822322178 8.9524828094 
Si 7.4133567650 9.1930833007 6.6439515949 
Si 2.8545981526 1.7080842131 9.4071195313 
Si 5.1269925015 1.5444591918 8.1259464388 
Si 9.4474845793 7.0129197039 7.0521685117 
Si 4.4029472722 10.1567819084 5.8766999791 
Si 3.6754180206 4.5529068080 1.0516436741 
Si 1.3001040746 7.0790710269 2.2125345613 
Si 2.6959003732 2.2417935835 1.8224480906 
Si 10.6188602313 10.3277583295 10.7442399334 
Si 7.5589866420 1.3018517233 3.0076921809 
Si 5.1142966791 8.4441650837 1.3197002906 
Si 8.3576395591 2.8865181109 4.5173449752 
Si 3.5491701317 3.8475783328 6.8639862070 
Si 3.8504647720 3.0411568352 3.8434516268 
Si 1.6295076714 8.8745715017 6.9223012987 
Si 5.6588414716 4.1934098276 11.2527493367 
Si 10.1719808147 8.5833117477 0.9072078358 
Si 4.3707905357 3.7549980510 9.1972776576 
Si 3.2247952532 7.3383206213 10.5673666073 
Si 10.6905476545 9.2572050962 3.6557654288 
Si 6.0027110898 10.4606923841 8.1553633131 
Si 1.8919030335 5.1082080965 4.1029267243 
Si 2.9026415798 10.7528879758 4.3255658967 
Si 9.2971755138 4.1035694080 11.0879629746 
Si 1.9678524646 9.3937697501 2.2787197098 
Si 2.9257669187 7.0880347736 4.3956184227 
Si 1.5819265254 4.7700098803 7.5235150105 
Si 4.2170989242 8.1897299797 8.0346966250 
Si 5.2136758782 6.1247307963 8.9343636384 
Si 1.8545935520 2.7582294193 4.9576735279 
Si 8.7813259859 3.2546744088 2.1655735487 
Si 7.2662047423 7.7551292047 4.0035136997 
Si 10.3900309998 5.1813387392 4.5144472609 
Si 1.0748896572 0.5206549982 5.3032795197 
Si 4.3512619705 5.1676281531 4.5580708281 
Si 1.0769067820 3.8923519656 1.7487085896 
Si 5.8694613309 3.4001238834 3.2307034334 
Si 1.2811730926 3.0688598863 10.1984548741 
Si 3.9547148372 6.4695249770 2.1234834023 
Si 11.2678016660 7.1595530695 8.3384943492 
Si 7.9361066866 8.0777564346 10.8692137300 
Si 11.0453879966 7.7029816218 5.1867959133 
Si 9.9125057172 0.0853365597 1.5628715168 
Si 1.5020646163 10.8923503441 9.8959199670 
Si 7.3259856039 5.8060949706 9.7893246699 
Si 4.7787255736 9.1489523516 3.8484577947 

