&CONTROL
   calculation      = 'scf'
   tstress          = .true.
   tprnfor          = .true.
   outdir           = './'
   disk_io          = 'none'
   pseudo_dir       = '/home/ppiaggi/pseudos'
/
&SYSTEM
   ecutwfc          = 30
   occupations      = 'smearing'
   degauss          = 0.01
   smearing         = 'fermi-dirac'
   input_dft        = 'PBE'
   ntyp             = 1
   nat              = 64
   ibrav            = 0
/
&ELECTRONS
   electron_maxstep = 100
   mixing_beta      = 0.5
/
&IONS
/
&CELL
/

ATOMIC_SPECIES
Si 28.085 Si_ONCV_PBE_sr.upf

K_POINTS gamma

CELL_PARAMETERS angstrom
11.39890019615506 0.00000000000000 0.00000000000000
0.00000000000000 11.39890019615506 0.00000000000000
0.00000000000000 0.00000000000000 11.39890019615506

ATOMIC_POSITIONS angstrom
Si 9.7654150002 6.0356720583 7.8935560034 
Si 9.2877554864 5.2290174870 1.5323313556 
Si 8.8336574993 10.3220232968 4.3811558915 
Si 8.3088179376 6.0996882818 3.6989545126 
Si 0.1310839326 2.7763959241 7.2758040062 
Si 3.3157576847 5.3958289925 9.1524049455 
Si 10.6062206765 2.0114271308 1.9748822568 
Si 2.8392380609 9.0434656563 0.4022113333 
Si 7.3613299544 9.8307534962 1.4030792262 
Si 3.2688740082 11.3673822371 10.9368457767 
Si 10.9732082683 1.6600902290 9.6875491130 
Si 1.7614492495 7.5165601772 10.1752054623 
Si 6.6571628948 4.7942406357 8.8042255390 
Si 10.0377005292 3.5175182181 3.5373295067 
Si 6.7601405591 1.5968605296 10.2906535235 
Si 9.5119376566 3.5116021889 6.3867125887 
Si 5.7621554481 11.2978603448 0.7701723912 
Si 8.2150277868 2.7184553144 8.7603169754 
Si 7.5729961321 10.5647400787 6.8772870564 
Si 3.6072161638 1.2109507634 8.8400522823 
Si 5.0388382361 11.3199628123 7.4423761348 
Si 9.6546974826 8.1953646839 6.2965586871 
Si 5.4224112277 9.3664648923 5.9420528910 
Si 3.9739529798 4.8005556264 0.9824233325 
Si 2.6476795431 6.2090949258 2.7836798213 
Si 1.4910217413 2.7986009817 1.3483075108 
Si 10.9208645186 11.3515149680 0.0885141699 
Si 6.8919574410 0.5629939605 3.0005894931 
Si 5.5242148054 7.1978697256 1.2790591921 
Si 7.8920057530 2.2975167279 4.4293276437 
Si 3.1658393493 4.1423147357 7.2354518995 
Si 2.8851414319 3.6174295783 3.2228794459 
Si 1.7291333675 10.5236470435 6.3071026697 
Si 6.1479284274 3.9040435249 11.3652050472 
Si 11.1468705128 8.7405170858 10.9717948047 
Si 4.9037498699 3.1071122155 9.1159626616 
Si 3.8708385286 6.6943347083 10.8081293957 
Si 11.0294960375 9.5824056576 3.1570849939 
Si 5.3033497152 9.3145656997 8.4825143788 
Si 1.0155622152 4.8428113494 4.4434850778 
Si 2.0192239785 8.9391885173 4.5173499510 
Si 9.5201106680 4.7075747975 9.9521175866 
Si 1.0382289282 8.4128670986 1.7727227618 
Si 3.0839382514 6.8313266909 5.0862120653 
Si 1.5135345691 6.2346854568 7.1794035072 
Si 3.0220764200 8.7360487169 7.7273372408 
Si 5.1589484475 7.0832765819 8.7016240383 
Si 2.1412264073 3.1412633205 5.4689643361 
Si 8.2278059539 2.7979284465 0.7285379082 
Si 7.5795391008 8.5261607676 4.2628239086 
Si 10.2840649592 5.7544611904 5.3825150770 
Si 0.6443251134 1.2384791074 5.6663248941 
Si 4.4233432211 5.0062943760 4.9161974689 
Si 0.2973403116 6.0852458752 2.4430008911 
Si 6.5956772271 3.9535603473 3.0051148565 
Si 11.1781376961 3.5505636298 0.0331612245 
Si 5.1646364987 6.8253650661 3.5278000261 
Si 0.6384147836 8.5172924233 8.2153583549 
Si 8.0997507091 7.5268761819 1.7972645939 
Si 0.2262795678 7.7085860500 5.3394272343 
Si 9.2661203739 0.2047082891 1.7162184135 
Si 1.1811426394 10.7853087975 9.9884800782 
Si 6.9192236103 5.8549538946 11.0926459446 
Si 4.8370321070 9.3021067018 3.5660547352 

