&CONTROL
   calculation      = 'scf'
   tstress          = .true.
   tprnfor          = .true.
   outdir           = './'
   disk_io          = 'none'
   pseudo_dir       = '/home/ppiaggi/pseudos'
/
&SYSTEM
   ecutwfc          = 30
   occupations      = 'smearing'
   degauss          = 0.01
   smearing         = 'fermi-dirac'
   input_dft        = 'PBE'
   ntyp             = 1
   nat              = 64
   ibrav            = 0
/
&ELECTRONS
   electron_maxstep = 100
   mixing_beta      = 0.5
/
&IONS
/
&CELL
/

ATOMIC_SPECIES
Si 28.085 Si_ONCV_PBE_sr.upf

K_POINTS gamma

CELL_PARAMETERS angstrom
11.24269581321355 0.00000000000000 0.00000000000000
0.00000000000000 11.24269581321355 0.00000000000000
0.00000000000000 0.00000000000000 11.24269581321355

ATOMIC_POSITIONS angstrom
Si 10.1817450947 3.9976552919 6.6089737630 
Si 8.3317145279 6.5233381490 1.1315773336 
Si 8.4945200059 9.5842295403 4.5376869426 
Si 7.8195647628 5.2977493930 3.4678994652 
Si 10.0532073535 1.8120302550 5.9218201949 
Si 1.9837736762 5.3927951434 10.3913089447 
Si 0.0361764093 2.3313303746 0.5501826807 
Si 2.7757991109 9.4858559520 0.5460779725 
Si 6.6392728282 10.2970389403 2.3314990150 
Si 3.5654523367 0.5206717285 0.1285354927 
Si 10.6061343763 1.2429137502 9.4160612964 
Si 0.6223405510 7.1185152227 11.0519297507 
Si 6.3744960991 3.4503721024 7.0249647508 
Si 10.6689698032 2.0633045064 3.2527255100 
Si 7.6001635540 2.7878175527 10.4106238961 
Si 7.7890520864 5.0793712695 6.4356001509 
Si 4.9612779927 2.1780587026 1.4581326762 
Si 9.3947001743 3.0491090461 8.5104958767 
Si 7.6245714466 9.0694377417 6.5971239616 
Si 3.2199305663 1.5297936193 9.3725408209 
Si 5.0841943860 1.8844669441 8.2487996462 
Si 8.9425751622 7.1481846969 7.2365410433 
Si 4.1125106723 10.0354888649 6.3789594494 
Si 3.6790822633 4.2518976150 0.9385661047 
Si 1.1471147392 7.4071264669 2.5126300873 
Si 2.4680415557 2.0312628234 2.1249594503 
Si 10.3536346710 10.4256553804 10.6297890083 
Si 7.7901763559 0.9066154875 2.8191509459 
Si 5.1718536853 8.4421178008 1.7341745865 
Si 8.0366612189 2.7753269177 4.7660373372 
Si 4.1164118877 4.1222243615 6.8161878895 
Si 3.8239219135 2.7724375448 4.2993193059 
Si 2.0072933959 8.5475855302 7.1849595549 
Si 5.8607948420 5.0253501162 10.8186550552 
Si 9.6446815157 8.3462400909 1.1326116616 
Si 4.1771561732 3.9044421009 9.3602975251 
Si 2.9860037945 7.5881563549 10.1286345997 
Si 10.7073748521 9.2527049262 3.6801390767 
Si 5.8643700193 10.6008952800 7.8447596441 
Si 2.0741087371 4.5917418240 3.7038948930 
Si 2.9385596182 10.7076896476 4.1812822426 
Si 9.3028361068 3.9653100560 0.1182517988 
Si 2.0455972605 9.5373474988 2.6402796556 
Si 2.5920260051 7.3279329176 4.2461525974 
Si 1.3698437860 4.2053416116 7.9002985614 
Si 4.5285466309 8.3958765929 7.9246839686 
Si 5.1947775421 6.0074558089 8.6264867694 
Si 1.5626110484 2.6318363910 4.9323955072 
Si 8.8705544528 3.5653848805 2.2581291822 
Si 7.0885759237 7.7771460715 3.7399614611 
Si 10.6170060631 4.9986037428 4.4660035141 
Si 0.9085694680 0.4878486781 5.0730079037 
Si 4.5688292100 5.3923341929 4.1200770066 
Si 0.9203911626 4.1155124721 1.9546326087 
Si 6.1074146174 3.2812032585 3.3643542367 
Si 1.4698138371 3.2154784588 10.1242162202 
Si 3.6090402684 6.6284910829 2.0328480435 
Si 0.3315324840 6.7474612900 8.3204381040 
Si 7.9188939803 8.2707678739 10.7420023552 
Si 10.8036460563 7.1145577937 5.4582613611 
Si 10.0956148021 0.5389006355 1.5608122171 
Si 1.4704996416 10.9678905995 9.8284433788 
Si 7.6645167448 5.7906853909 9.7484515981 
Si 4.6124621124 9.1406377343 3.8585044458 

