&CONTROL
   calculation      = 'scf'
   tstress          = .true.
   tprnfor          = .true.
   outdir           = './'
   disk_io          = 'none'
   pseudo_dir       = '/home/ppiaggi/pseudos'
/
&SYSTEM
   ecutwfc          = 30
   occupations      = 'smearing'
   degauss          = 0.01
   smearing         = 'fermi-dirac'
   input_dft        = 'PBE'
   ntyp             = 1
   nat              = 64
   ibrav            = 0
/
&ELECTRONS
   electron_maxstep = 100
   mixing_beta      = 0.5
/
&IONS
/
&CELL
/

ATOMIC_SPECIES
Si 28.085 Si_ONCV_PBE_sr.upf

K_POINTS gamma

CELL_PARAMETERS angstrom
10.66423984787774 0.00000000000000 0.00000000000000
0.00000000000000 10.66423984787774 0.00000000000000
0.00000000000000 0.00000000000000 10.66423984787774

ATOMIC_POSITIONS angstrom
Si 7.3339470427 7.6830196057 5.3813673836 
Si 7.9509053107 3.3436550977 2.8256503113 
Si 9.0160389224 10.0232550476 4.8356355736 
Si 9.1326310567 4.9741107280 4.5080087970 
Si 2.4449049560 2.0179727779 5.2673879881 
Si 3.2994411593 5.2500372698 9.6092799209 
Si 8.8167029512 1.6398294972 5.3092771222 
Si 3.4735881960 10.1069480019 0.0798166098 
Si 5.3123484233 10.2719451208 9.3308792755 
Si 2.4082732921 8.9307463321 8.8426277183 
Si 0.0631720775 0.9228129325 6.7626317214 
Si 10.6551432513 7.9578264023 1.2179308403 
Si 8.3501851148 5.5883816075 9.3678202023 
Si 8.3608813474 3.6149853521 6.3561322269 
Si 7.9553416344 2.1525554848 8.9101963419 
Si 3.9736344024 9.8385610777 5.3214236914 
Si 5.7108497379 10.3493888306 1.3836104706 
Si 6.5895297802 4.2793141734 7.9523449830 
Si 8.9789380320 8.3967665145 6.9125389409 
Si 3.5410715057 0.3361251093 7.9632331719 
Si 4.5566697234 2.1535472591 6.1509202595 
Si 8.8900196001 10.6428687112 8.3535976716 
Si 3.4888700517 8.1294780069 3.5820435152 
Si 4.5412598968 3.2445096598 10.4750242403 
Si 2.6087076801 4.1614316662 3.2923920967 
Si 10.3808483382 2.8953304545 2.1578876047 
Si 0.6888256467 10.6422608496 9.0880438699 
Si 7.3730314818 10.3405161831 2.7738327699 
Si 7.1868125256 6.5017844147 0.3117829155 
Si 6.4774806121 3.0427529061 4.4191330221 
Si 1.7782300019 6.0497806087 4.1421187278 
Si 0.4093489794 2.9450684691 4.7055318474 
Si 5.9524587559 8.3278008754 7.1731729628 
Si 6.1508456098 1.3957996967 10.2944786596 
Si 9.8143959102 8.6387061239 9.3330974373 
Si 4.4606169151 3.4539553304 7.8331081173 
Si 5.0791641547 7.9533154289 0.9537765529 
Si 10.5009383431 0.2898743011 1.9388227898 
Si 3.6483430944 6.3325962495 5.3370148100 
Si 9.8047234446 3.0688269725 8.0229955720 
Si 1.7303049080 10.0946627976 6.0295932027 
Si 9.7515622090 4.2603851477 0.4707248790 
Si 1.9041426818 0.9794059205 1.1465444188 
Si 0.8989325002 8.5540320595 3.7618959203 
Si 2.1607029641 7.2305359089 10.4058346521 
Si 2.5934578171 6.1114199151 7.4892503676 
Si 4.3906914944 7.6080926565 9.3059996039 
Si 1.3554248847 3.5764981105 6.6907334163 
Si 8.7303439369 1.9703036258 0.4725346005 
Si 7.2762321767 7.9956951180 2.2952536782 
Si 0.0063832621 5.5532429372 9.0017275126 
Si 0.5361286620 0.1044678533 4.0565701957 
Si 3.3294609944 2.4647724348 2.0221851527 
Si 2.0484085185 9.5073724449 1.8420448132 
Si 5.4223287288 3.3403171906 1.6656262934 
Si 1.0434169537 2.3833296351 9.9304228397 
Si 5.6571659545 6.5951711630 4.2878668938 
Si 10.6377925331 5.8524068576 5.9797698741 
Si 7.3084381810 7.4278030176 8.6438889445 
Si 9.5397170844 7.7199925252 4.6637280272 
Si 8.7142729275 9.6680718752 0.8928058944 
Si 0.7656945539 8.1467540755 7.4658316969 
Si 8.9478944298 6.5511705094 2.3225754607 
Si 3.9570515095 5.8938374294 2.1265454038 

