&CONTROL
   calculation      = 'scf'
   tstress          = .true.
   tprnfor          = .true.
   outdir           = './'
   disk_io          = 'none'
   pseudo_dir       = '/home/ppiaggi/pseudos'
/
&SYSTEM
   ecutwfc          = 30
   occupations      = 'smearing'
   degauss          = 0.01
   smearing         = 'fermi-dirac'
   input_dft        = 'PBE'
   ntyp             = 1
   nat              = 64
   ibrav            = 0
/
&ELECTRONS
   electron_maxstep = 100
   mixing_beta      = 0.5
/
&IONS
/
&CELL
/

ATOMIC_SPECIES
Si 28.085 Si_ONCV_PBE_sr.upf

K_POINTS gamma

CELL_PARAMETERS angstrom
11.40227067056825 0.00000000000000 0.00000000000000
0.00000000000000 11.40227067056825 0.00000000000000
0.00000000000000 0.00000000000000 11.40227067056825

ATOMIC_POSITIONS angstrom
Si 10.3991559083 5.8040750349 7.7358933410 
Si 9.2597612070 5.3583260676 1.5329326712 
Si 8.8646725283 10.4271940919 4.6538025674 
Si 8.1931357971 6.0057355940 3.8442755566 
Si 11.2017389363 2.7354503430 7.1995875400 
Si 3.0436879260 5.4688482772 9.0043845508 
Si 10.6615791678 1.8868819574 1.5952232759 
Si 2.8763482016 9.3222342480 0.3076811522 
Si 7.4451810480 9.9323811539 1.5964433189 
Si 3.4608057917 0.0794029045 11.0861199117 
Si 10.9809567693 1.8224933349 9.6887944455 
Si 1.6757347091 7.6017342243 10.2760569942 
Si 6.6850828805 4.5395404130 8.4922743682 
Si 10.2515649168 3.3737266505 3.5468815330 
Si 6.7903714479 1.8408395884 10.4659846167 
Si 9.1703560027 3.9728133539 6.5919377314 
Si 5.7055936231 0.0358188650 0.7888136459 
Si 8.4965502197 2.8202490299 8.8499179900 
Si 7.7309105487 10.2860795901 6.5260440092 
Si 3.5399033433 1.1677863553 8.8108994198 
Si 5.0028260726 0.1582030849 7.3999140334 
Si 9.4476934322 8.0279511019 6.4023407747 
Si 5.3362512716 9.8372178029 6.0363620930 
Si 3.5731409623 4.6650908153 1.0776445643 
Si 2.2898039961 6.3831279486 2.7834995116 
Si 1.7473523712 2.7514705332 1.2677842690 
Si 10.9087461891 11.3754297254 11.3393301365 
Si 7.0440947749 0.6979079028 3.2419620107 
Si 5.6634850375 7.4367889768 0.8684300009 
Si 8.1875600868 2.3223346743 4.5351619411 
Si 3.0271204267 3.9659035778 7.2219701973 
Si 3.2796237107 3.6040411158 3.0993196046 
Si 1.6049722173 9.9753221052 6.5056111402 
Si 5.9380859221 3.6962398765 0.0422588675 
Si 11.1190382671 8.4264490596 11.3281673135 
Si 4.8001051024 3.2871378071 9.0579182116 
Si 3.9056995887 6.7004759459 11.0208077053 
Si 10.9311060419 9.6321251603 3.3181177765 
Si 5.2308714860 9.2499096452 8.6510395850 
Si 1.1396079238 4.9737616847 4.4414922875 
Si 2.2954139132 9.1032194330 4.4688121280 
Si 9.5366995571 4.5652639356 10.3185190501 
Si 1.2068619369 8.5324331655 1.8906675112 
Si 3.0485795001 7.1347200222 5.0551852995 
Si 1.5016220360 6.1269417312 7.3856497928 
Si 3.0999239249 8.8389262011 7.8434167534 
Si 5.0046048268 6.8205646606 8.6153390755 
Si 1.8588665783 2.9824577325 5.4489741194 
Si 8.3329504401 3.1298434832 0.8446197792 
Si 7.2728813359 8.3458350060 4.1751238424 
Si 10.3340147360 5.7538252281 5.3287599797 
Si 0.8021964910 1.0566096553 5.7983282905 
Si 4.4183114712 5.0880808504 5.0332701353 
Si 0.0893753304 5.4555418273 2.4443389705 
Si 6.5881407753 4.0144658486 3.0392752472 
Si 11.3664105293 3.4770654296 11.1917847540 
Si 5.0172841518 6.7926404998 3.1631723203 
Si 0.8307044481 8.4804160067 8.1936603016 
Si 8.1144829341 7.2982399858 1.3953300688 
Si 0.2742713589 7.8032465538 5.0379906754 
Si 8.9935637960 0.0762645435 1.6227825641 
Si 1.3165631830 10.8232519636 9.8147439274 
Si 6.8489905214 6.0704776868 10.9976268890 
Si 5.0380248822 9.2842304799 3.7362960533 

