&CONTROL
   calculation      = 'scf'
   tstress          = .true.
   tprnfor          = .true.
   outdir           = './'
   disk_io          = 'none'
   pseudo_dir       = './'
/
&SYSTEM
   ecutwfc          = 30
   input_dft        = 'PBE'
   ntyp             = 1
   nat              = 64
   ibrav            = 0
/
&ELECTRONS
   electron_maxstep = 1000
   mixing_beta      = 0.5
/
&IONS
/
&CELL
/

ATOMIC_SPECIES
Si 28.085 Si_ONCV_PBE-1.0.upf

K_POINTS gamma

CELL_PARAMETERS angstrom
10.67594344084728 0.00000000000000 0.00000000000000
0.00000000000000 10.73093764455472 0.00000000000000
0.00000000000000 0.00000000000000 10.93735780062884

ATOMIC_POSITIONS angstrom
Si 3.9754782552 4.0890554554 1.4207716396 
Si -0.0240843001 2.6546594517 2.7267357089 
Si 4.0719084746 1.3190164317 3.9953747073 
Si 0.0249357934 0.0363104972 0.0104523775 
Si 1.2631260734 4.0284557945 4.1550802610 
Si 2.7316819488 2.6795195785 -0.0757084675 
Si 1.3435348565 1.4613764263 1.3125976746 
Si 2.6942589501 0.0246737847 2.7274770846 
Si 3.9738525009 4.1285821728 6.7643680201 
Si 0.0813977252 2.8006356555 8.1028535865 
Si 4.1169015046 1.2796465224 9.5322475233 
Si -0.0808001270 -0.0286007023 5.4397939179 
Si 1.4399950831 4.1400429426 9.5784064576 
Si 2.7367248087 2.6858634274 5.4589469495 
Si 1.3110094343 1.3174140528 6.8777480908 
Si 2.6679561815 0.0078514994 8.0625234831 
Si 4.0422008034 9.5570671807 1.4191111605 
Si -0.0884502994 8.2196159058 2.6763243833 
Si 4.0750415978 6.9100812277 4.0100864095 
Si -0.0043059628 5.5659007281 -0.0846682625 
Si 1.2912388305 9.6491724494 4.0473154776 
Si 2.6506934858 8.3218167425 -0.0910015718 
Si 1.3129084151 6.8098806038 1.4245736615 
Si 2.7158880715 5.4479737415 2.6276969860 
Si 4.0752867123 9.5400967164 6.8594635656 
Si -0.0632822443 8.2786729718 8.2307016717 
Si 4.1182827732 6.8729443333 9.4672971248 
Si -0.0532365855 5.5435424419 5.4550567687 
Si 1.2970308827 9.7044720407 9.6127725276 
Si 2.6482362296 8.2747605700 5.4004037917 
Si 1.3823945262 6.7842151192 6.7148235565 
Si 2.6992639026 5.5611874771 8.2401895963 
Si 9.3653795097 4.0593304258 1.3348023852 
Si 5.4915833028 2.6815420079 2.7833891758 
Si 9.3845346826 1.3814853193 4.0353280552 
Si 5.3492093147 -0.0207520369 -0.0009876664 
Si 6.7778076498 4.2145836274 4.0083524423 
Si 8.0524424798 2.7704636216 -0.0159591147 
Si 6.6909551889 1.4337038990 1.2946546694 
Si 8.0208285267 0.0935297661 2.6818206741 
Si 9.5076225761 4.1883463686 6.7086273690 
Si 5.4891894147 2.7881266645 8.1955378102 
Si 9.4800160327 1.3142317445 9.5193496095 
Si 5.3826651699 0.0103837610 5.4921687594 
Si 6.6615150517 4.0259167031 9.5793264275 
Si 8.0953988675 2.6726472136 5.4617643815 
Si 6.8182559202 1.4391538727 6.8536279228 
Si 8.1407363427 -0.0038213734 8.1384061897 
Si 9.5224005312 9.6729663204 1.3784284166 
Si 5.3244453234 8.2163068829 2.8108585923 
Si 9.3856296951 6.8523522193 4.0686709258 
Si 5.4182107633 5.5804182401 -0.0206395288 
Si 6.7418415442 9.6581578599 4.0454094997 
Si 8.1165984680 8.2208839244 0.0052580783 
Si 6.7150883000 6.8185785494 1.3313852315 
Si 8.1498098335 5.5881726793 2.7991882001 
Si 9.4160147287 9.7222303613 6.7438545539 
Si 5.4122196291 8.3468385301 8.1564386418 
Si 9.4692894738 6.8265259360 9.4471669504 
Si 5.3030508072 5.5996950864 5.5324102710 
Si 6.6760939879 9.5586390045 9.4354535265 
Si 8.0780277619 8.3288348703 5.5158558526 
Si 6.6830045079 6.9138872409 6.8473242414 
Si 8.1408618569 5.4444231323 8.0893249111 

