&CONTROL
   calculation      = 'scf'
   tstress          = .true.
   tprnfor          = .true.
   outdir           = './'
   disk_io          = 'none'
   pseudo_dir       = './'
/
&SYSTEM
   ecutwfc          = 30
   input_dft        = 'PBE'
   ntyp             = 1
   nat              = 64
   ibrav            = 0
/
&ELECTRONS
   electron_maxstep = 1000
   mixing_beta      = 0.5
/
&IONS
/
&CELL
/

ATOMIC_SPECIES
Si 28.085 Si_ONCV_PBE-1.0.upf

K_POINTS gamma

CELL_PARAMETERS angstrom
11.24676232907851 0.00000000000000 0.00000000000000
0.00000000000000 10.63692476326492 0.00000000000000
0.00000000000000 0.00000000000000 10.81308043421471

ATOMIC_POSITIONS angstrom
Si 4.2508478310 3.9868211608 1.2573398765 
Si -0.0098400331 2.6217161157 2.6710726224 
Si 4.3845624480 1.2728392790 4.1366291515 
Si -0.0421776754 -0.0859328149 -0.0525648325 
Si 1.3944153029 3.9741361420 4.1572751043 
Si 2.8301009287 2.6016712816 0.0518919803 
Si 1.5228316890 1.2584775894 1.2727765107 
Si 2.8676243585 0.0935735885 2.7851223338 
Si 4.3916907221 4.0817736527 6.6745942913 
Si -0.0553535705 2.7645312752 8.0621030408 
Si 4.2218192005 1.2897317030 9.5285600379 
Si 0.0312508008 -0.0011168612 5.3380012860 
Si 1.4223460218 4.0666122415 9.4562456203 
Si 2.8200147163 2.6799099250 5.4635792590 
Si 1.3610651552 1.3209107674 6.7538197263 
Si 2.8110790585 -0.0956447589 8.2077747441 
Si 4.3871449092 9.3447203779 1.3476934844 
Si -0.0390279844 8.0488604747 2.6364370648 
Si 4.3300255382 6.6669378641 4.0159554659 
Si -0.0803567610 5.3560706509 0.0729991384 
Si 1.4816317855 9.2790329549 4.1411920139 
Si 2.8185182538 8.0612128391 -0.0649425316 
Si 1.4916620223 6.6811932694 1.2927972100 
Si 2.8027281717 5.3880023774 2.7121890442 
Si 4.2345547597 9.4156073346 6.6858923007 
Si -0.0388031216 7.9395297698 8.0490222724 
Si 4.2781195684 6.5810539201 9.5483950835 
Si 0.0478357489 5.2558085485 5.4130789645 
Si 1.3475109504 9.3924381578 9.5119229372 
Si 2.7778545921 7.9622111476 5.5009721259 
Si 1.4305537055 6.7209165777 6.6918422311 
Si 2.8723973152 5.4125937720 8.1735945439 
Si 10.1007819906 3.9407033810 1.2875854424 
Si 5.7433456392 2.5911635152 2.7787031883 
Si 10.0780076325 1.2465249272 4.0245769121 
Si 5.8108196062 -0.0695838317 0.0182486985 
Si 7.2765143719 4.0542959031 4.0680337465 
Si 8.6612235098 2.7307048530 0.0549716140 
Si 7.2625145603 1.2680391587 1.3159140231 
Si 8.5771455800 -0.0268377883 2.7854469937 
Si 10.0169118650 4.0110845367 6.7234687190 
Si 5.7265559829 2.7581802119 8.2054498107 
Si 10.1062645441 1.3974819258 9.5493112523 
Si 5.8234658447 0.0807742029 5.3981120022 
Si 7.1927287888 3.9401128956 9.3785356362 
Si 8.6605630872 2.5845193393 5.4570992311 
Si 7.2082001017 1.4271831199 6.7334938457 
Si 8.5166550726 -0.0623891460 8.2106280803 
Si 10.1160874774 9.2880088196 1.4252482530 
Si 5.7839977235 8.1012161044 2.6339602715 
Si 10.1519787657 6.7372117121 4.0633500146 
Si 5.7134619365 5.2784939357 0.0414314067 
Si 7.2673494786 9.3385984795 3.9785121041 
Si 8.6218957736 7.9683741980 0.0982076437 
Si 7.1670901793 6.7134934310 1.3808608011 
Si 8.6968918818 5.3707520420 2.7276733001 
Si 10.0902926808 9.2662960555 6.7719136187 
Si 5.7650438720 7.9216601455 8.1706934396 
Si 10.0508984478 6.7227651985 9.4371545971 
Si 5.8348289651 5.4240101692 5.3487442281 
Si 7.2199386715 9.3280736053 9.5678976982 
Si 8.6937934465 7.9386850162 5.3350974907 
Si 7.1369356249 6.7245570706 6.8386428675 
Si 8.6882178069 5.2583662981 8.0967253369 

