&CONTROL
   calculation      = 'scf'
   tstress          = .true.
   tprnfor          = .true.
   outdir           = './'
   disk_io          = 'none'
   pseudo_dir       = './'
/
&SYSTEM
   ecutwfc          = 30
   input_dft        = 'PBE'
   ntyp             = 1
   nat              = 64
   ibrav            = 0
/
&ELECTRONS
   electron_maxstep = 1000
   mixing_beta      = 0.5
/
&IONS
/
&CELL
/

ATOMIC_SPECIES
Si 28.085 Si_ONCV_PBE-1.0.upf

K_POINTS gamma

CELL_PARAMETERS angstrom
10.79230949983375 0.00000000000000 0.00000000000000
0.00000000000000 11.14776329164806 0.00000000000000
0.00000000000000 0.00000000000000 11.01309056384698

ATOMIC_POSITIONS angstrom
Si 4.1971688568 4.1240515226 1.3297109533 
Si 0.0521082298 2.7193976732 2.7284871091 
Si 4.1363139684 1.2951895164 3.9927307310 
Si 0.0929600530 -0.0194235473 -0.0499076720 
Si 1.3921697031 4.2349540184 3.9965160162 
Si 2.8361144852 2.8488346608 0.0687489814 
Si 1.3122609208 1.3628244292 1.3390193191 
Si 2.7656690929 0.0499700045 2.7462890948 
Si 4.0882030072 4.2763277552 6.7643839581 
Si 0.0167857179 2.6940560041 8.2092571625 
Si 4.2017854423 1.4306320487 9.4321756220 
Si 0.0249932422 0.0020919787 5.4559200386 
Si 1.4123403756 4.1687650240 9.5974125654 
Si 2.7259386519 2.7790867568 5.4774937711 
Si 1.3212257741 1.4006912791 6.7830771499 
Si 2.7124215927 -0.0245742898 8.2398556328 
Si 4.0968256521 9.8225661588 1.3240318605 
Si 0.0384511561 8.2919006690 2.7267062813 
Si 4.1443079810 7.0308372020 4.1083846671 
Si -0.0359476936 5.5967877144 -0.0098350332 
Si 1.3554202402 9.7914716814 4.0403596253 
Si 2.6936033773 8.2895042041 0.0105046478 
Si 1.4614483993 7.0383769588 1.3116879592 
Si 2.6482503166 5.5911326192 2.7543595732 
Si 4.1648015863 9.7366643006 6.7195655784 
Si 0.0560776598 8.4061962648 8.0950735450 
Si 4.0604392611 6.9446623034 9.5214067221 
Si 0.0765826756 5.5278809092 5.4291168846 
Si 1.4671293676 9.8127321922 9.4607350552 
Si 2.7678021631 8.3725121371 5.4302104955 
Si 1.4069934796 6.9497074637 6.7230285911 
Si 2.6652573278 5.5299531372 8.2522720488 
Si 9.6064583426 4.0868836461 1.4265280165 
Si 5.4899515192 2.8525379741 2.6371684373 
Si 9.5415836303 1.4411265411 4.1381769336 
Si 5.4271157192 0.0340721620 -0.0867336125 
Si 6.8987467861 4.1338845140 4.1739328246 
Si 8.1959766640 2.8061226822 -0.0738725435 
Si 6.7659653049 1.3723958889 1.3509815750 
Si 8.2164316252 -0.0966551409 2.8035016951 
Si 9.5052889027 4.1510989584 6.8676360134 
Si 5.4335770278 2.8341976265 8.1020691674 
Si 9.5994416507 1.3921237304 9.5514537138 
Si 5.4980838182 -0.0856386436 5.4228074740 
Si 6.9062528226 4.1136008048 9.5234877870 
Si 8.2536231493 2.7960002643 5.5131666156 
Si 6.8410553431 1.4839161286 6.8136936616 
Si 8.1508024805 -0.0613970667 8.2230887559 
Si 9.6089620038 9.8020999739 1.2614846772 
Si 5.5523105812 8.4523887757 2.7140740169 
Si 9.6719574194 6.9568962374 4.0259452354 
Si 5.5429803732 5.6544253879 -0.0118476519 
Si 6.9282634242 9.7661129031 4.1622257680 
Si 8.1643484204 8.4157415035 0.0780422693 
Si 6.8547795192 6.8804809064 1.2933895595 
Si 8.1603674816 5.5603498467 2.7275376174 
Si 9.5393452354 9.8050510883 6.7710372987 
Si 5.4587088855 8.2831551006 8.0922857554 
Si 9.5274750630 6.9362188118 9.4409843454 
Si 5.4879258825 5.5300429576 5.3829722537 
Si 6.8152335121 9.7109480383 9.5969270000 
Si 8.1713578626 8.4105513377 5.3804539205 
Si 6.9059833968 6.8739475038 6.8788681049 
Si 8.2780451092 5.4675044695 8.2011665161 

