&CONTROL
   calculation      = 'scf'
   tstress          = .true.
   tprnfor          = .true.
   outdir           = './'
   disk_io          = 'none'
   pseudo_dir       = './'
/
&SYSTEM
   ecutwfc          = 30
   input_dft        = 'PBE'
   ntyp             = 1
   nat              = 64
   ibrav            = 0
/
&ELECTRONS
   electron_maxstep = 1000
   mixing_beta      = 0.5
/
&IONS
/
&CELL
/

ATOMIC_SPECIES
Si 28.085 Si_ONCV_PBE-1.0.upf

K_POINTS gamma

CELL_PARAMETERS angstrom
10.85427973275103 0.00000000000000 0.00000000000000
0.00000000000000 11.10311146096666 0.00000000000000
0.00000000000000 0.00000000000000 10.68890914737552

ATOMIC_POSITIONS angstrom
Si 3.9607739512 4.2704488429 1.3470421274 
Si -0.0015733206 2.8431902026 2.7647928879 
Si 3.9937047800 1.3253416052 4.0812776288 
Si 0.0579244408 -0.0473259159 -0.0565363778 
Si 1.3699797282 4.2856679280 4.0531954760 
Si 2.6998318418 2.8941501349 -0.0543624105 
Si 1.3585618028 1.4476157740 1.4140554633 
Si 2.7634777665 -0.1029854946 2.6751410715 
Si 3.9920596706 4.1349167005 6.8961097358 
Si -0.0688671074 2.7513794024 8.3137478638 
Si 3.9440437668 1.3903718702 9.5435228801 
Si -0.0546742145 -0.0594186589 5.4283943655 
Si 1.2643799610 4.1957690165 9.6121323099 
Si 2.6890093164 2.7248665937 5.4704718176 
Si 1.4187674858 1.5065144594 6.8614917314 
Si 2.6763029462 -0.0637914797 8.2799707876 
Si 3.9612377251 9.9463129057 1.4287874012 
Si 0.0779818986 8.5712144607 2.6455096523 
Si 4.0907057020 7.0459001766 4.1997556625 
Si -0.0852414102 5.6696992269 0.0085409042 
Si 1.2873786329 9.8602630172 4.1903915665 
Si 2.6478957497 8.5548508891 0.0386698262 
Si 1.3539636497 7.1270774323 1.2787656517 
Si 2.7369785569 5.6920510105 2.6992627788 
Si 4.0774591952 9.9529670839 6.7642223877 
Si -0.0948615131 8.3998059174 8.3016100566 
Si 4.1234079450 7.0441523115 9.5747321537 
Si -0.0773836558 5.7444944161 5.5645744055 
Si 1.2876326503 9.9254050568 9.5749118288 
Si 2.7152057173 8.4202729462 5.4259091212 
Si 1.2845926875 7.0449251082 6.9482038982 
Si 2.7901189879 5.6141285696 8.2316666494 
Si 9.4506721386 4.1783296461 1.4029785772 
Si 5.4637853512 2.8778111090 2.7468800626 
Si 9.3587703123 1.3616779280 4.0395053190 
Si 5.4673888307 -0.0444347013 -0.0146597412 
Si 6.7931090791 4.1783649083 4.0093403931 
Si 8.0626072926 2.7307329543 -0.0063633302 
Si 6.7162814548 1.4320111379 1.3089087398 
Si 8.1652725769 -0.0972189443 2.7277364530 
Si 9.3560989571 4.2683886498 6.8640388975 
Si 5.4453578567 2.9230077435 8.2125646194 
Si 9.4697321283 1.4771915507 9.6744453292 
Si 5.4266515887 -0.0613326576 5.4915171895 
Si 6.7501962369 4.1695889008 9.5692676306 
Si 7.9847564295 2.7265680854 5.4636253150 
Si 6.7361630887 1.3936021835 6.8528863625 
Si 8.0691257971 -0.0012706800 8.2314252416 
Si 9.5216673683 9.8343824252 1.3405284616 
Si 5.3700333959 8.4459518575 2.7285180499 
Si 9.4332177888 7.1242062763 4.1551877713 
Si 5.3095690116 5.5655689491 0.0950928981 
Si 6.7243570745 9.8111602105 4.1445567004 
Si 8.1097189537 8.4288729693 -0.0494086983 
Si 6.7690063458 7.0078295148 1.3376098133 
Si 7.9896547715 5.7527021333 2.7593815034 
Si 9.3943078415 9.8892287714 6.9100415271 
Si 5.3888315486 8.5778305271 8.2436672348 
Si 9.3592125203 7.0935322763 9.6171599037 
Si 5.3985793668 5.5769505155 5.4777035898 
Si 6.6488453580 9.8850964360 9.5993474640 
Si 8.1523703020 8.4460002288 5.3802662376 
Si 6.7592108296 7.0927707986 6.8264363816 
Si 8.1669828562 5.7375867255 8.1179393303 

