&CONTROL
   calculation      = 'scf'
   tstress          = .true.
   tprnfor          = .true.
   outdir           = './'
   disk_io          = 'none'
   pseudo_dir       = './'
/
&SYSTEM
   ecutwfc          = 30
   input_dft        = 'PBE'
   ntyp             = 1
   nat              = 64
   ibrav            = 0
/
&ELECTRONS
   electron_maxstep = 1000
   mixing_beta      = 0.5
/
&IONS
/
&CELL
/

ATOMIC_SPECIES
Si 28.085 Si_ONCV_PBE-1.0.upf

K_POINTS gamma

CELL_PARAMETERS angstrom
10.91044927294362 0.00000000000000 0.00000000000000
0.00000000000000 10.83993623583975 0.00000000000000
0.00000000000000 0.00000000000000 10.98770594077286

ATOMIC_POSITIONS angstrom
Si 4.2315420966 4.1098310447 1.2927530071 
Si 0.0527653996 2.6883180739 2.6933052200 
Si 4.2823364534 1.3649091250 4.1587203811 
Si 0.0263300439 0.0443629345 0.0342917383 
Si 1.3110853711 4.0802687129 4.1543775768 
Si 2.8130964926 2.7523870085 -0.0578191591 
Si 1.4784474757 1.2720941988 1.3366227380 
Si 2.8726713576 0.0826878340 2.6147039159 
Si 4.2740027631 3.9925839507 6.8366271521 
Si 0.0660566732 2.7606333192 8.1510824458 
Si 4.1150110395 1.4237168158 9.5601282695 
Si -0.0744790521 -0.0036054675 5.3473065552 
Si 1.4657568850 3.9982603467 9.5656825582 
Si 2.8373950404 2.7402448668 5.4199180852 
Si 1.3701860207 1.4088421322 6.7684320863 
Si 2.8823418604 0.0325435802 8.1577232370 
Si 4.2689961070 9.4567655751 1.3913163652 
Si 0.0064662746 8.1441895694 2.8046041035 
Si 4.1859694703 6.7664850783 4.0098140605 
Si 0.0388329233 5.3218302522 -0.0122270082 
Si 1.4889983072 9.4445244383 4.1602611576 
Si 2.7494445266 7.9934399446 0.0819576870 
Si 1.3874705079 6.7858409498 1.2789247922 
Si 2.7417663934 5.3761058426 2.6767377165 
Si 4.2547947112 9.4777714754 6.8473729950 
Si 0.0290654608 8.1595201425 8.1235098171 
Si 4.2851468132 6.6655663424 9.4160877672 
Si 0.0484532578 5.3914250574 5.3354565421 
Si 1.4710650304 9.3507264714 9.3996153356 
Si 2.7885715965 8.1048942886 5.3181917789 
Si 1.5063274770 6.6930472516 6.7296467121 
Si 2.7346130427 5.3211188438 8.1858255142 
Si 9.7982682115 4.0630600187 1.2773239993 
Si 5.6280443578 2.6610134777 2.6308595404 
Si 9.7506251277 1.3776407215 4.0893394281 
Si 5.6128967206 0.0958765653 -0.0109367540 
Si 6.9357865055 3.9504773290 4.1409585192 
Si 8.3415916134 2.6487232761 -0.0854747216 
Si 6.9369267383 1.3778386397 1.3627641099 
Si 8.3620868000 -0.0735297565 2.6622919951 
Si 9.8832011546 4.0751993626 6.7419962719 
Si 5.6559085059 2.7083270008 8.0571975442 
Si 9.7399495185 1.4340120076 9.5758664031 
Si 5.6484881142 -0.0117320626 5.4425866486 
Si 7.0531462894 3.9530542004 9.4821377047 
Si 8.4051199751 2.7761029683 5.4401171714 
Si 6.9256818085 1.4203010296 6.7902492950 
Si 8.4652242082 -0.0540350419 8.0577981787 
Si 9.7910436719 9.3892879548 1.3395242365 
Si 5.6341743519 8.0807181115 2.6132810349 
Si 9.7355002360 6.8350680442 3.9655460758 
Si 5.6320246585 5.3320398349 -0.0618576769 
Si 7.1169445089 9.5064286263 4.0704871507 
Si 8.4968070001 8.1821113922 -0.0249211055 
Si 7.0429313643 6.7739259663 1.4132152752 
Si 8.4265379840 5.3834755485 2.6871830717 
Si 9.8135342865 9.4680019589 6.8097225361 
Si 5.7205614438 8.0567020457 8.1751297612 
Si 9.7883134074 6.6680904821 9.4045463964 
Si 5.5471714653 5.3430072977 5.4872513139 
Si 7.0705131951 9.4214380287 9.5619285484 
Si 8.4542846955 8.0531988007 5.4498739611 
Si 6.9976859986 6.6793226390 6.6838932625 
Si 8.4101040860 5.4776782365 8.1947205445 

