&CONTROL
   calculation      = 'scf'
   tstress          = .true.
   tprnfor          = .true.
   outdir           = './'
   disk_io          = 'none'
   pseudo_dir       = './'
/
&SYSTEM
   ecutwfc          = 30
   input_dft        = 'PBE'
   ntyp             = 1
   nat              = 64
   ibrav            = 0
/
&ELECTRONS
   electron_maxstep = 1000
   mixing_beta      = 0.5
/
&IONS
/
&CELL
/

ATOMIC_SPECIES
Si 28.085 Si_ONCV_PBE-1.0.upf

K_POINTS gamma

CELL_PARAMETERS angstrom
10.75114286107084 0.00000000000000 0.00000000000000
0.00000000000000 11.14376730275545 0.00000000000000
0.00000000000000 0.00000000000000 10.75292425679025

ATOMIC_POSITIONS angstrom
Si 4.0862738803 4.2143103477 1.3387042254 
Si -0.0175163111 2.8658155274 2.5831613891 
Si 4.0080265308 1.3039066682 4.0963383970 
Si -0.0632385636 -0.0774711048 -0.0675799239 
Si 1.4099298246 4.0815310061 4.0264843258 
Si 2.5948052058 2.7353119529 -0.0204154664 
Si 1.4075662370 1.2840777657 1.3951833510 
Si 2.5831082870 0.0506785556 2.7679731157 
Si 3.9071444678 4.1124621862 6.6992446408 
Si 0.0406739155 2.7358973906 8.0756489912 
Si 4.0464388176 1.4583691689 9.4181198192 
Si -0.0963530129 0.0189376361 5.3167304014 
Si 1.3953558019 4.1155544302 9.2822307421 
Si 2.6824893004 2.7894384810 5.3662494323 
Si 1.3180319437 1.3328946610 6.6146262962 
Si 2.7348782783 -0.0874770590 8.0298014664 
Si 3.9188148657 9.7236742187 1.2498796512 
Si -0.0224749206 8.2104804551 2.7410866840 
Si 3.9517740958 6.8940681278 3.9769079625 
Si -0.0631181014 5.4770575114 -0.0338534689 
Si 1.4018192560 9.7607889169 4.0247937313 
Si 2.6101140451 8.3237686067 0.0305544736 
Si 1.4255031367 6.8169467356 1.3336360783 
Si 2.6596911190 5.5363505888 2.7407511012 
Si 4.0022898548 9.6303046998 6.6583326480 
Si 0.0676103697 8.3530832031 8.0583537209 
Si 3.9839421921 6.8457537467 9.3267163941 
Si -0.0973900478 5.4345439056 5.4232059648 
Si 1.3679527809 9.6083979932 9.3678905469 
Si 2.6611120402 8.3507323140 5.3160434114 
Si 1.3228436432 6.9593244174 6.6892443279 
Si 2.6031875985 5.6032531117 7.9957207884 
Si 9.3714831185 4.1258595431 1.2507508769 
Si 5.3211270171 2.7734519969 2.7620896831 
Si 9.3206050212 1.3449669388 3.9983140675 
Si 5.3399927745 -0.0387876856 0.0246046532 
Si 6.5821696242 4.2380748561 3.9426041475 
Si 7.9415486587 2.7245084021 0.0495865113 
Si 6.7080038467 1.2839956007 1.2870008630 
Si 8.0469544911 0.0615543964 2.6469588884 
Si 9.3158102515 4.1117021325 6.7917397593 
Si 5.3671126137 2.7848549771 8.0595617906 
Si 9.3479644572 1.4631998100 9.3744382924 
Si 5.4045645535 0.0065215610 5.3961382591 
Si 6.5726501272 4.1678707507 9.3733689988 
Si 8.0375531898 2.8017956909 5.2776686221 
Si 6.7337219146 1.3312591420 6.6141409231 
Si 7.9849390039 -0.0575499747 8.0353866272 
Si 9.2448633139 9.7172218062 1.3446535604 
Si 5.3871925528 8.3213095528 2.6766646246 
Si 9.3271705972 6.9619176162 3.9934447033 
Si 5.2643971566 5.5475762725 -0.0355069715 
Si 6.7253742685 9.5881683776 3.9344225705 
Si 7.9143902037 8.3797386583 0.0589579389 
Si 6.7498480450 6.8351631690 1.3344326918 
Si 8.0266280441 5.4412485439 2.7018816291 
Si 9.3077000160 9.6644715321 6.6549215855 
Si 5.3075164992 8.3350864366 8.0375653083 
Si 9.4070911712 6.9572260179 9.4523759966 
Si 5.3293733722 5.5015355548 5.2749149239 
Si 6.5759583114 9.7221748893 9.4303913499 
Si 8.0388839319 8.3778934317 5.4077760808 
Si 6.6035011019 6.9665572581 6.7348146456 
Si 8.0236537087 5.4299584382 8.0160509915 

