&CONTROL
   calculation      = 'scf'
   tstress          = .true.
   tprnfor          = .true.
   outdir           = './'
   disk_io          = 'none'
   pseudo_dir       = './'
/
&SYSTEM
   ecutwfc          = 30
   input_dft        = 'PBE'
   ntyp             = 1
   nat              = 64
   ibrav            = 0
/
&ELECTRONS
   electron_maxstep = 1000
   mixing_beta      = 0.5
/
&IONS
/
&CELL
/

ATOMIC_SPECIES
Si 28.085 Si_ONCV_PBE-1.0.upf

K_POINTS gamma

CELL_PARAMETERS angstrom
11.23097304176894 0.00000000000000 0.00000000000000
0.00000000000000 10.80892789065162 0.00000000000000
0.00000000000000 0.00000000000000 10.94655836435599

ATOMIC_POSITIONS angstrom
Si 4.1803121643 4.0643362819 1.4529350099 
Si 0.0283909496 2.7705748485 2.7981152896 
Si 4.0228631814 1.2980795826 4.1123938192 
Si 0.0157749613 0.0884289651 -0.0759376839 
Si 1.4601981774 3.9387540557 4.2528059735 
Si 2.8075048592 2.7803851745 0.0020316605 
Si 1.3381483187 1.3436848065 1.3870504400 
Si 2.7781040652 0.0166211279 2.8549111801 
Si 4.0175321361 3.9610711508 6.9206215041 
Si 0.0113411380 2.5982018242 8.3477805992 
Si 4.1787591822 1.3466040349 9.7374111219 
Si 0.0280055030 0.0389749631 5.6874414332 
Si 1.3484248342 4.0111251714 9.8525100344 
Si 2.6663374172 2.6721906226 5.4973094258 
Si 1.3389688118 1.3031560358 6.9919577797 
Si 2.7675793364 -0.0879023307 8.4101741759 
Si 4.1882864511 9.4414131407 1.2999136058 
Si 0.0270959753 8.0316833634 2.8203286089 
Si 4.1770630641 6.6697122939 4.2719505723 
Si -0.0647230392 5.4085827891 0.0077040028 
Si 1.3193219693 9.4513508032 4.2777482484 
Si 2.8278098933 8.0811792276 -0.0602112704 
Si 1.3950400163 6.6333922340 1.4340549876 
Si 2.6466103360 5.3462738710 2.7936677521 
Si 4.0177709344 9.3155080865 6.8899625978 
Si 0.0790204309 8.1015311075 8.3695731976 
Si 3.9941388140 6.7347470838 9.8004433057 
Si -0.0529570614 5.3467181519 5.6041296465 
Si 1.2817190107 9.3885278195 9.8290403377 
Si 2.6938822241 8.1004231729 5.6071563571 
Si 1.3644677911 6.7019576059 6.9216471435 
Si 2.8052869938 5.3235660567 8.2991382497 
Si 9.5518330505 4.0554713644 1.3680486753 
Si 5.3599470050 2.7831249956 2.8091430556 
Si 9.4755991835 1.2697846182 4.1036460436 
Si 5.5416347203 0.0472985782 0.0176947672 
Si 6.9205343826 4.1084951789 4.2395026176 
Si 8.2022518492 2.7026655166 -0.0319976366 
Si 6.9115476154 1.3947982049 1.4548834304 
Si 8.2672407722 -0.0326537507 2.8422904267 
Si 9.4754427716 4.0495323211 7.0562543843 
Si 5.3715080026 2.7109561060 8.4499402470 
Si 9.5249255049 1.3553579160 9.8855482856 
Si 5.4728665915 -0.0291898328 5.5896710772 
Si 6.7534192097 4.0648806296 9.7464303053 
Si 8.1040483157 2.7780119965 5.5451665025 
Si 6.8839561662 1.4408311672 7.0074416302 
Si 8.2387648794 0.0958842985 8.4435109076 
Si 9.5875296166 9.3447588810 1.4761305634 
Si 5.5314414411 8.1343661623 2.8545277963 
Si 9.6097469437 6.6504459005 4.1204476809 
Si 5.4180133469 5.2826025758 0.0385868502 
Si 6.8035892384 9.4945866274 4.1622811394 
Si 8.1151403396 8.1423081857 -0.0198460112 
Si 6.9078100258 6.6332286488 1.3265953234 
Si 8.1677978736 5.4070163269 2.7435994563 
Si 9.5911100118 9.4621261630 7.0420002616 
Si 5.3941451375 7.9752301205 8.4700212508 
Si 9.6106423982 6.7806576877 9.7085547161 
Si 5.4720514457 5.2925649309 5.5444294299 
Si 6.7837758940 9.5081279151 9.6944123739 
Si 8.2723757929 8.0884796984 5.6200437503 
Si 6.7913453576 6.6735858832 7.0671856936 
Si 8.1338193701 5.4578509009 8.3967358310 

