&CONTROL
   calculation      = 'scf'
   tstress          = '.true.'
   tprnfor          = '.true.'
   outdir           = './'
   disk_io          = 'none'
   pseudo_dir       = './'
/
&SYSTEM
   ecutwfc          = 30
   input_dft        = 'PBE'
   ntyp             = 1
   nat              = 64
   ibrav            = 0
/
&ELECTRONS
   electron_maxstep = 1000
   mixing_beta      = 0.5
/
&IONS
/
&CELL
/

ATOMIC_SPECIES
Si 28.085 Si_ONCV_PBE-1.0.upf

K_POINTS gamma

CELL_PARAMETERS angstrom
10.97781783618777 0.00000000000000 0.00000000000000
0.00000000000000 11.18740344256870 0.00000000000000
0.00000000000000 0.00000000000000 10.97947359816513

ATOMIC_POSITIONS angstrom
Si 4.0458094518 4.3185677213 1.3497025712 
Si -0.0269907725 2.7910985094 2.8118813387 
Si 4.0923913241 1.4250749316 4.2329825300 
Si -0.0234124043 0.0641495622 0.0017260311 
Si 1.4232438379 4.1567015644 4.1669547297 
Si 2.7561291864 2.7517851897 -0.0479451973 
Si 1.2735970645 1.4974997176 1.3501976380 
Si 2.6380808534 -0.0324437452 2.7544677435 
Si 3.9363479973 4.3224023964 7.0755523487 
Si 0.0914133508 2.8583759414 8.4233314041 
Si 4.0458649685 1.4130722448 9.7742956080 
Si -0.0800594723 -0.0798874110 5.6949292438 
Si 1.2891973251 4.2512331670 9.8658748716 
Si 2.5985000945 2.8126498531 5.6466708712 
Si 1.2729860472 1.3508010737 7.1124308419 
Si 2.7041910685 0.0878189527 8.4967949822 
Si 4.0813341005 9.9238936710 1.3370522356 
Si 0.0173543323 8.5103759536 2.7117802296 
Si 4.0485665273 7.1213605447 4.2193863855 
Si -0.0824345593 5.7387650692 -0.0619839968 
Si 1.3094235705 9.9548885811 4.2846910882 
Si 2.7063122039 8.5401056639 0.0326533702 
Si 1.3107522595 7.1051881922 1.3853341233 
Si 2.6894495683 5.5782254002 2.9066529335 
Si 4.0592611991 9.8969576972 6.9478512492 
Si 0.0802200549 8.4299264593 8.3789649634 
Si 4.0805127377 7.0674962237 9.8836551282 
Si -0.0143002000 5.6076178937 5.6264140038 
Si 1.4162961623 9.9918241287 9.7368157012 
Si 2.7306117596 8.4748279322 5.5608412962 
Si 1.3453010105 7.0960430550 6.9569721266 
Si 2.7502013225 5.6903027775 8.3918705918 
Si 9.4164261004 4.3326780032 1.4968894165 
Si 5.3496192407 2.7890194452 2.8080711646 
Si 9.3701045544 1.4130875070 4.1579707792 
Si 5.3121283708 0.0279864947 -0.0929044070 
Si 6.7950620478 4.2997771613 4.2392676542 
Si 8.1319385470 2.9096762077 0.0639726075 
Si 6.7158628716 1.3529938412 1.4039581862 
Si 8.1158855897 0.0172413576 2.7290650972 
Si 9.4513180288 4.3054310151 7.0988031712 
Si 5.3066970907 2.7380725901 8.3372359781 
Si 9.4254755398 1.4576331031 9.8976289852 
Si 5.4324844693 -0.0504029204 5.6088122425 
Si 6.7752390304 4.2422560540 9.9181999787 
Si 8.0383895819 2.8761688118 5.6893374666 
Si 6.7801279986 1.5114751174 6.9942466679 
Si 8.0738918178 0.0091061975 8.5073806941 
Si 9.3550279854 9.9107922845 1.4756913538 
Si 5.2785235333 8.4434500337 2.7887658779 
Si 9.3826200034 7.1070058350 4.1321943845 
Si 5.3766076163 5.6897535539 0.0153220881 
Si 6.7913215012 9.8899377204 4.1978048991 
Si 8.1145925588 8.4455731747 0.0078263248 
Si 6.8074538355 6.9937201917 1.3573238350 
Si 7.9759140028 5.7043802984 2.7543908368 
Si 9.3408991709 9.9321749126 7.0905240413 
Si 5.2957784922 8.5427029942 8.4294580411 
Si 9.4859890545 7.1248927622 9.7348514378 
Si 5.3127158106 5.6139044130 5.7138397004 
Si 6.6783825780 9.8744825945 9.7702144081 
Si 8.1096331213 8.5136054456 5.6512345368 
Si 6.7399551088 7.0580794832 7.0847142736 
Si 8.1285050052 5.7139042121 8.4572257929 

