&CONTROL
   calculation      = 'scf'
   tstress          = .true.
   tprnfor          = .true.
   outdir           = './'
   disk_io          = 'none'
   pseudo_dir       = './'
/
&SYSTEM
   ecutwfc          = 30
   input_dft        = 'PBE'
   ntyp             = 1
   nat              = 64
   ibrav            = 0
/
&ELECTRONS
   electron_maxstep = 1000
   mixing_beta      = 0.5
/
&IONS
/
&CELL
/

ATOMIC_SPECIES
Si 28.085 Si_ONCV_PBE-1.0.upf

K_POINTS gamma

CELL_PARAMETERS angstrom
11.01717144093086 0.00000000000000 0.00000000000000
0.00000000000000 10.63542908059674 0.00000000000000
0.00000000000000 0.00000000000000 10.62221074197551

ATOMIC_POSITIONS angstrom
Si 4.1837086638 3.9628462243 1.3828533178 
Si 0.0845792994 2.6812050334 2.6316116671 
Si 4.0526379490 1.2498560759 3.9657415557 
Si -0.0924860237 -0.0145180235 -0.0295959845 
Si 1.4445737544 3.9821483510 4.0304846543 
Si 2.6649820492 2.6782924473 -0.0501422982 
Si 1.4260653964 1.3720247797 1.4467626374 
Si 2.7059707344 0.0203745987 2.6816400127 
Si 4.1393867297 3.9687688035 6.8333144792 
Si 0.0575995455 2.6608237959 8.0403521173 
Si 4.1357851659 1.2989898370 9.4169677514 
Si 0.0657678610 0.0834327221 5.4569942885 
Si 1.4202708990 4.0273175463 9.5401739623 
Si 2.8337746476 2.5819407968 5.4573461523 
Si 1.4569224521 1.3346665673 6.7379979371 
Si 2.6579635592 0.0054795905 8.1816928626 
Si 4.0698021472 9.3681675109 1.4442883836 
Si -0.0199175469 8.0828116809 2.7394826774 
Si 4.1671261617 6.6864464819 4.0411382110 
Si -0.0832444545 5.3802057703 0.0578417317 
Si 1.3746066707 9.3558992458 4.0078495774 
Si 2.6888628828 7.9647735490 -0.0204341104 
Si 1.3810099006 6.7151110195 1.3581272744 
Si 2.8115056552 5.2634891676 2.7063576250 
Si 4.0178902231 9.4067427510 6.8406947741 
Si 0.0533904999 8.0607764813 8.0563129807 
Si 4.0706375190 6.6126650645 9.5101887938 
Si 0.0390848401 5.4165290907 5.3698227701 
Si 1.3534028422 9.2765336102 9.4092398480 
Si 2.7017496940 8.0872226082 5.3702786273 
Si 1.3701139968 6.5718336612 6.7787855616 
Si 2.7553220754 5.3510252580 8.1506298412 
Si 9.5443485043 4.0013069761 1.2978377398 
Si 5.5063048268 2.6691427268 2.6981215224 
Si 9.5871714102 1.3352082867 3.9791837512 
Si 5.5379126365 -0.0623675094 -0.0982998906 
Si 6.7979386809 3.9419541312 4.0255633880 
Si 8.1671206642 2.7293364463 -0.0752567140 
Si 6.8242275674 1.2474260248 1.3135789670 
Si 8.3053591936 -0.0175105129 2.6306807571 
Si 9.5653172072 4.0669532405 6.8105113524 
Si 5.4305737669 2.6415650063 8.0670312387 
Si 9.5999653728 1.2385805339 9.4972927846 
Si 5.5214677447 -0.0798011644 5.3424910061 
Si 6.8069918501 3.9905589025 9.4947893026 
Si 8.1360880833 2.6311362895 5.4541746186 
Si 6.8877205288 1.3099323631 6.7202872749 
Si 8.1630043566 -0.0485035262 8.1596009248 
Si 9.5251077342 9.3894782831 1.2698111408 
Si 5.5393837403 7.9175472845 2.6979932721 
Si 9.5784192476 6.6383318116 3.9624135525 
Si 5.4343306872 5.4025011693 0.0247845478 
Si 6.8451228930 9.3920318582 4.1582770272 
Si 8.3053318711 8.0005562603 0.0485180004 
Si 6.9391490818 6.5798328935 1.3109201280 
Si 8.1594695192 5.2601504068 2.6576924267 
Si 9.6758126064 9.3234624322 6.8233431188 
Si 5.5750461436 7.9317922704 8.1530393152 
Si 9.5351129790 6.6697802240 9.4554320844 
Si 5.4858994202 5.3619702899 5.4823747676 
Si 6.8072260133 9.3209001342 9.5480559571 
Si 8.2912840660 8.0768883346 5.3674711106 
Si 6.8444854409 6.6545301193 6.7535286086 
Si 8.2526317344 5.2784865458 8.1561492300 

