&CONTROL
   calculation      = 'scf'
   tstress          = .true.
   tprnfor          = .true.
   outdir           = './'
   disk_io          = 'none'
   pseudo_dir       = './'
/
&SYSTEM
   ecutwfc          = 30
   input_dft        = 'PBE'
   ntyp             = 1
   nat              = 64
   ibrav            = 0
/
&ELECTRONS
   electron_maxstep = 1000
   mixing_beta      = 0.5
/
&IONS
/
&CELL
/

ATOMIC_SPECIES
Si 28.085 Si_ONCV_PBE-1.0.upf

K_POINTS gamma

CELL_PARAMETERS angstrom
11.06221958346871 0.00000000000000 0.00000000000000
0.00000000000000 10.67856370616560 0.00000000000000
0.00000000000000 0.00000000000000 10.82103250281217

ATOMIC_POSITIONS angstrom
Si 4.2437304935 4.1197488029 1.2792758731 
Si 0.0882375606 2.7890129136 2.6674019871 
Si 4.3379499075 1.2903332270 3.9829104414 
Si -0.0017966307 0.0678212048 -0.0496411850 
Si 1.4311556010 4.1983663681 3.9421949360 
Si 2.7851587497 2.8482904950 0.0106248501 
Si 1.5129184257 1.3191112669 1.2873027678 
Si 2.7508575186 -0.0159857645 2.5621503079 
Si 4.2743848470 4.0580004683 6.6306840857 
Si -0.1018961987 2.8131614464 7.8931415080 
Si 4.3718791034 1.2756040990 9.2983880305 
Si -0.0566779093 -0.0349999265 5.3702889463 
Si 1.3244102247 4.0597631671 9.2305661063 
Si 2.9260502207 2.7357008494 5.3041831404 
Si 1.4534144267 1.3816757527 6.5717490680 
Si 2.8520070636 0.0007265530 7.8656514978 
Si 4.3684346229 9.5888392669 1.2566398030 
Si 0.1025904317 8.1913114679 2.6001000828 
Si 4.3572835120 6.9290185638 3.9308395345 
Si -0.0736929961 5.5464356510 0.0327822373 
Si 1.3314731670 9.5525026175 4.0755474220 
Si 2.7883538998 8.2709265347 -0.0546966540 
Si 1.4715010911 6.8252849873 1.3864384992 
Si 2.7614887949 5.5743849842 2.6221317603 
Si 4.1820198576 9.5969037727 6.6731412434 
Si 0.0946161800 8.2185001385 7.9742196129 
Si 4.2900722695 6.8667606726 9.3180666023 
Si 0.0506087743 5.5255140174 5.3835374011 
Si 1.3531382981 9.7183353596 9.2180675404 
Si 2.8577319146 8.2246340589 5.2998084436 
Si 1.5080244202 6.8044182177 6.6454278713 
Si 2.8054641670 5.5412714205 8.0171494308 
Si 10.0501420911 4.2164587574 1.4220001310 
Si 5.7455671673 2.8160240825 2.7387235805 
Si 9.8876458208 1.3540252896 3.9681264965 
Si 5.6464585343 0.0139590833 -0.0968200405 
Si 7.0912162314 4.1797917297 4.0072877512 
Si 8.5995781045 2.8443023131 -0.0777336796 
Si 7.1931217875 1.3624869170 1.2997600321 
Si 8.5649838392 -0.0230739922 2.5727460403 
Si 10.0687781706 4.1442253227 6.6889620772 
Si 5.7107618903 2.8448830017 7.9891755849 
Si 9.9956946242 1.3699244843 9.2992194212 
Si 5.7446660126 0.0857727099 5.2639079286 
Si 7.1291636293 4.1555484322 9.2211277612 
Si 8.4758224645 2.6520418879 5.2542174606 
Si 7.0244094162 1.3434538125 6.6518718747 
Si 8.5001935447 -0.0066171075 8.0558072367 
Si 10.0399347938 9.6861010201 1.2473560853 
Si 5.7285521214 8.1859294397 2.6650175228 
Si 9.9970831401 6.8149935508 3.9201702951 
Si 5.6829460921 5.5338075325 -0.0699626683 
Si 7.0528502988 9.5846731805 4.0065179384 
Si 8.6276256708 8.2268625799 -0.0717203173 
Si 7.0293489850 6.7813163944 1.3849216566 
Si 8.4404009088 5.5652278194 2.7360201502 
Si 9.9109872069 9.5848207329 6.5537380595 
Si 5.6044017698 8.1672656360 7.9742696439 
Si 9.8797420072 6.7970578570 9.2090023968 
Si 5.7332306225 5.4660658204 5.2188814474 
Si 7.1807265723 9.5510602550 9.3779132136 
Si 8.5480997052 8.1564719246 5.2208668396 
Si 7.0808602624 6.8350538960 6.6320667983 
Si 8.4512612411 5.5360726096 7.9120817052 

