&CONTROL
   calculation      = 'scf'
   tstress          = .true.
   tprnfor          = .true.
   outdir           = './'
   disk_io          = 'none'
   pseudo_dir       = './'
/
&SYSTEM
   ecutwfc          = 30
   input_dft        = 'PBE'
   ntyp             = 1
   nat              = 64
   ibrav            = 0
/
&ELECTRONS
   electron_maxstep = 1000
   mixing_beta      = 0.5
/
&IONS
/
&CELL
/

ATOMIC_SPECIES
Si 28.085 Si_ONCV_PBE-1.0.upf

K_POINTS gamma

CELL_PARAMETERS angstrom
10.84126408011645 0.00000000000000 0.00000000000000
0.00000000000000 10.63278658436671 0.00000000000000
0.00000000000000 0.00000000000000 11.10284216920849

ATOMIC_POSITIONS angstrom
Si 4.1328550077 4.1149146467 1.4259434992 
Si 0.0049734796 2.7342660824 2.8153543702 
Si 4.0405025667 1.3986020762 4.2079120227 
Si 0.0911844517 0.0414203201 0.0339429188 
Si 1.3021305170 4.1516165931 4.2361241199 
Si 2.6297242034 2.7421381471 0.0248883486 
Si 1.2787272708 1.4438794065 1.3966071754 
Si 2.6299128619 0.0103125460 2.9504426451 
Si 4.0957222744 4.1040891272 7.0942618826 
Si -0.0451966054 2.7446779260 8.5843671916 
Si 4.0924289284 1.2740498540 9.8907365414 
Si 0.0220847012 -0.0117068672 5.7641275565 
Si 1.3322366334 4.0034334255 9.9140129941 
Si 2.6234639518 2.7468622775 5.6286569477 
Si 1.3046022000 1.2960281616 7.1010641993 
Si 2.7739544058 0.0421169448 8.6413465726 
Si 3.9999938075 9.4662381057 1.4288094244 
Si 0.0372902859 8.1423618529 2.8405371512 
Si 4.1521132249 6.7615706553 4.3762918594 
Si 0.0254144016 5.3723124132 0.0672950002 
Si 1.4594046275 9.5729153892 4.2008364957 
Si 2.7578554547 8.0460504394 -0.0054432240 
Si 1.4366356701 6.8069000379 1.4507803418 
Si 2.7151018460 5.3218290287 2.8740481569 
Si 4.1453739438 9.4576223081 7.1256039032 
Si 0.0723639869 8.0636645699 8.4716641852 
Si 4.1498423463 6.8451543198 9.9596671644 
Si -0.0931022641 5.3566393043 5.7867507732 
Si 1.3824859353 9.5567419588 9.9939341591 
Si 2.7223301933 8.1686019649 5.6581172860 
Si 1.3782109939 6.8220673837 7.2034561659 
Si 2.8123465373 5.4235522352 8.5064841402 
Si 9.5196065137 4.0365776531 1.5130380995 
Si 5.4417271823 2.7781340140 2.8903425185 
Si 9.5464055865 1.3099822395 4.3014676223 
Si 5.3709359630 -0.0900660959 0.0594991064 
Si 6.7867434973 4.0643051699 4.3535445853 
Si 8.0981934539 2.6425619681 -0.0467301873 
Si 6.7175862315 1.3503465218 1.4022369031 
Si 8.2321686813 -0.0900688449 2.8625006610 
Si 9.4534006260 4.1299337752 7.0467502824 
Si 5.4457347060 2.6550191166 8.5517331960 
Si 9.6021845683 1.3780779680 9.9290298139 
Si 5.4967925821 -0.0317074179 5.7797150508 
Si 6.7183585685 4.0395788406 9.9714940960 
Si 8.1306873742 2.6259238884 5.7114514967 
Si 6.7571490771 1.3974241081 7.1026583984 
Si 8.2155206691 0.0481374614 8.6117257952 
Si 9.4647533587 9.5400384621 1.3398704904 
Si 5.4667074136 8.1326999910 2.9074006302 
Si 9.5661127585 6.7918664549 4.2989684625 
Si 5.4897624453 5.4822437026 -0.0951685795 
Si 6.8789256496 9.4471824624 4.2511605684 
Si 8.0872737913 8.1654210283 0.0119906700 
Si 6.8796046102 6.6791854264 1.5224310321 
Si 8.1382203921 5.3894412477 2.9185794239 
Si 9.4701714080 9.4468399785 7.1005836819 
Si 5.3610348114 8.0346639191 8.6331635483 
Si 9.4452637313 6.7273301803 10.0319232715 
Si 5.5077010910 5.4866644462 5.6352969706 
Si 6.8420552271 9.5099327130 10.0960633239 
Si 8.1827545362 8.1613616530 5.6516523698 
Si 6.7795088568 6.7594473590 7.2302459993 
Si 8.1328254088 5.5001316732 8.5311021520 

