&CONTROL
   calculation      = 'scf'
   tstress          = .true.
   tprnfor          = .true.
   outdir           = './'
   disk_io          = 'none'
   pseudo_dir       = './'
/
&SYSTEM
   ecutwfc          = 30
   input_dft        = 'PBE'
   ntyp             = 1
   nat              = 64
   ibrav            = 0
/
&ELECTRONS
   electron_maxstep = 1000
   mixing_beta      = 0.5
/
&IONS
/
&CELL
/

ATOMIC_SPECIES
Si 28.085 Si_ONCV_PBE-1.0.upf

K_POINTS gamma

CELL_PARAMETERS angstrom
10.92965914756866 0.00000000000000 0.00000000000000
0.00000000000000 11.09973252446930 0.00000000000000
0.00000000000000 0.00000000000000 11.19264017985871

ATOMIC_POSITIONS angstrom
Si 4.1007310935 4.2449459211 1.4000637197 
Si -0.0246177374 2.9054115551 2.8382159854 
Si 4.0969351784 1.3728466223 4.3475244951 
Si 0.0409593298 0.0918918488 0.0732998623 
Si 1.3402695123 4.1593384030 4.3033471688 
Si 2.7568128579 2.7250250352 -0.0189072127 
Si 1.2660980341 1.4406110652 1.4818195191 
Si 2.6072016912 0.0337704673 2.8557228878 
Si 4.0041255287 4.3115172083 7.2939217494 
Si -0.0698036093 2.7234980396 8.5259751764 
Si 4.0627317845 1.4984409976 9.9665073201 
Si -0.0073538334 -0.0630693797 5.8537437649 
Si 1.3350344492 4.2733626091 10.1443356437 
Si 2.6834797402 2.8002369362 5.8080921826 
Si 1.3668691321 1.3759767200 7.1435836883 
Si 2.7550916703 0.0320224014 8.5763227640 
Si 3.9997448356 9.7875032066 1.4554401522 
Si -0.0121627750 8.5062921992 2.7935819202 
Si 3.9588953358 6.9901303226 4.2644351971 
Si -0.0301676442 5.5162587969 0.1000413995 
Si 1.4072409654 9.7693892073 4.3706827291 
Si 2.6437237883 8.4986834322 -0.0890543429 
Si 1.2440814030 7.0212749046 1.4079307802 
Si 2.6439518925 5.6135043961 2.8539166324 
Si 4.0623166554 9.7812261634 7.1004686215 
Si -0.0707211248 8.3653237260 8.5398996465 
Si 4.0151870288 7.0020115911 10.0963124046 
Si 0.0437517227 5.6282205755 5.7191921956 
Si 1.4060888277 9.8321376262 10.1117652750 
Si 2.7087894712 8.3867082567 5.7889941369 
Si 1.2505976981 7.1022296888 7.2280190818 
Si 2.5747222036 5.6958833528 8.6873979681 
Si 9.3868658717 4.1389104538 1.5139640689 
Si 5.3237645115 2.8097737965 2.8602254079 
Si 9.2739558926 1.3630342479 4.3470082549 
Si 5.4300703430 -0.0405247415 -0.0059017557 
Si 6.6353647364 4.2790029126 4.2872254537 
Si 8.0189900617 2.8580372176 -0.0873153901 
Si 6.5880815625 1.4194570804 1.4071139691 
Si 8.0821705169 -0.0579869804 2.9807856799 
Si 9.3745474646 4.1448400087 7.1853281602 
Si 5.3441322227 2.8199946895 8.5438365752 
Si 9.3786694765 1.5036861808 10.0223192139 
Si 5.4403037253 -0.0960257544 5.7538971954 
Si 6.6474905907 4.2411434196 10.0037095342 
Si 7.9869392494 2.7137859837 5.6836109493 
Si 6.6978134376 1.4422903653 7.1100762641 
Si 7.9787558683 -0.0943007402 8.5250775782 
Si 9.3831524371 9.8133150929 1.4674511880 
Si 5.3225929024 8.3308009404 2.8075569087 
Si 9.3307461480 6.9221644948 4.3224644558 
Si 5.3070725268 5.5191600767 -0.0458611231 
Si 6.6402728615 9.8669301763 4.4049483703 
Si 8.0681591234 8.4446273168 -0.0005603288 
Si 6.7765854013 6.9276772442 1.4545811678 
Si 8.0311262298 5.5943161669 2.8311411551 
Si 9.4247716348 9.9031452630 7.1629622541 
Si 5.3791299242 8.4230621329 8.6012172630 
Si 9.3768807464 7.0615207165 10.1054712176 
Si 5.3763939160 5.6855816039 5.7075291045 
Si 6.7743368074 9.8494303423 10.1322997219 
Si 7.9199660193 8.3276418932 5.7367526803 
Si 6.5983126442 7.0263906822 7.1284657832 
Si 8.0000399862 5.6247999142 8.5301401732 

