&CONTROL
   calculation      = 'scf'
   tstress          = .true.
   tprnfor          = .true.
   outdir           = './'
   disk_io          = 'none'
   pseudo_dir       = './'
/
&SYSTEM
   ecutwfc          = 30
   input_dft        = 'PBE'
   ntyp             = 1
   nat              = 64
   ibrav            = 0
/
&ELECTRONS
   electron_maxstep = 1000
   mixing_beta      = 0.5
/
&IONS
/
&CELL
/

ATOMIC_SPECIES
Si 28.085 Si_ONCV_PBE-1.0.upf

K_POINTS gamma

CELL_PARAMETERS angstrom
11.17282474239992 0.00000000000000 0.00000000000000
0.00000000000000 10.75131393586179 0.00000000000000
0.00000000000000 0.00000000000000 10.90221287841606

ATOMIC_POSITIONS angstrom
Si 4.1612493858 3.8644065607 1.2782788688 
Si -0.0947851292 2.5585504568 2.7557948814 
Si 4.1360799608 1.3634321380 4.0957220067 
Si -0.1018175292 -0.0357658012 -0.0794676707 
Si 1.4627420112 3.9808287634 4.0308106840 
Si 2.8546999826 2.5445095441 0.0634504667 
Si 1.4728457516 1.3116977526 1.3233354157 
Si 2.8036925911 -0.0489469055 2.6469582021 
Si 4.2831582494 3.9166506182 6.6776811815 
Si -0.0082382680 2.5738794701 8.0497244744 
Si 4.2730128690 1.3708756449 9.3808998147 
Si 0.0275955467 -0.0562058699 5.3376938379 
Si 1.4433732700 3.8792219575 9.4236512002 
Si 2.8697598877 2.6238678938 5.4294557756 
Si 1.4114286471 1.2447035221 6.7634708203 
Si 2.8748237183 -0.0005886973 8.1504837786 
Si 4.1446150782 9.2729410075 1.3947089892 
Si 0.0433149737 7.9740614792 2.6436325486 
Si 4.1921534350 6.5189008390 3.9456940852 
Si -0.0716573338 5.2599605771 0.0668097770 
Si 1.4369305736 9.1698807162 3.9870601010 
Si 2.8568068039 7.9589985143 0.0786628458 
Si 1.4651899914 6.5940771197 1.2822638507 
Si 2.8631540033 5.1889102338 2.7797582116 
Si 4.2017727703 9.2126298814 6.6926170555 
Si 0.0500373451 7.8696541348 8.1115414237 
Si 4.1768148204 6.5263583122 9.4981944290 
Si -0.0752884694 5.1621962918 5.3919429584 
Si 1.3020087481 9.2123322331 9.3887301077 
Si 2.7631523682 7.8944217710 5.3277408989 
Si 1.4662754029 6.6091594487 6.8095639042 
Si 2.7541271442 5.1721582203 8.0946025158 
Si 9.8498349226 3.9250299194 1.3283435878 
Si 5.5191480506 2.6190554370 2.7741455793 
Si 9.8682192044 1.2924257141 3.9391594856 
Si 5.5105593525 -0.0000687221 0.0503541858 
Si 6.9819261454 3.8482644317 4.1040892205 
Si 8.2828658812 2.6814009229 -0.0282916895 
Si 6.9037600852 1.3552770532 1.3989321581 
Si 8.3915851626 0.0551475804 2.5945052027 
Si 9.7933453194 3.9206361005 6.6777817446 
Si 5.6631100783 2.6993544123 8.0785975533 
Si 9.7569842799 1.3585571634 9.3193339432 
Si 5.5414652148 -0.0417285121 5.2884272683 
Si 6.9323605398 4.0040039315 9.4518763641 
Si 8.4704804256 2.7189256207 5.3994571204 
Si 6.8937111586 1.3777910692 6.7779760318 
Si 8.4528412281 0.0222487684 8.0113344821 
Si 9.8136144897 9.1362546361 1.3056485921 
Si 5.4848161517 7.9577535715 2.6646788718 
Si 9.7821775020 6.5350118056 4.0564186749 
Si 5.6810155733 5.1871705144 0.0749954600 
Si 6.9693476805 9.2711513783 3.9971508172 
Si 8.3583305394 7.8991199120 0.0760808858 
Si 6.9076992906 6.5262902639 1.2657098356 
Si 8.4231503854 5.2039363949 2.6266127873 
Si 9.6800298489 9.2524819858 6.6758121260 
Si 5.6794088527 7.8964970874 8.0480224466 
Si 9.7342307712 6.5017071219 9.4009926248 
Si 5.5736802828 5.3281174959 5.4562695776 
Si 6.9965797634 9.1957207788 9.3392752402 
Si 8.3492942082 7.8962241823 5.3128741593 
Si 6.9227672532 6.6567755994 6.8072589316 
Si 8.4162155038 5.1737565954 8.0582593962 

