&CONTROL
   calculation      = 'scf'
   tstress          = .true.
   tprnfor          = .true.
   outdir           = './'
   disk_io          = 'none'
   pseudo_dir       = './'
/
&SYSTEM
   ecutwfc          = 30
   input_dft        = 'PBE'
   ntyp             = 1
   nat              = 64
   ibrav            = 0
/
&ELECTRONS
   electron_maxstep = 1000
   mixing_beta      = 0.5
/
&IONS
/
&CELL
/

ATOMIC_SPECIES
Si 28.085 Si_ONCV_PBE-1.0.upf

K_POINTS gamma

CELL_PARAMETERS angstrom
11.23347716427789 0.00000000000000 0.00000000000000
0.00000000000000 10.85151268756762 0.00000000000000
0.00000000000000 0.00000000000000 11.27843249295372

ATOMIC_POSITIONS angstrom
Si 4.1784721346 4.0763995155 1.5056788886 
Si -0.0481823820 2.6073345689 2.8075077143 
Si 4.2274620186 1.3350406764 4.1702275054 
Si 0.0417149248 0.0324796439 0.0826120165 
Si 1.3970562830 3.9975575992 4.1734559014 
Si 2.8203015094 2.7515125702 -0.0403830635 
Si 1.3232706757 1.2519659717 1.3152394189 
Si 2.7283777188 -0.0395368875 2.7324528138 
Si 4.1285661740 3.9563957386 7.1148482266 
Si -0.0908159685 2.6135941598 8.5073196838 
Si 4.0652686445 1.2534985271 9.9007224876 
Si 0.0643943497 0.0539058678 5.6771057816 
Si 1.4120355102 3.9195591222 9.9368182856 
Si 2.8695398128 2.7014082243 5.5752687385 
Si 1.4869919934 1.3458404546 7.0722484329 
Si 2.7709968511 -0.0045158332 8.5117758005 
Si 4.0870341209 9.2906518049 1.3646435343 
Si 0.0603462610 8.0177611410 2.7642563177 
Si 4.2134239083 6.6016748013 4.2927855456 
Si 0.0835773066 5.3188891243 -0.0243229634 
Si 1.3051015394 9.4364009588 4.1765194225 
Si 2.8241881902 7.9559251312 0.0964247643 
Si 1.4480467893 6.7343216181 1.3972819419 
Si 2.8278136779 5.4195290527 2.8768070206 
Si 4.1956139036 9.4589452175 7.0394252234 
Si -0.0621003365 8.0972976130 8.5219630983 
Si 4.1980496709 6.6655071368 9.9394515711 
Si -0.0620055737 5.4094481622 5.7191073564 
Si 1.4302487728 9.4431254809 9.9212935258 
Si 2.7751850953 7.9389279000 5.6344955148 
Si 1.4325521622 6.7067919492 7.0974284309 
Si 2.7274892814 5.4221986797 8.4210576636 
Si 9.6892408073 4.0858627032 1.4269178157 
Si 5.6402281786 2.6496993957 2.8714889481 
Si 9.7318301716 1.3848957756 4.1953247597 
Si 5.5982530265 -0.0451723571 -0.0422490219 
Si 6.9834097264 3.9210111569 4.2698106650 
Si 8.3500374695 2.5922393280 0.0909058631 
Si 6.8423420014 1.3598469846 1.4680047995 
Si 8.4168545811 -0.0111589672 2.8179793160 
Si 9.6909882760 3.9376016181 7.1305339396 
Si 5.4646994846 2.5989778161 8.4262065415 
Si 9.7438111530 1.3971568862 9.8146936625 
Si 5.5753889158 0.0523344767 5.6774165381 
Si 6.8467248371 4.0386391847 9.8246802815 
Si 8.4024134130 2.7233615493 5.5879384497 
Si 6.9263704565 1.4087463816 7.1042675151 
Si 8.3890341117 -0.0834334423 8.5374353515 
Si 9.7575308098 9.3815141050 1.3149767220 
Si 5.5508504415 7.9969530013 2.8268299031 
Si 9.7220343823 6.6067881320 4.1500405930 
Si 5.6430866012 5.3767001455 -0.0560443697 
Si 6.9052717511 9.3001529601 4.2485647198 
Si 8.3998754571 7.9696096650 0.0706061313 
Si 7.0144296027 6.6681963321 1.3448127473 
Si 8.3200235706 5.4306384078 2.7583836409 
Si 9.6999015685 9.4585377146 6.9583229015 
Si 5.6330688180 7.9955648961 8.4026085175 
Si 9.7203523049 6.7282089209 9.7649521774 
Si 5.6114973636 5.2715105275 5.6289444488 
Si 6.8457788084 9.2705353371 9.8383032363 
Si 8.3749079684 7.9930115262 5.7121115407 
Si 7.0236768909 6.7741300242 7.0413758134 
Si 8.3253898815 5.3107116329 8.5012843536 

