&CONTROL
   calculation      = 'scf'
   tstress          = .true.
   tprnfor          = .true.
   outdir           = './'
   disk_io          = 'none'
   pseudo_dir       = '/home/ppiaggi/pseudos'
/
&SYSTEM
   ecutwfc          = 30
   input_dft        = 'PBE'
   ntyp             = 1
   nat              = 64
   ibrav            = 0
/
&ELECTRONS
   electron_maxstep = 1000
   mixing_beta      = 0.5
/
&IONS
/
&CELL
/

ATOMIC_SPECIES
Si 28.085 Si_ONCV_PBE_sr.upf

K_POINTS gamma

CELL_PARAMETERS angstrom
11.04324129653050 0.00000000000000 0.00000000000000
0.00000000000000 11.03148409679342 0.00000000000000
0.00000000000000 0.00000000000000 11.01427814602097

ATOMIC_POSITIONS angstrom
Si -0.0057051657 0.0084007977 -0.0051764847 
Si -0.0079990928 2.7632534813 2.7609793242 
Si 2.7342178818 0.0055645580 2.7576012136 
Si 2.7324559854 2.7651846199 -0.0084555804 
Si 1.3740070192 1.3917045353 1.3803473055 
Si 5.4687871628 0.0007816658 0.0064646796 
Si 5.4739696904 2.7759970446 2.7449531445 
Si 6.8485527846 1.3819894456 1.3851180091 
Si 8.2258944751 0.0008572860 2.7596745560 
Si 8.2131732451 2.7624446467 0.0074593207 
Si 0.0028372297 5.5413777804 0.0082908130 
Si 2.7409267805 5.5414237879 2.7609461469 
Si 1.3604822234 6.9294494270 1.3745912028 
Si 4.1154048693 4.1612225828 1.3803346583 
Si 5.4855731771 5.5273372569 -0.0037268823 
Si 6.8555994408 6.9175099145 1.3752702496 
Si 9.5942186079 4.1568509122 1.3849470244 
Si 8.2168128914 5.5347056714 2.7430336720 
Si 0.0036622269 8.3038960733 2.7570958117 
Si 2.7479261236 8.3108839553 0.0058923046 
Si 4.1008934521 9.6860996777 1.3810132210 
Si 5.4836538222 8.3005768416 2.7579383800 
Si 8.2242364508 8.3039524213 0.0054008713 
Si 9.5931244083 9.6810817731 1.3791534629 
Si 0.0010682093 0.0051818196 5.5086989726 
Si 2.7291514379 2.7738740668 5.4960718072 
Si 1.3776207293 1.3922907582 6.8776088015 
Si 4.1002845827 1.3884716432 4.1279200571 
Si 5.4790735948 0.0030172016 5.5115954292 
Si 6.8515364060 1.3820896002 6.8849350133 
Si 9.5845348396 1.3747818484 4.1237846351 
Si 8.2262409599 2.7660569274 5.4986409984 
Si 1.3752098924 4.1600624751 4.1311315077 
Si 0.0006763311 5.5357077903 5.5153231131 
Si 1.3719456526 6.9141866246 6.8880988234 
Si 6.8421681840 4.1623330558 4.1255044508 
Si 4.1119308767 6.9134977734 4.1376863948 
Si 4.1124102584 4.1582814451 6.8851217218 
Si 5.4682497663 5.5339941784 5.5076005887 
Si 6.8518790757 6.9231717822 6.8875911709 
Si 9.5786329343 6.9289459754 4.1370135937 
Si 9.5840561517 4.1426755389 6.8888499182 
Si 1.3706924250 9.6814516845 4.1274395629 
Si 2.7308467641 8.3045200116 5.5039295001 
Si 6.8551538194 9.6973642863 4.1289327036 
Si 4.1042628969 9.6826860648 6.8844953236 
Si 8.2080832055 8.3012165922 5.5113231407 
Si 9.5875635409 9.6948291468 6.8827029014 
Si 0.0060601385 2.7718795282 8.2573805889 
Si 2.7385430742 0.0094660170 8.2665057477 
Si 4.1076584849 1.3813840499 9.6251143312 
Si 5.4758791567 2.7731322041 8.2579733678 
Si 8.2129822924 -0.0005472345 8.2510044859 
Si 9.5804762710 1.3830175514 9.6355826872 
Si 1.3788664331 4.1591554314 9.6427037312 
Si 2.7391289986 5.5456731938 8.2535414607 
Si 6.8413866456 4.1619673998 9.6401313850 
Si 4.0996321175 6.9280686465 9.6303855496 
Si 8.2091875014 5.5300738723 8.2494445364 
Si 9.5861423376 6.9294431919 9.6266055469 
Si 0.0090826855 8.3136049078 8.2503709326 
Si 1.3618859939 9.6986728509 9.6272889688 
Si 5.4768784912 8.3035545969 8.2513385409 
Si 6.8410883815 9.6985592461 9.6410202338 

