&CONTROL
   calculation      = 'scf'
   tstress          = .true.
   tprnfor          = .true.
   outdir           = './'
   disk_io          = 'none'
   pseudo_dir       = '/home/ppiaggi/pseudos'
/
&SYSTEM
   ecutwfc          = 30
   input_dft        = 'PBE'
   ntyp             = 1
   nat              = 64
   ibrav            = 0
/
&ELECTRONS
   electron_maxstep = 1000
   mixing_beta      = 0.5
/
&IONS
/
&CELL
/

ATOMIC_SPECIES
Si 28.085 Si_ONCV_PBE_sr.upf

K_POINTS gamma

CELL_PARAMETERS angstrom
10.96812432182046 0.00000000000000 0.00000000000000
0.00000000000000 11.01184871139148 0.00000000000000
0.00000000000000 0.00000000000000 10.93374521333500

ATOMIC_POSITIONS angstrom
Si 0.0019291015 -0.0059338617 -0.0027312685 
Si 0.0057081854 2.7662817088 2.7576811944 
Si 2.7592732619 -0.0001075387 2.7443470792 
Si 2.7466051915 2.7741359538 -0.0093620832 
Si 1.3803366411 1.3818536160 1.3748279994 
Si 5.5146083618 -0.0014781118 0.0039227032 
Si 5.5032783309 2.7760665094 2.7480693896 
Si 6.8926883338 1.3904593870 1.3779533571 
Si 8.2579518901 0.0081703896 2.7383445651 
Si 8.2719414638 2.7793202026 0.0055877413 
Si 0.0083293179 5.5437121391 0.0068470690 
Si 2.7608009088 5.5481881852 2.7443706300 
Si 1.3806481206 6.9232833190 1.3781259358 
Si 4.1373679647 4.1653401247 1.3650848273 
Si 5.5122004332 5.5475724237 0.0035651861 
Si 6.8898655344 6.9288795468 1.3799959991 
Si 9.6497187582 4.1530663900 1.3645102492 
Si 8.2597206194 5.5380825438 2.7503473626 
Si 0.0048474534 8.3072973673 2.7535171850 
Si 2.7518827888 8.3100523083 0.0076059803 
Si 4.1428636989 9.7051019998 1.3659214983 
Si 5.5092924287 8.3126951944 2.7385048733 
Si 8.2632516172 8.3089355788 0.0065218234 
Si 9.6412946007 9.6987672018 1.3801886021 
Si -0.0053471996 0.0011883626 5.4889603189 
Si 2.7595495703 2.7771926522 5.4915466606 
Si 1.3767238148 1.3870431410 6.8769716453 
Si 4.1260256520 1.3765487155 4.1278994302 
Si 5.5201278604 0.0008243874 5.4892292758 
Si 6.8822610822 1.3867404589 6.8636087912 
Si 9.6531168687 1.3860392923 4.1192757261 
Si 8.2690291104 2.7677550397 5.5037492428 
Si 1.3689581923 4.1532375090 4.1277992153 
Si 0.0040791852 5.5309619825 5.4881933403 
Si 1.3837061454 6.9178369092 6.8659717369 
Si 6.8790703968 4.1641393815 4.1278211395 
Si 4.1294805592 6.9238258987 4.1172874331 
Si 4.1320000254 4.1520196712 6.8706175820 
Si 5.5010792183 5.5481139077 5.5002340319 
Si 6.8977395189 6.9230905675 6.8653900736 
Si 9.6359267347 6.9284223755 4.1279789331 
Si 9.6388404357 4.1606020543 6.8739767579 
Si 1.3703479649 9.7024397646 4.1321669887 
Si 2.7541035171 8.3054513999 5.4993181779 
Si 6.8854599941 9.7001769924 4.1235802861 
Si 4.1244236285 9.6930495699 6.8754560558 
Si 8.2627133568 8.3196671838 5.5047930707 
Si 9.6493711046 9.6982622127 6.8662355112 
Si -0.0011487354 2.7710249811 8.2509270890 
Si 2.7648446206 -0.0055804939 8.2444326644 
Si 4.1428148656 1.3935824937 9.6142144032 
Si 5.5149426761 2.7634983126 8.2362003064 
Si 8.2674407604 0.0100489412 8.2441415898 
Si 9.6341107312 1.3864622339 9.6105855867 
Si 1.3695269230 4.1539458158 9.6176308408 
Si 2.7489427220 5.5328990126 8.2377971379 
Si 6.8942903528 4.1647711662 9.6155761655 
Si 4.1374443220 6.9203768713 9.6184496137 
Si 8.2718663660 5.5376884902 8.2436035351 
Si 9.6521803154 6.9178301877 9.6252274825 
Si -0.0037498650 8.3024705546 8.2543081522 
Si 1.3740905237 9.6980978997 9.6095477135 
Si 5.5131667641 8.3204558047 8.2511866265 
Si 6.8872552384 9.6919188504 9.6171088516 

