&CONTROL
   calculation      = 'scf'
   tstress          = .true.
   tprnfor          = .true.
   outdir           = './'
   disk_io          = 'none'
   pseudo_dir       = '/home/ppiaggi/pseudos'
/
&SYSTEM
   ecutwfc          = 30
   input_dft        = 'PBE'
   ntyp             = 1
   nat              = 64
   ibrav            = 0
/
&ELECTRONS
   electron_maxstep = 1000
   mixing_beta      = 0.5
/
&IONS
/
&CELL
/

ATOMIC_SPECIES
Si 28.085 Si_ONCV_PBE_sr.upf

K_POINTS gamma

CELL_PARAMETERS angstrom
10.94467731450506 0.00000000000000 0.00000000000000
0.00000000000000 10.96949309664539 0.00000000000000
0.00000000000000 0.00000000000000 11.07979006484759

ATOMIC_POSITIONS angstrom
Si -0.0076326955 -0.0092863324 -0.0005383008 
Si -0.0056376011 2.7366898244 2.7520982397 
Si 2.7336330820 0.0015810458 2.7507865536 
Si 2.7398366200 2.7293959078 -0.0009354642 
Si 1.3775220276 1.3746251529 1.3782812350 
Si 5.4798049074 0.0077138282 -0.0062102653 
Si 5.4777947299 2.7378738751 2.7562483904 
Si 6.8457595118 1.3654346263 1.3651250673 
Si 8.2193707608 -0.0086089036 2.7583815941 
Si 8.2178475576 2.7465440937 0.0021206777 
Si -0.0057081176 5.4802042567 -0.0049577733 
Si 2.7444624805 5.4847841520 2.7390098487 
Si 1.3725737857 6.8556123996 1.3831831184 
Si 4.1094575112 4.1105498139 1.3675237610 
Si 5.4858319021 5.4808524734 0.0096623692 
Si 6.8528622766 6.8420190026 1.3672941015 
Si 9.5834733443 4.1032584387 1.3774535392 
Si 8.2188214893 5.4692820542 2.7441041683 
Si 0.0013893333 8.2099206558 2.7421737544 
Si 2.7372103520 8.2135503849 0.0053654317 
Si 4.1022800320 9.5917728768 1.3656634017 
Si 5.4759327108 8.2100531533 2.7498824014 
Si 8.2194654606 8.2247831162 0.0076708941 
Si 9.5801741656 9.5781813590 1.3685167038 
Si 0.0017766349 0.0025552580 5.5033585476 
Si 2.7451016500 2.7473424619 5.4979676066 
Si 1.3701285612 1.3754730734 6.8729229343 
Si 4.1075515133 1.3647163375 4.1298880051 
Si 5.4849267204 0.0057793877 5.4933973919 
Si 6.8390711101 1.3648306973 6.8798039242 
Si 9.5862337043 1.3672272897 4.1226618795 
Si 8.2180209835 2.7297507884 5.4946096718 
Si 1.3620320228 4.1031234954 4.1309016701 
Si -0.0000628236 5.4861415755 5.4985904996 
Si 1.3768442491 6.8498507235 6.8822701830 
Si 6.8382222764 4.1187306945 4.1285614449 
Si 4.0996848512 6.8453760016 4.1156904828 
Si 4.1045436217 4.1104697361 6.8728015302 
Si 5.4773647623 5.4767739951 5.4977153494 
Si 6.8437535306 6.8564630960 6.8659513830 
Si 9.5923928090 6.8565034649 4.1304103649 
Si 9.5774388336 4.1153628036 6.8660211532 
Si 1.3649152957 9.5915853730 4.1200302836 
Si 2.7482093003 8.2106167399 5.4923231408 
Si 6.8474530923 9.5971476866 4.1276641733 
Si 4.1166828900 9.5794970759 6.8702372240 
Si 8.2165591562 8.2222621809 5.4942052385 
Si 9.5808832914 9.5912312090 6.8652599077 
Si 0.0074849595 2.7357160350 8.2494013983 
Si 2.7402838960 -0.0060455376 8.2441978442 
Si 4.0997418820 1.3656866239 9.6203163931 
Si 5.4698994548 2.7453947651 8.2376646985 
Si 8.2275470828 0.0037188765 8.2535598038 
Si 9.5945441053 1.3654916846 9.6281142607 
Si 1.3731395367 4.1003923039 9.6155947969 
Si 2.7471555522 5.4764199139 8.2406108715 
Si 6.8514968617 4.1173059709 9.6121426463 
Si 4.1142119355 6.8574755265 9.6117522374 
Si 8.2183068993 5.4842386618 8.2543057397 
Si 9.5879817766 6.8511650473 9.6285608142 
Si 0.0083638351 8.2143141716 8.2486477537 
Si 1.3663151796 9.5945889196 9.6126735069 
Si 5.4780416048 8.2273121894 8.2415105467 
Si 6.8563740762 9.5798309077 9.6251439202 

