&CONTROL
   calculation      = 'scf'
   tstress          = .true.
   tprnfor          = .true.
   outdir           = './'
   disk_io          = 'none'
   pseudo_dir       = '/home/ppiaggi/pseudos'
/
&SYSTEM
   ecutwfc          = 30
   occupations      = 'smearing'
   degauss          = 0.01
   smearing         = 'fermi-dirac'
   input_dft        = 'PBE'
   ntyp             = 1
   nat              = 64
   ibrav            = 0
/
&ELECTRONS
   electron_maxstep = 100
   mixing_beta      = 0.5
/
&IONS
/
&CELL
/

ATOMIC_SPECIES
Si 28.085 Si_ONCV_PBE_sr.upf

K_POINTS gamma

CELL_PARAMETERS angstrom
10.58225149548110 0.00000000000000 0.00000000000000
0.00000000000000 10.58225149548110 0.00000000000000
0.00000000000000 0.00000000000000 10.58225149548110

ATOMIC_POSITIONS angstrom
Si 5.6251650984 4.7016731749 10.0941028162 
Si 9.3818643793 3.5232653952 1.8949214463 
Si 2.4495160827 2.1625148399 5.5537560654 
Si 6.2684601669 9.4253468507 2.0060245047 
Si 9.5648420900 3.2151737251 5.5881378005 
Si 1.3962434268 8.7153624334 4.7825533231 
Si 4.0626639184 4.6922655534 7.1721103688 
Si 4.0187793214 1.2865901368 10.4128931425 
Si 2.6965164148 0.9972777303 2.6721560719 
Si 2.2932797216 10.2494502682 6.8953104164 
Si 5.5259459084 3.3831140564 8.1493495477 
Si 7.7565152076 8.7039124373 7.7319643842 
Si 7.1748617542 4.0124828818 3.9852230019 
Si 0.2333121898 0.9510608051 1.3302630887 
Si 7.2340482868 1.2887912451 8.3777780284 
Si 8.1292221053 6.7541537637 2.0584066496 
Si 3.1517013806 1.8645080555 8.2470872225 
Si 5.2630827813 10.2898638867 8.0724589083 
Si 6.4597237804 6.7221001240 8.8375662737 
Si 3.0981975171 8.6458687878 1.8354386106 
Si 2.9360774242 9.8426896852 10.4066919432 
Si 8.9303091258 0.6550752308 6.8695214695 
Si 4.2029634087 7.8795127168 5.5264009452 
Si 9.4391037777 5.6170379293 10.2678845503 
Si 7.7463033350 4.3741736557 7.0973785087 
Si 7.7710975502 8.8821704637 3.7279684681 
Si 0.0952400518 2.3760329283 9.8993364775 
Si 8.4725632551 10.1618186436 0.0005685219 
Si 6.4093628455 1.0383463901 0.3220052143 
Si 6.2363747803 9.3521070881 6.0669211871 
Si 8.5722586464 7.1608826000 5.1462335603 
Si 6.0059568363 1.8087395901 3.0277832156 
Si 3.2070148092 3.3834632707 0.5500421518 
Si 1.5825545466 3.9975619072 8.6041641347 
Si 9.8998867545 9.0351580736 6.1752516957 
Si 0.4305685324 9.7061468942 9.9852220306 
Si 0.3983487513 7.9388156542 8.2882733453 
Si 1.1563437854 6.8823789051 0.1185370901 
Si 9.8270173708 9.6794161269 2.5850323953 
Si 7.2288206546 3.2972390855 1.1386714254 
Si 4.4643344384 4.1727193339 4.8179509544 
Si 4.9810551967 7.4720748697 1.0081880316 
Si 8.5499406780 3.1310765725 9.4928298685 
Si 7.5026046653 0.5900758674 4.3981742020 
Si 0.9731099843 4.3993065030 0.9717914358 
Si 0.7663433723 0.6629960460 4.3684169108 
Si 1.1340258170 4.0114140744 6.3463455379 
Si 6.3125352443 6.2462268565 6.0317775299 
Si 9.9840262362 5.4605899232 7.8627186837 
Si 4.8123211966 1.2514888086 5.9462306088 
Si 0.8103316754 7.5664791353 2.4032293146 
Si 1.8024748972 5.2230395416 2.9796022246 
Si 0.3427527766 0.5930230245 8.2823261200 
Si 9.3193867665 1.6938586679 3.6597976040 
Si 3.1432144149 5.9237856534 9.7256182369 
Si 4.1111200480 2.9990524028 2.6696057493 
Si 2.7458508713 7.7161015892 7.5703734038 
Si 1.6174019008 6.3373188773 5.8204288030 
Si 4.0302293176 9.7979161791 3.9603123819 
Si 4.4407571821 8.2897866073 9.2870791527 
Si 7.7939340489 7.9302017014 10.5388536821 
Si 4.0663147952 6.1999718352 3.6406543110 
Si 9.8641187445 5.5212579710 3.9104593951 
Si 6.1412297571 5.6451232248 2.2095423655 

