&CONTROL
   calculation      = 'scf'
   tstress          = .true.
   tprnfor          = .true.
   outdir           = './'
   disk_io          = 'none'
   pseudo_dir       = '/home/ppiaggi/pseudos'
/
&SYSTEM
   ecutwfc          = 30
   occupations      = 'smearing'
   degauss          = 0.01
   smearing         = 'fermi-dirac'
   input_dft        = 'PBE'
   ntyp             = 1
   nat              = 64
   ibrav            = 0
/
&ELECTRONS
   electron_maxstep = 100
   mixing_beta      = 0.5
/
&IONS
/
&CELL
/

ATOMIC_SPECIES
Si 28.085 Si_ONCV_PBE_sr.upf

K_POINTS gamma

CELL_PARAMETERS angstrom
10.61343421026998 0.00000000000000 0.00000000000000
0.00000000000000 10.61343421026998 0.00000000000000
0.00000000000000 0.00000000000000 10.61343421026998

ATOMIC_POSITIONS angstrom
Si 9.4445236335 6.0396384180 3.6244134888 
Si 2.4954624918 7.1733442334 0.2299474816 
Si 6.1943610619 4.0514131739 4.9813941197 
Si 5.5967928755 8.5521248583 3.4705929868 
Si 5.1841743937 10.0430151886 0.3304694397 
Si 9.3590005807 2.7809850989 1.4698757306 
Si 6.2337687431 7.9828414741 6.8006004240 
Si 7.8234276922 10.0681265740 9.4886224527 
Si 10.2148254616 2.4451123599 8.1214104711 
Si 4.0411924368 2.7590789707 7.5908130547 
Si 10.1474407678 5.4904356513 0.2345399146 
Si 10.2684869850 10.5752258471 6.3905397798 
Si 1.7135707936 5.8384077053 8.6624090531 
Si 0.8689706806 1.0251070339 9.4747294673 
Si 6.4707561156 4.4987906527 0.4759254942 
Si 8.4103187638 7.2602788730 6.1539132641 
Si 4.1220137383 7.5889238634 5.3093598503 
Si 1.6799155937 5.2797802091 6.1112472586 
Si 3.9181933477 8.7147332838 1.7601000891 
Si 8.0666982178 10.6020672222 4.1240833580 
Si 4.1559448875 5.3094765980 5.7208426946 
Si 2.1489232514 8.4910763847 7.4137915855 
Si 4.6517514666 0.4808034285 8.4570178743 
Si 6.9344782831 1.6073090902 1.9046656765 
Si 0.6996588100 7.1710729585 1.4628177969 
Si 10.2968991484 1.8162876098 4.7120994535 
Si 2.8359308479 0.8933125920 0.3593305513 
Si 4.8331032169 2.4141529723 0.7681228901 
Si 6.7628484385 1.9287263319 9.4138826490 
Si 9.0619517840 9.0243590000 7.9447074050 
Si 2.8219423416 0.2571497135 4.7154108450 
Si 10.1961245906 4.1373289238 6.1205764672 
Si 1.9964188153 10.1665980166 2.6688753934 
Si 6.6304670736 10.5703436674 6.9038054582 
Si 6.7517892400 5.3033101928 8.8280847612 
Si 4.4129385834 5.6240481746 0.9702026774 
Si 6.1587105364 3.4562436237 7.1719114198 
Si 3.5582387265 2.6253178594 3.1059153873 
Si 4.3636073412 5.9254909330 8.2930190889 
Si 8.0995361832 7.9189592136 0.6973132410 
Si 5.1637647598 10.4817639455 4.8883779823 
Si 7.0136226620 9.9019095808 2.1130073901 
Si 2.4975957921 2.7205734314 5.7618636178 
Si 8.1039513719 1.7459523813 7.1002388986 
Si 9.2189350894 5.7502419073 7.9010649635 
Si 10.0886847960 7.4793719955 9.2478142439 
Si 6.0090186603 7.5522756750 10.3770411901 
Si 8.1552779397 5.9741004617 1.8110127330 
Si 4.5599558741 8.3143308648 8.3469459481 
Si 3.4687993164 4.8636062269 3.3988992387 
Si 8.7027082628 3.6941331381 3.5791896456 
Si 8.8112518545 3.5802297622 9.6486518137 
Si 1.2613854290 3.3263670293 10.5613328617 
Si 5.9094752608 6.0047308328 3.1613705810 
Si 1.2999440355 6.1756920311 3.5848253792 
Si 3.4758784770 4.0086198072 9.8719266292 
Si 1.9358797865 0.3203951679 7.0107039676 
Si 10.2605375228 8.5666652631 4.7572914564 
Si 1.3336098488 9.2169397638 9.7286240405 
Si 5.6217238325 1.8580302466 3.8224495577 
Si 10.3573744965 9.1836029669 2.1410056295 
Si 1.1025766129 2.1186006699 2.5162435960 
Si 1.9835128793 8.2017223278 4.6758545757 
Si 9.4835810714 0.1833311558 0.7632672439 

