&CONTROL
   calculation      = 'scf'
   tstress          = .true.
   tprnfor          = .true.
   outdir           = './'
   disk_io          = 'none'
   pseudo_dir       = '/home/ppiaggi/pseudos'
/
&SYSTEM
   ecutwfc          = 30
   occupations      = 'smearing'
   degauss          = 0.01
   smearing         = 'fermi-dirac'
   input_dft        = 'PBE'
   ntyp             = 1
   nat              = 64
   ibrav            = 0
/
&ELECTRONS
   electron_maxstep = 100
   mixing_beta      = 0.5
/
&IONS
/
&CELL
/

ATOMIC_SPECIES
Si 28.085 Si_ONCV_PBE_sr.upf

K_POINTS gamma

CELL_PARAMETERS angstrom
10.73344818821606 0.00000000000000 0.00000000000000
0.00000000000000 10.73344818821606 0.00000000000000
0.00000000000000 0.00000000000000 10.73344818821606

ATOMIC_POSITIONS angstrom
Si 1.5439313877 5.2728708232 9.3727045607 
Si 4.7477583374 5.4327670008 2.3016806295 
Si 10.1237239304 4.2337549706 4.2652791079 
Si 9.3686473173 0.7136658967 1.6948222024 
Si 4.8894398535 2.7511437724 6.2930314062 
Si 5.0672716231 4.8555865579 10.2525467756 
Si 7.9179895943 6.6368130182 5.3323663265 
Si 7.1793244234 1.8533874325 7.7166193729 
Si 10.1006792172 9.0548442261 6.7084158511 
Si 5.2854718913 3.7601845031 3.8378624676 
Si 7.1812135103 8.0208052945 1.2680603024 
Si 2.0516556874 0.1588110260 8.6310984250 
Si 7.3416678273 10.3596665885 0.5100878049 
Si 0.9751960219 9.9549941249 0.8381406220 
Si 9.5143538764 2.7981133416 7.6934673251 
Si 3.1236158914 0.8148629929 6.0921978571 
Si 6.9792314823 10.5443677649 6.2692782854 
Si 4.4791752634 1.7681638538 9.0084005958 
Si 4.6307959525 7.6480326389 4.5231287338 
Si 2.6093763887 1.4850584244 1.7187255915 
Si 2.6010150326 8.8995419642 10.1024395027 
Si 4.2781914461 9.3957063402 6.2875573476 
Si 10.2644823700 8.7927978220 9.6910479005 
Si 1.8128901324 6.9582046573 4.1959302992 
Si 3.5833938780 4.4138514978 7.7320970051 
Si 8.6335456512 9.2186044451 4.2951717611 
Si 9.7085648880 6.3943873574 7.6587875540 
Si 10.4106504674 3.6231613035 1.8947112080 
Si 6.4175823390 8.7495634927 3.3926819706 
Si 4.8747457630 10.3703249026 10.2012730936 
Si 1.8463033566 8.5969553264 6.2165985217 
Si 9.7119029904 5.0982376211 10.3705073712 
Si 1.5898276122 9.6182214546 3.2966283427 
Si 2.7300096129 3.2766963295 3.8912291720 
Si 7.7116175860 8.6618819544 7.3504263210 
Si 8.9361322891 6.0349241776 3.5096550889 
Si 5.5956256102 0.4601375571 4.3182701416 
Si 0.5097260877 4.5393577074 7.4384835299 
Si 8.5468623237 10.5479420032 9.0233308222 
Si 5.4792428315 8.5979857374 8.3787550581 
Si 10.4208472432 8.0894134953 2.8850542720 
Si 1.2781068099 6.6760330379 1.0875129704 
Si 2.3510759580 4.5764739713 1.6759206001 
Si 5.6252928610 5.9561621348 7.5654172882 
Si 6.1722479137 1.2151229359 1.8379312671 
Si 5.6664127010 5.4679834443 5.1887313228 
Si 9.4350122274 7.4141830033 0.6604902477 
Si 1.5418061650 1.1825898545 4.3855473949 
Si 1.4972516216 4.6556546185 5.3364235699 
Si 3.0441561745 3.4925459725 10.3297632019 
Si 7.5691417947 3.0988323595 3.0103136123 
Si 9.3945363943 2.1501458080 10.4054876788 
Si 4.1799374614 10.0738777971 2.2055948013 
Si 7.2797787650 5.0022805943 1.3451157269 
Si 7.7245406576 4.9354648794 8.7233846126 
Si 1.3650477402 1.8363427167 10.5792407381 
Si 1.4249189142 7.6088770199 8.4383256956 
Si 8.0414027816 3.9705386207 5.8720226345 
Si 10.7000993647 0.3445114865 7.6394136800 
Si 6.7535285338 2.7720203291 10.1826290941 
Si 8.8548478860 0.9553359227 4.1120913354 
Si 5.1836329349 7.3341973474 10.6979312082 
Si 3.3684780449 7.5828269412 1.9301852542 
Si 10.3515950355 1.6382783973 5.4612750392 

