&CONTROL
   calculation      = 'scf'
   tstress          = .true.
   tprnfor          = .true.
   outdir           = './'
   disk_io          = 'none'
   pseudo_dir       = '/home/ppiaggi/pseudos'
/
&SYSTEM
   ecutwfc          = 30
   occupations      = 'smearing'
   degauss          = 0.01
   smearing         = 'fermi-dirac'
   input_dft        = 'PBE'
   ntyp             = 1
   nat              = 64
   ibrav            = 0
/
&ELECTRONS
   electron_maxstep = 100
   mixing_beta      = 0.5
/
&IONS
/
&CELL
/

ATOMIC_SPECIES
Si 28.085 Si_ONCV_PBE_sr.upf

K_POINTS gamma

CELL_PARAMETERS angstrom
10.59777333716605 0.00000000000000 0.00000000000000
0.00000000000000 10.59777333716605 0.00000000000000
0.00000000000000 0.00000000000000 10.59777333716605

ATOMIC_POSITIONS angstrom
Si 4.4743057185 3.3136587782 4.7502823340 
Si 4.9620894319 0.9326845967 3.6725841656 
Si 2.8918673994 1.4299999475 6.5381690871 
Si 2.3609719441 4.3463376055 2.5088320777 
Si 9.5223642878 3.9142981799 7.6128786834 
Si 8.8234093429 4.2310974182 1.4043427382 
Si 10.3479202330 2.3573475056 1.7273310762 
Si 10.4758353571 5.6030215678 0.0502759427 
Si 4.7823511961 6.9671563540 1.0235181120 
Si 7.3771948022 5.0489487822 5.2074490802 
Si 10.1066619229 2.3407619903 9.6688891019 
Si 4.9698258065 3.1405123574 0.7174035487 
Si 2.8709367970 9.2417776409 7.6905709598 
Si 4.2659428970 7.2857254205 8.3902041622 
Si 6.2031204830 7.8894593720 6.2548588125 
Si 0.8973060500 1.2826273115 8.1032376557 
Si 7.7973859172 2.9427685047 9.8320206269 
Si 1.3086766383 4.5969643471 6.9113802729 
Si 4.4272833982 6.5852549940 3.1860933805 
Si 9.0592203974 6.7845673172 2.6359311733 
Si 7.8258091453 5.8402845173 9.4630591482 
Si 9.3021743512 9.1618068433 4.0524719486 
Si 3.6742268204 7.3552786069 5.5036886383 
Si 2.6436251567 5.8995896569 0.5689509996 
Si 6.4261506229 1.4976137414 1.6736109632 
Si 7.0322690734 9.4524507771 2.7448232943 
Si 5.9082692332 9.3615430774 0.6014162184 
Si 2.9014265909 8.5819284796 2.9472195695 
Si 2.9340253417 0.5250476040 9.4719188867 
Si 8.7586463500 0.1641573894 0.9330449210 
Si 4.7820650562 2.4162181365 7.8334607377 
Si 8.2252710157 6.3638993023 7.1718841393 
Si 4.9549465327 4.2679458761 2.6825189849 
Si 5.1014501513 5.1483558961 6.1326770837 
Si 1.1539809409 7.1640735804 1.9267175838 
Si 6.6606899446 7.2528511276 3.8703068227 
Si 6.2675973360 2.0048549666 5.8583113297 
Si 0.7295772110 1.1308777950 4.3114285401 
Si 6.9504648610 0.0987660546 8.3508334342 
Si 2.0453278630 3.1558473354 5.0579250962 
Si 0.3610322247 5.1453991173 3.4926127788 
Si 0.1820082788 9.8454480057 2.0952115821 
Si 5.6606098681 5.1929301308 10.1449092869 
Si 0.3051851386 9.7083234165 7.2525649877 
Si 9.0594959395 7.8427019960 0.1639560317 
Si 2.2956790625 2.3132713663 0.9126770605 
Si 1.6812731533 3.9221829232 9.6795398641 
Si 10.4314518824 7.2189912418 7.2307759658 
Si 8.3108586332 1.9757428832 3.3234299252 
Si 1.0209311955 8.8203465864 4.8681719646 
Si 6.7963308456 10.0175876380 5.5679853292 
Si 7.2307017813 4.2495057505 3.1032611841 
Si 1.0855723140 9.0918827348 10.2493927343 
Si 3.4336361701 9.4985828844 0.7094170667 
Si 5.5897955467 1.0442664327 9.8475463649 
Si 8.3844177779 2.8218055198 5.9670656797 
Si 1.7045670591 6.8991080514 8.9346223763 
Si 1.3115168416 6.4851060360 5.4104494285 
Si 4.0725759246 4.5670044419 8.4989267188 
Si 2.3763069221 0.6254795226 2.7842364134 
Si 9.5213045104 0.5551813127 5.8382815381 
Si 6.7391558584 8.3150659492 9.1536359601 
Si 4.0142033891 9.8831760788 5.2062197385 
Si 9.3403263352 10.2770105316 9.2432189381 

