&CONTROL
   calculation      = 'scf'
   tstress          = .true.
   tprnfor          = .true.
   outdir           = './'
   disk_io          = 'none'
   pseudo_dir       = '/home/ppiaggi/pseudos'
/
&SYSTEM
   ecutwfc          = 30
   occupations      = 'smearing'
   degauss          = 0.01
   smearing         = 'fermi-dirac'
   input_dft        = 'PBE'
   ntyp             = 1
   nat              = 64
   ibrav            = 0
/
&ELECTRONS
   electron_maxstep = 100
   mixing_beta      = 0.5
/
&IONS
/
&CELL
/

ATOMIC_SPECIES
Si 28.085 Si_ONCV_PBE_sr.upf

K_POINTS gamma

CELL_PARAMETERS angstrom
10.59809796200974 0.00000000000000 0.00000000000000
0.00000000000000 10.59809796200974 0.00000000000000
0.00000000000000 0.00000000000000 10.59809796200974

ATOMIC_POSITIONS angstrom
Si 8.4016209632 6.6006013917 7.6265290687 
Si 9.8677830314 0.9893504615 3.3253440013 
Si 0.6363882276 0.6254287345 5.8350159911 
Si 2.1374985837 7.5842108636 10.5555042063 
Si 7.3528649832 4.5612199990 6.7725979235 
Si 6.5322860523 10.1723405726 3.3168867192 
Si 2.0209407023 10.0100201042 9.8379387876 
Si 10.4388721382 9.0171902871 8.8845444930 
Si 5.4205455760 4.1285632478 5.5151759927 
Si 8.9446357085 4.9240882751 0.7831040565 
Si 1.5566062363 5.6380609386 7.8860658897 
Si 5.1178003097 7.2833732548 3.6680970875 
Si 8.9627160636 10.2273341029 6.7503843102 
Si 2.7695479499 4.1902229817 6.2392698398 
Si 5.1921671631 9.7969983352 5.5275015807 
Si 4.6237487770 0.0649166354 1.3692212662 
Si 1.4374836152 2.2356263727 0.2847242606 
Si 6.3036532849 10.2669391950 8.6660435073 
Si 3.6944121648 1.5406666969 4.4664730032 
Si 0.8966775135 4.5687234523 10.3026759813 
Si 5.2256677507 7.8288361607 9.8223489855 
Si 9.7325618996 3.9882126365 8.3442216646 
Si 3.9384439684 9.9849873968 8.4068988160 
Si 7.4264793716 9.9976415258 0.3850840091 
Si 5.7894441699 4.0657377231 8.9335289018 
Si 5.9023139132 2.5943295963 0.3248136858 
Si 3.7016506657 6.2287565266 9.0993573406 
Si 7.2924028343 5.2999498193 2.6015257048 
Si 3.5019189115 4.6172733391 0.2834779243 
Si 0.5690871261 3.1427917639 6.3339532470 
Si 0.1920258772 7.3935510812 7.0385465938 
Si 8.3830424975 2.7080683836 10.0490846933 
Si 1.7490464991 2.5241383935 2.8641889647 
Si 8.3460763318 1.9441680806 7.1989911989 
Si 0.5740491555 1.6280374165 8.4154090886 
Si 9.8213103719 5.1215838306 5.3134305999 
Si 4.1838959172 2.6514639424 7.6227031554 
Si 6.6812635153 7.8312949195 1.8750472857 
Si 0.4881229567 0.0708295262 1.5940599145 
Si 7.1984294997 8.6216374769 7.0805150617 
Si 7.8917252740 1.3300930885 1.8572530793 
Si 8.7157273906 8.1972366440 10.1516318892 
Si 0.6666510963 6.3730178361 1.4707298485 
Si 2.9331507882 0.9039001173 6.5280998036 
Si 2.9661320690 8.4938456117 4.1437715184 
Si 4.0491728960 8.4397741159 1.2873721556 
Si 9.8648049659 8.5080682591 1.6553699112 
Si 0.8751294607 6.7911022026 3.8388748381 
Si 2.6665238396 10.4281574612 2.9381530904 
Si 6.1372207545 2.0615102213 4.4957767441 
Si 5.6700354002 6.8629891011 6.0810190410 
Si 3.6717958237 1.6802330490 10.0766821404 
Si 7.2777350667 6.1460065777 9.9384829430 
Si 2.2485560522 4.7216646040 3.8618091221 
Si 9.9884317786 4.1293051146 3.1170277878 
Si 6.0442436411 1.0218516485 6.8092461463 
Si 9.6388641155 0.6061264186 9.9299620722 
Si 8.8642703316 8.9546933034 3.9455023017 
Si 8.5839506405 2.7335886035 4.7647458723 
Si 7.9960105580 6.6603322718 4.5630428718 
Si 5.5716532568 3.6245283068 2.5048180609 
Si 3.0905113467 8.2482770838 6.9059749864 
Si 4.0509427783 5.6244741770 2.6559151436 
Si 0.6531289831 8.7928497495 5.2053617950 

