&CONTROL
   calculation      = 'scf'
   tstress          = .true.
   tprnfor          = .true.
   outdir           = './'
   disk_io          = 'none'
   pseudo_dir       = '/home/ppiaggi/pseudos'
/
&SYSTEM
   ecutwfc          = 30
   occupations      = 'smearing'
   degauss          = 0.01
   smearing         = 'fermi-dirac'
   input_dft        = 'PBE'
   ntyp             = 1
   nat              = 64
   ibrav            = 0
/
&ELECTRONS
   electron_maxstep = 100
   mixing_beta      = 0.5
/
&IONS
/
&CELL
/

ATOMIC_SPECIES
Si 28.085 Si_ONCV_PBE_sr.upf

K_POINTS gamma

CELL_PARAMETERS angstrom
10.58395347672835 0.00000000000000 0.00000000000000
0.00000000000000 10.58395347672835 0.00000000000000
0.00000000000000 0.00000000000000 10.58395347672835

ATOMIC_POSITIONS angstrom
Si 7.1599175196 9.0588481165 5.7442184865 
Si 5.7118633407 9.5890300981 0.6974084464 
Si 3.7153381087 6.5355595200 8.7761718871 
Si 6.1649200532 6.9645694902 8.8200529582 
Si 0.8197695326 0.8707217430 9.3904857148 
Si 8.4063579687 7.1806832363 3.1534995223 
Si 8.4430842872 1.4757523851 2.8430086632 
Si 3.9414642747 7.8507744988 5.5592427316 
Si 2.7039460984 5.0324158633 2.1944239941 
Si 8.5699858894 3.5264462910 4.9961023189 
Si 8.8878431802 10.4251624227 4.7730243315 
Si 9.6224965589 9.4293499920 0.1865199537 
Si 1.5696638043 3.0952348585 3.9241912627 
Si 8.9480447076 7.3042297252 5.6864301005 
Si 8.4046010324 3.1152491145 0.7193299309 
Si 6.6331435711 4.7429553197 2.2176981078 
Si 1.0318021062 7.4051794735 10.1062044007 
Si 3.9206562222 1.3903822164 2.8112568027 
Si 3.3600771263 5.2929822139 6.6383297083 
Si 0.5030870606 1.2197159666 2.5001520742 
Si 10.5688184233 6.4109122999 7.3605257738 
Si 5.7663918690 5.7339414676 4.7024293618 
Si 2.4480790231 8.3160874295 7.6025702058 
Si 0.4656008142 5.0556688091 4.7725057178 
Si 7.4361904572 1.0119201496 7.4524897455 
Si 7.6100848128 5.5849194027 6.0993524614 
Si 6.8357416085 2.2837313935 9.5860665911 
Si 4.4558020779 2.7060628891 10.2971706733 
Si 4.7842009864 3.7847370917 7.8409949258 
Si 0.1671957715 0.3167883115 6.1108148830 
Si 4.7315564018 10.4401704687 5.7861838620 
Si 3.6893968387 10.0886879577 8.2063529998 
Si 6.1372959346 6.9024310994 0.8337033073 
Si 6.0772637505 8.0223298007 3.8985463434 
Si 2.6723318294 1.9006028616 8.0415502602 
Si 6.0404845122 0.3763939623 3.1436458617 
Si 7.8693070013 0.2534497003 0.6560230716 
Si 0.2374531130 9.6316410948 8.2363796758 
Si 2.3838238416 6.5117244568 4.2323324842 
Si 2.1843374864 4.1000648176 9.6311648168 
Si 4.4692436988 3.6995468501 2.0259909585 
Si 8.6478626191 8.3663188727 8.5898413861 
Si 2.4663892626 9.9920670464 4.1401568334 
Si 10.1086704619 2.5909518111 6.3965816269 
Si 6.0998710751 9.5580720341 8.3807977210 
Si 6.7483499047 2.8600064924 3.8402287597 
Si 9.2263180124 4.9456168608 2.5237013707 
Si 9.5418150816 2.4927115549 8.5652760301 
Si 5.4995598179 2.1082811968 6.1575218697 
Si 2.2280280464 1.4082055940 5.7101381563 
Si 3.9673737928 3.8335714530 4.7996112226 
Si 1.2360787586 8.0092797861 1.9269357379 
Si 3.9368390871 0.5026689944 0.3084820248 
Si 3.6462143085 6.8129120209 0.8202585112 
Si 9.2667169628 4.9033022148 8.9966144701 
Si 1.2231028317 4.3690559952 7.0058363249 
Si 0.7523994935 8.4088663656 4.8590930412 
Si 8.7075561167 6.8845759699 0.3165861580 
Si 1.6881088277 10.2146793399 1.0463232903 
Si 7.0253319672 5.0155556254 8.4044211052 
Si 0.2127205306 2.6465599027 0.7260623837 
Si 4.2019353698 8.7201616053 2.5506481163 
Si 0.3714427889 5.2174445380 0.7500435055 
Si 9.7419470579 9.0457028463 2.6383150029 

