&CONTROL
   calculation      = 'scf'
   tstress          = .true.
   tprnfor          = .true.
   outdir           = './'
   disk_io          = 'none'
   pseudo_dir       = '/home/ppiaggi/pseudos'
/
&SYSTEM
   ecutwfc          = 30
   occupations      = 'smearing'
   degauss          = 0.01
   smearing         = 'fermi-dirac'
   input_dft        = 'PBE'
   ntyp             = 1
   nat              = 64
   ibrav            = 0
/
&ELECTRONS
   electron_maxstep = 100
   mixing_beta      = 0.5
/
&IONS
/
&CELL
/

ATOMIC_SPECIES
Si 28.085 Si_ONCV_PBE_sr.upf

K_POINTS gamma

CELL_PARAMETERS angstrom
10.73299447123291 0.00000000000000 0.00000000000000
0.00000000000000 10.73299447123291 0.00000000000000
0.00000000000000 0.00000000000000 10.73299447123291

ATOMIC_POSITIONS angstrom
Si 0.8226185550 0.1083828515 10.0860632295 
Si 0.5850211830 10.1022056532 7.0628255458 
Si 8.8477976573 6.2425886423 1.2072257521 
Si 6.7342456531 6.9547979565 4.1922969075 
Si 9.3052593477 1.0282573625 8.6316458817 
Si 1.1014950236 5.6328257604 0.9273854606 
Si 7.7883974381 1.7470524421 10.6593983281 
Si 2.2544225567 9.6625285347 3.5563562521 
Si 7.3144713342 6.9480683689 10.1281794998 
Si 5.6988766084 4.0080650574 6.0208127776 
Si 6.9058447687 1.2231857149 4.8188891247 
Si 3.3213036731 8.3815778435 0.4751228328 
Si 6.2351721431 3.2748512731 8.2603486709 
Si 5.0453016431 1.9300929298 3.6463416777 
Si 2.1794311243 1.2852224230 1.1963317627 
Si 8.0172785451 4.7971226119 8.5923631219 
Si 0.4356994708 4.5106697225 7.5438246930 
Si 7.1989628477 4.9663497357 2.5870809873 
Si 6.2041967211 10.6356998764 9.2923582883 
Si 8.2949089131 9.3119460032 9.7633220857 
Si 1.9128986726 8.5221478721 5.5769605242 
Si 1.5934203592 1.3374813730 3.8757379685 
Si 5.5160722466 3.4077686766 1.8632907722 
Si 6.0946235805 8.8167256383 2.1854952662 
Si 10.0256257376 2.2826074002 4.6848125578 
Si 8.0051717274 4.0828525628 4.8341514428 
Si 4.8377255300 6.2556077646 5.8770013846 
Si 4.2181097592 5.4668507339 1.7066641839 
Si 0.4955015694 2.7606764399 9.6832110150 
Si 3.4450658324 0.2859012135 5.4425190355 
Si 6.4721137291 7.1618803518 7.5677807367 
Si 2.0201642194 7.5754655607 2.5323319825 
Si 2.7569842898 10.6659454548 8.7103401971 
Si 4.4516060539 10.4770554851 2.6071194880 
Si 0.2485085341 2.0246076791 6.7854849687 
Si 8.0106348216 10.2772071280 1.2867572412 
Si 2.5301102527 6.5383041060 9.3866154458 
Si 0.1272074505 10.0994150746 2.2172434639 
Si 2.2289960928 3.6196594534 3.3055905692 
Si 9.2164223524 5.3052869681 6.4523435533 
Si 2.5079788181 5.5635979461 6.7455582292 
Si 9.9887364356 8.7276310512 8.3483806916 
Si 8.2074457412 8.8564806499 4.6516905368 
Si 5.6420239367 6.9717131557 0.7523668129 
Si 0.4059755159 8.5246808588 0.0194589190 
Si 10.6388017118 4.3971039080 2.9953104321 
Si 9.2976603876 4.1908586862 10.6436315593 
Si 3.3265306414 4.0914711574 9.0303658933 
Si 2.4952172877 3.7124032587 0.6007385801 
Si 0.0876533606 6.3970149668 4.9252316339 
Si 8.7286077537 7.6633687855 6.6744521409 
Si 8.3666589812 2.6643370815 2.0121896045 
Si 7.1262682761 1.1032767007 7.3149757849 
Si 3.0452081234 8.4117160920 7.7098855835 
Si 5.1020684508 2.3164914637 10.3639726553 
Si 5.1916889547 9.3904793238 7.3122174053 
Si 3.4368121596 2.9488580320 5.5766385344 
Si 8.9587446212 0.5462611201 3.5132418133 
Si 4.0595941638 10.6299147923 0.1037316010 
Si 10.5100057781 6.2996237749 9.2044765296 
Si 5.7123894484 9.6963482002 5.0667890980 
Si 2.5655935324 2.2872118548 7.5684461824 
Si 9.8133271070 7.8876239719 3.1634213245 
Si 2.9163155928 6.1209623490 4.1210942221 

