&CONTROL
   calculation      = 'scf'
   tstress          = .true.
   tprnfor          = .true.
   outdir           = './'
   disk_io          = 'none'
   pseudo_dir       = '/home/ppiaggi/pseudos'
/
&SYSTEM
   ecutwfc          = 30
   occupations      = 'smearing'
   degauss          = 0.01
   smearing         = 'fermi-dirac'
   input_dft        = 'PBE'
   ntyp             = 1
   nat              = 64
   ibrav            = 0
/
&ELECTRONS
   electron_maxstep = 100
   mixing_beta      = 0.5
/
&IONS
/
&CELL
/

ATOMIC_SPECIES
Si 28.085 Si_ONCV_PBE_sr.upf

K_POINTS gamma

CELL_PARAMETERS angstrom
10.58385036016370 0.00000000000000 0.00000000000000
0.00000000000000 10.58385036016370 0.00000000000000
0.00000000000000 0.00000000000000 10.58385036016370

ATOMIC_POSITIONS angstrom
Si 5.5793825559 7.3133876796 1.1623078627 
Si 6.2573628422 3.1617877050 10.1191769940 
Si 9.1729278525 8.2315684499 5.0803116760 
Si 6.5419202430 10.3273824982 4.8486206077 
Si 5.0438397276 5.3840364298 3.1192935458 
Si 0.3676946037 0.5839597101 0.2436973881 
Si 8.5076270189 1.8966259845 10.0382105387 
Si 3.2714363948 7.9298546277 4.1322950315 
Si 2.2088389863 1.2033308667 9.1796062621 
Si 3.8400855069 8.5153743973 6.5176726418 
Si 8.9413532066 3.6206611213 7.6052267695 
Si 1.1547298258 7.8288846953 7.6211872158 
Si 10.0219537445 1.0045354638 6.7850101181 
Si 2.8406948528 2.4151182298 6.3543426631 
Si 3.8473036929 5.1204985558 9.8387684625 
Si 9.9281067434 10.2596352721 4.4312676365 
Si 3.2282648692 7.2948341899 9.0580719084 
Si 10.5130444013 5.8327916850 0.5142481213 
Si 7.6939194355 0.2513749131 1.4996892606 
Si 10.0304631602 4.2394565164 5.1485986785 
Si 3.6000649485 9.7761438199 10.2447861300 
Si 5.6200457089 0.5571042482 8.8897040169 
Si 4.2860995450 3.2782206429 4.6040066582 
Si 5.6506753719 7.2993111586 7.4253754003 
Si 0.3826622849 9.5331597834 2.2445171459 
Si 6.7492684554 2.9969548195 4.3736068197 
Si 4.5073020175 0.6567914180 6.4635679988 
Si 1.2489472618 4.9558985150 6.9364332652 
Si 6.8493070090 5.5472288185 0.2850537834 
Si 3.6037481284 1.6122167577 2.6550647014 
Si 4.9070646294 3.3388131862 7.9039559459 
Si 2.3748572631 5.5785252640 4.5146683773 
Si 1.4549089898 2.3592566676 2.3951465042 
Si 0.9400914573 2.3621778103 4.8062852063 
Si 9.5801626628 6.5616167885 6.8423957547 
Si 5.4079876831 1.0180573910 0.7006329013 
Si 8.1715686022 1.0218654603 3.8306658801 
Si 5.9333170958 7.1746016498 4.6672769157 
Si 4.3960551663 3.6120458671 1.3696560751 
Si 1.2830695953 7.8820367918 0.3301695623 
Si 1.8674674768 10.1923960707 4.7969290826 
Si 10.4953482035 9.2844710514 9.3571503519 
Si 2.1774261184 3.5738699188 9.1049795332 
Si 8.0832992902 0.3628090984 8.3198589296 
Si 3.2429129181 6.7656416719 1.5169091852 
Si 9.3587908487 2.6537734716 1.7493622906 
Si 7.8898476733 6.9780489648 3.2039008456 
Si 8.7116095669 6.2182555152 9.1355033576 
Si 8.3918396959 8.4512045126 9.5963771216 
Si 8.5465332528 8.9365163870 1.7320788630 
Si 7.3657354035 4.4331515619 2.3967658333 
Si 10.3121417537 3.8419165130 9.6785501358 
Si 5.6367046894 9.2348222094 2.7873945824 
Si 7.3022323013 8.9553979760 6.7827240064 
Si 7.6007392169 5.1533719950 5.3441882332 
Si 1.7180658451 10.5054346128 7.4205597484 
Si 7.0982920888 1.9397975102 6.5473709260 
Si 0.8871425707 7.5137399669 3.6110615690 
Si 3.2433786075 9.6477722989 2.0705080621 
Si 6.7105950662 5.0444959264 7.7901266352 
Si 9.7220709284 5.7869318614 2.7639725216 
Si 5.8258910146 8.3142918243 9.6730253659 
Si 1.8805067804 4.7318701544 2.0566855535 
Si 3.8349629234 5.4832706107 6.6560035661 

