&CONTROL
   calculation      = 'scf'
   tstress          = .true.
   tprnfor          = .true.
   outdir           = './'
   disk_io          = 'none'
   pseudo_dir       = '/home/ppiaggi/pseudos'
/
&SYSTEM
   ecutwfc          = 30
   occupations      = 'smearing'
   degauss          = 0.01
   smearing         = 'fermi-dirac'
   input_dft        = 'PBE'
   ntyp             = 1
   nat              = 64
   ibrav            = 0
/
&ELECTRONS
   electron_maxstep = 100
   mixing_beta      = 0.5
/
&IONS
/
&CELL
/

ATOMIC_SPECIES
Si 28.085 Si_ONCV_PBE_sr.upf

K_POINTS gamma

CELL_PARAMETERS angstrom
10.57024938306634 0.00000000000000 0.00000000000000
0.00000000000000 10.57024938306634 0.00000000000000
0.00000000000000 0.00000000000000 10.57024938306634

ATOMIC_POSITIONS angstrom
Si 7.9428976262 1.9440062748 0.2489790531 
Si 3.2488718504 1.4021752914 9.3949750649 
Si 3.9868232408 8.4275329901 2.2487677050 
Si 4.5336856629 3.2714181923 8.0762307519 
Si 6.9508902918 4.7417398815 9.3062166808 
Si 3.8605616119 9.6065174658 8.0750363137 
Si 3.3293642994 4.9774458725 9.8533644997 
Si 9.9206018560 3.1787065350 0.5685874556 
Si 8.3112708172 6.0200952716 2.0462734376 
Si 9.0836812206 5.1787139910 10.3375030619 
Si 10.0624968837 3.9801745539 2.9167863255 
Si 4.7064246783 5.9320345240 1.9367973647 
Si 0.0848628244 3.2134298042 7.4567084355 
Si 1.3688684356 9.4585339745 2.7002547669 
Si 9.7468163859 7.6003686949 9.4273728793 
Si 7.3839745495 3.9525862031 3.0868510678 
Si 4.0829490887 10.2544209017 0.5460273724 
Si 2.7101273798 8.9801984791 5.6851874902 
Si 6.1734378794 8.1064510949 6.1097732674 
Si 8.5633501244 0.3054590667 7.0554089177 
Si 1.2813362005 3.1415203976 9.7672698184 
Si 0.0214206104 0.9042235273 1.7122852678 
Si 3.5957980054 5.0972807897 6.7142224081 
Si 9.0277117501 9.8879820664 10.4304684052 
Si 9.5442586969 8.2408095348 1.7928939896 
Si 4.8505077476 6.6634852111 4.4436588489 
Si 9.3758957648 8.6915778197 6.8950159536 
Si 6.3154808906 7.0759680528 9.1414899145 
Si 5.2454968266 4.2799151157 5.2318823454 
Si 3.4278261724 3.0832994640 3.8176358292 
Si 9.7832520355 5.6772069519 4.8497889707 
Si 6.5911952756 7.5113671951 1.3727265766 
Si 8.1532667294 6.7402146514 7.4805232074 
Si 6.2269444818 1.1827686250 1.7820911947 
Si 1.7240605256 2.7105924708 5.5280924439 
Si 7.4310650105 5.3529751223 5.5064234326 
Si 5.6840670437 4.3218367248 0.8539038551 
Si 0.6772327069 9.8777289245 4.9458196863 
Si 4.2406889202 6.9869771232 7.9655496706 
Si 7.3430254034 8.4922229164 3.8448436511 
Si 8.4373316113 1.4746660617 5.1075127911 
Si 1.0389973780 7.6696143986 7.4451023017 
Si 2.1982841939 6.9621158967 1.0511214540 
Si 3.1049790455 0.7349208999 3.4988371078 
Si 8.4459146538 0.0143733194 2.8403739927 
Si 6.5907724656 9.4687554056 10.5057074403 
Si 0.9060532374 5.3066985705 6.5689131899 
Si 2.5298412063 6.5636809164 4.6530237784 
Si 0.9237858878 6.6690451623 2.8891874044 
Si 1.9661298067 4.1865481029 1.6749617172 
Si 6.1102489286 10.3407269880 8.4113076573 
Si 2.4324680690 0.8808114819 6.5973577309 
Si 0.3204381671 1.7762035658 4.0235125764 
Si 2.3717102756 8.4296258995 9.6061897881 
Si 4.7562422637 9.8463247136 4.4682452490 
Si 8.3827468435 3.6070976020 6.9268958257 
Si 3.9942964071 2.4073742970 1.0404856691 
Si 9.6394966439 7.8645192270 4.5563588478 
Si 6.2474719061 1.5923235076 4.0636478133 
Si 0.3278827937 0.7865206293 7.6036031912 
Si 1.0144384606 0.1951796549 9.7841293662 
Si 6.9614922519 2.2767260146 8.7376429665 
Si 1.0201664787 5.7356921417 9.2735017590 
Si 5.3625517683 1.2870864161 6.5260402584 

