&CONTROL
   calculation      = 'scf'
   tstress          = .true.
   tprnfor          = .true.
   outdir           = './'
   disk_io          = 'none'
   pseudo_dir       = '/home/ppiaggi/pseudos'
/
&SYSTEM
   ecutwfc          = 30
   occupations      = 'smearing'
   degauss          = 0.01
   smearing         = 'fermi-dirac'
   input_dft        = 'PBE'
   ntyp             = 1
   nat              = 64
   ibrav            = 0
/
&ELECTRONS
   electron_maxstep = 100
   mixing_beta      = 0.5
/
&IONS
/
&CELL
/

ATOMIC_SPECIES
Si 28.085 Si_ONCV_PBE_sr.upf

K_POINTS gamma

CELL_PARAMETERS angstrom
10.67595121019275 0.00000000000000 0.00000000000000
0.00000000000000 10.67595121019275 0.00000000000000
0.00000000000000 0.00000000000000 10.67595121019275

ATOMIC_POSITIONS angstrom
Si 4.7079023166 0.7982942517 8.6394601371 
Si 2.5744949584 5.7503769244 4.7118310666 
Si 3.3649317100 8.5127259203 9.0294419588 
Si 6.6336944516 0.2196203303 3.0046610605 
Si 6.4436091403 0.3937055935 0.2929000594 
Si 9.0119547508 3.0014903030 0.9506432783 
Si 7.9722558903 8.8889677928 0.6931105100 
Si 8.3117618147 3.2132264433 5.3125668412 
Si 5.8608836954 8.7957560628 3.1632309638 
Si 8.7298427400 1.3024660476 2.3207809779 
Si 5.1755623593 7.5705198462 1.1253093133 
Si 9.3895631451 5.5973905436 3.5118007708 
Si 8.9479203954 1.7234188039 9.0172927264 
Si 1.5397817671 0.2813283959 6.8861593458 
Si 0.1625370868 0.4418487955 3.2964348071 
Si 0.9649244982 3.7652585285 4.2879424238 
Si 0.7377808251 2.5358480150 1.0356024980 
Si 5.2807631826 7.7454026030 6.9238454536 
Si 3.5261492493 0.7675400391 1.5071026804 
Si 4.4522346370 2.3400830977 5.4325645328 
Si 2.2622554133 2.0633624423 3.2216711207 
Si 8.0235004561 5.6250946369 9.6359961269 
Si 4.0004924375 3.4273753487 9.2943443362 
Si 10.3030402344 1.7708200272 5.2093944487 
Si 5.4907164391 2.6026901455 0.8551629086 
Si 0.7188865266 7.1523214854 8.9263870018 
Si 0.5171590905 5.1812953451 7.1779544443 
Si 1.2404174192 10.4537526377 0.6902952617 
Si 4.0890067490 4.3353009434 7.0473555331 
Si 7.1582679902 7.6984497696 8.3602840129 
Si 9.6406401656 8.7145013981 9.1945562203 
Si 2.8230097507 6.8115664747 6.6889211472 
Si 4.8104982077 4.9273891975 2.1056925888 
Si 9.5639121043 0.1112391412 0.0301566797 
Si 10.3702880511 5.3323493788 10.3836756939 
Si 6.4600501051 7.2014415369 4.8483551307 
Si 7.3631181421 0.2669297405 5.6139596198 
Si 3.0238777727 6.9707342313 0.3819438981 
Si 0.6304394736 8.7429421322 3.9434081264 
Si 7.0413770004 6.2616695798 1.2915765774 
Si 6.4593561683 2.5383888914 7.1815735917 
Si 6.0251865845 2.4701161834 3.8347909988 
Si 4.8586680996 5.1940637828 4.4410035363 
Si 1.9166962246 2.2148755419 9.5987797609 
Si 9.3143617447 5.6095718039 5.8462896701 
Si 7.0157333656 3.3567219036 9.6013313133 
Si 3.5253912567 0.0277220290 5.3607047052 
Si 3.6451113736 9.5556916219 3.3524194952 
Si 8.9737882252 7.8018143292 2.7204779152 
Si 9.2450107657 7.7912131096 6.7858587842 
Si 0.7150186295 8.5852690087 6.3422196316 
Si 8.4093400088 8.8444277244 4.7834453473 
Si 2.3740966782 7.3823348542 2.9294810121 
Si 1.8549251709 2.9118123128 6.6110721110 
Si 6.9085041117 5.1544239759 6.7845029384 
Si 0.3519476780 7.9804443448 1.1012777471 
Si 2.3621289369 10.6544071407 9.0058054029 
Si 0.6677529907 5.3534023546 2.2019469650 
Si 0.1689181028 3.2736096234 8.7331202571 
Si 5.4522082830 10.2985029552 6.7494217627 
Si 2.8518241430 4.6212242687 0.6436328142 
Si 5.4623717886 9.0601139667 9.8804754096 
Si 7.5750357736 4.3559482330 2.7603632690 
Si 9.4401458019 0.1693590196 7.1757979021 

