&CONTROL
   calculation      = 'scf'
   tstress          = .true.
   tprnfor          = .true.
   outdir           = './'
   disk_io          = 'none'
   pseudo_dir       = '/home/ppiaggi/pseudos'
/
&SYSTEM
   ecutwfc          = 30
   occupations      = 'smearing'
   degauss          = 0.01
   smearing         = 'fermi-dirac'
   input_dft        = 'PBE'
   ntyp             = 1
   nat              = 64
   ibrav            = 0
/
&ELECTRONS
   electron_maxstep = 100
   mixing_beta      = 0.5
/
&IONS
/
&CELL
/

ATOMIC_SPECIES
Si 28.085 Si_ONCV_PBE_sr.upf

K_POINTS gamma

CELL_PARAMETERS angstrom
10.70180420945343 0.00000000000000 0.00000000000000
0.00000000000000 10.70180420945343 0.00000000000000
0.00000000000000 0.00000000000000 10.70180420945343

ATOMIC_POSITIONS angstrom
Si 2.4949009135 7.2436446008 0.6330309822 
Si 6.5805073030 2.6186779810 3.6340758662 
Si 8.3948269778 2.0316519147 6.6058170699 
Si 5.3784378470 0.2015534998 4.3138865750 
Si 10.2282707768 0.0852111897 10.0416741186 
Si 1.5545012722 0.6242512221 2.9183177971 
Si 4.7774994352 3.7831198935 0.9644241216 
Si 1.8648214889 10.4938253464 8.7676671347 
Si 10.2408132913 0.0622637390 1.9388458686 
Si 8.6144601056 6.1026289378 5.5145862001 
Si 7.0259056924 7.9892821073 5.0013490738 
Si 2.5201571715 0.9376942252 6.5804216885 
Si 2.2267029983 4.8382000687 1.1150744896 
Si 4.0340450968 2.4573054754 3.1000665380 
Si 0.3354662460 4.3820142606 10.1836335514 
Si 7.4528862767 3.6759306225 9.8806333689 
Si 8.5184221146 7.5350761331 2.2531364546 
Si 5.7845927203 1.0770937865 7.9010778370 
Si 5.4359921500 8.6200143420 6.7311566008 
Si 6.3485992058 5.6629667155 0.7620615654 
Si 2.6242643228 1.8269049966 10.1120598849 
Si 8.8188538642 10.3244799966 3.9543273572 
Si 6.9718936865 10.2821971682 2.3007273780 
Si 9.4868604830 8.1968436000 9.4062223882 
Si 7.2073119755 10.6664133429 5.8326866284 
Si 3.4790709341 5.0077487528 3.2886323282 
Si 1.1048970738 8.0499827408 8.4899767191 
Si 7.6724444919 1.9304663559 1.3386351795 
Si 0.0014524703 8.5393441419 1.1287513954 
Si 4.2243980882 9.8817891637 8.6416640919 
Si 9.4360055094 2.0267397866 8.8230596733 
Si 5.6647004078 5.4875534427 4.8573777018 
Si 3.9216333453 0.0478440210 2.2395558651 
Si 4.6574465956 1.1566509990 0.3086774897 
Si 3.0119157767 7.4790628898 4.2303054842 
Si 7.3880012378 0.6344254273 9.7847666067 
Si 10.5903235150 2.3473337353 5.8144828595 
Si 9.9012985528 8.0507639725 4.4546474058 
Si 7.6321629008 9.1095362701 0.1445653222 
Si 6.6540393997 3.5993485116 6.2002079886 
Si 8.6443930520 4.5097831011 3.7572215273 
Si 5.9143520964 6.9089884814 2.8762383029 
Si 7.5675561088 7.6595809232 8.0179522408 
Si 3.4245559434 9.7275226560 5.5919602445 
Si 8.6763486394 5.0468638471 1.6382642938 
Si 1.2664943174 3.0582224835 8.0160901269 
Si 0.9904369971 6.8406039525 3.0321100813 
Si 7.6096677084 5.1421741154 7.5360392954 
Si 9.8121097165 5.7170108267 8.4639285276 
Si 5.2502944434 3.2080905497 8.9493730684 
Si 10.0197033146 2.6020901845 1.1700603596 
Si 4.2867039923 8.5197063311 1.9843927473 
Si 3.5677246801 6.9996969739 8.8473099616 
Si 1.1292115730 8.4546393616 6.0004588130 
Si 1.4472263869 2.8816320123 2.7509629829 
Si 5.2946855272 8.7075979077 10.3475744901 
Si 3.2346738313 4.5938671768 9.3489784375 
Si 3.7032523286 6.6245987363 6.4024720882 
Si 2.7929140554 4.3163800954 6.7364968011 
Si 0.4673724040 0.1939584293 5.0058759370 
Si 0.5502321932 5.7609310312 6.4554674226 
Si 4.1740889066 2.4824440134 5.7690751042 
Si 5.9222714315 6.6100977916 9.3683380013 
Si 0.3745289016 4.3310308654 4.3903509661 

