&CONTROL
   calculation      = 'scf'
   tstress          = .true.
   tprnfor          = .true.
   outdir           = './'
   disk_io          = 'none'
   pseudo_dir       = '/home/ppiaggi/pseudos'
/
&SYSTEM
   ecutwfc          = 30
   occupations      = 'smearing'
   degauss          = 0.01
   smearing         = 'fermi-dirac'
   input_dft        = 'PBE'
   ntyp             = 1
   nat              = 64
   ibrav            = 0
/
&ELECTRONS
   electron_maxstep = 100
   mixing_beta      = 0.5
/
&IONS
/
&CELL
/

ATOMIC_SPECIES
Si 28.085 Si_ONCV_PBE_sr.upf

K_POINTS gamma

CELL_PARAMETERS angstrom
10.62753348356161 0.00000000000000 0.00000000000000
0.00000000000000 10.62753348356161 0.00000000000000
0.00000000000000 0.00000000000000 10.62753348356161

ATOMIC_POSITIONS angstrom
Si 7.9336450411 4.5992139005 2.5390027695 
Si 7.2955147931 3.6624287065 4.5707214832 
Si 4.5423247137 1.5438617892 2.3318721419 
Si 1.6415394494 9.3699774465 4.6836815366 
Si 9.7911891085 2.5179708807 1.2165975231 
Si 2.3389288241 2.3695254930 9.0456463796 
Si 1.5431178618 9.2978058666 8.4895075524 
Si 7.8669253859 0.8797450963 7.4914227453 
Si 3.8561261318 3.9327400207 3.2875105803 
Si 1.2960277083 6.3333510491 7.8904228624 
Si 3.7136321628 10.5520567408 4.5477766384 
Si 9.1797020870 6.0976429840 8.1032923581 
Si 7.6047760174 5.4091488548 10.5159124994 
Si 2.7687275333 1.2010813242 0.8170851588 
Si 10.5829403531 2.3077795235 9.5290822502 
Si 7.4506661544 9.0047303757 9.4023382859 
Si 6.1355832785 2.0466078881 9.6703434253 
Si 9.9908910902 6.1073352945 10.5971387378 
Si 1.7228081980 9.5878100003 0.3615178693 
Si 10.2616381333 8.1827119158 1.1213535680 
Si 8.2267311595 10.0440393852 3.8102045596 
Si 9.8844669699 6.5774867483 5.4363447130 
Si 0.3587026356 10.4909059131 2.8868738230 
Si 5.3905506712 10.4421042793 9.1302946838 
Si 4.7497954224 8.5657813602 7.1015941896 
Si 5.7775948131 0.9385823099 6.3207255393 
Si 9.5338221302 0.3388270225 5.6311474017 
Si 3.9908726288 5.0271421637 7.8931753936 
Si 4.2163676343 3.4919843245 5.5763943492 
Si 9.6876875599 3.6882854955 5.3081766592 
Si 6.6438769500 10.2445703145 1.8226963852 
Si 4.0962552508 6.4838262957 4.1837304789 
Si 6.1502386472 1.5371983257 4.0267192993 
Si 9.2810249912 3.1963050879 7.4127577425 
Si 7.2313244908 2.0695739880 1.1935995406 
Si 6.4498500712 9.0866686588 5.6372582335 
Si 7.5296499832 3.7254180975 8.8025628062 
Si 5.3486037965 4.5203576020 1.5924933824 
Si 2.4234177153 7.0116214911 0.7872866177 
Si 1.5049650166 4.8498111400 3.6625562369 
Si 1.1543414319 4.7044796196 10.0483010261 
Si 9.5994046393 7.9600863444 3.4382302601 
Si 7.4758321537 7.8476682952 0.6981162980 
Si 1.3904214607 2.2348321337 2.3188959235 
Si 4.5687553895 9.2904409859 0.7094505625 
Si 7.0934960091 6.6003678279 5.6303503367 
Si 9.8343156394 10.4706073241 9.2335199165 
Si 2.5995265727 1.7542444420 6.1690918916 
Si 1.9176002592 4.8868268391 6.0388727238 
Si 5.5183467613 8.4152317209 3.5491285720 
Si 7.6059981838 6.5545100209 3.1830100435 
Si 10.2324124162 4.6695681721 1.8499560086 
Si 0.4852531789 1.9560825579 4.9932084493 
Si 6.4126855866 4.5612523509 6.9562839243 
Si 4.3062553125 3.5521255365 9.8734568452 
Si 1.5937686864 7.0984909498 3.3293936897 
Si 3.2976811298 7.5399268081 9.0936403208 
Si 3.3619564523 0.1974478818 7.6850989155 
Si 2.9490661490 7.4500710125 6.0653140271 
Si 4.8467716654 6.7998041213 1.0605662020 
Si 10.5670096804 8.7233664267 6.7246249494 
Si 8.2779558709 8.5558977541 7.2911043667 
Si 5.6758468076 6.7010530801 9.0948093495 
Si 9.1724434816 10.3548947396 0.8080411278 

