&CONTROL
   calculation      = 'scf'
   tstress          = .true.
   tprnfor          = .true.
   outdir           = './'
   disk_io          = 'none'
   pseudo_dir       = '/home/ppiaggi/pseudos'
/
&SYSTEM
   ecutwfc          = 30
   occupations      = 'smearing'
   degauss          = 0.01
   smearing         = 'fermi-dirac'
   input_dft        = 'PBE'
   ntyp             = 1
   nat              = 64
   ibrav            = 0
/
&ELECTRONS
   electron_maxstep = 100
   mixing_beta      = 0.5
/
&IONS
/
&CELL
/

ATOMIC_SPECIES
Si 28.085 Si_ONCV_PBE_sr.upf

K_POINTS gamma

CELL_PARAMETERS angstrom
10.63779015695474 0.00000000000000 0.00000000000000
0.00000000000000 10.63779015695474 0.00000000000000
0.00000000000000 0.00000000000000 10.63779015695474

ATOMIC_POSITIONS angstrom
Si 3.2171975150 3.4376018892 9.9993631807 
Si 7.5155349191 3.9708636720 5.1121389890 
Si 7.2403565634 6.9274140525 0.2117654249 
Si 2.5987802220 2.8085255305 1.8660385982 
Si 2.9313494557 5.7563848365 9.7173553636 
Si 5.7509170123 7.9054099284 2.1300898254 
Si 9.9362810851 6.6390554747 8.3397509005 
Si 8.4434374412 8.9885497222 8.1660996140 
Si 7.3962427403 4.2666261517 1.8490287717 
Si 0.7088331904 6.9542851105 10.2382453964 
Si 4.5883554772 8.9494558434 8.4555645219 
Si 1.0513519492 7.6607301170 6.2427126891 
Si 10.1274208986 10.4388528432 5.4050505410 
Si 5.3930511137 0.0473771005 2.4098743444 
Si 0.9171338870 4.9430513144 7.7430346994 
Si 1.8556454772 7.8944849179 3.9188767915 
Si 5.4302727414 5.4786534111 4.6333426918 
Si 4.1879065046 0.5911611470 10.3522080424 
Si 7.5600434332 2.3113045808 3.4836954340 
Si 4.8242591118 1.9927240412 3.9385141521 
Si 1.4071030552 6.4028539821 2.3098684791 
Si 3.1387544503 3.0882674983 7.7542362925 
Si 0.6023680590 1.6059659044 7.6577515358 
Si 4.2469994289 8.6952445720 4.0645187765 
Si 9.3303525577 7.5333319421 5.1719233697 
Si 5.4739834212 6.1596315480 9.1979120703 
Si 1.5776906582 0.7679122856 0.3875336316 
Si 7.0445680355 8.9356799051 6.2208520303 
Si 3.5491603946 6.3381868557 1.2257500086 
Si 3.9186533979 0.2387843481 5.1497116638 
Si 9.2874609878 8.0412757843 0.5663144606 
Si 2.1570353479 10.6124083896 2.5433360597 
Si 6.4940411193 9.0855557306 10.1266017888 
Si 3.0400570333 4.6498525421 5.7987870680 
Si 2.9543802713 7.2734613663 7.7534810094 
Si 5.1195960799 7.2993537476 5.9654812398 
Si 9.6296042326 3.5536176287 6.9886238971 
Si 4.6989884949 4.2870932600 2.3288356590 
Si 0.5655176901 3.0757255437 9.8561040606 
Si 6.0679018834 3.9930009133 8.5719738596 
Si 3.8295831809 9.0001023623 0.7722971827 
Si 9.7861712281 7.5217793020 2.5139119321 
Si 7.6921754247 6.4708081856 3.2815986966 
Si 5.4126246476 3.1345950744 6.4035028873 
Si 3.4024652683 0.8998145009 7.8137653662 
Si 8.4499796821 1.2360473895 6.2583608784 
Si 8.9073195565 4.9067658122 10.4081521808 
Si 6.8143130676 0.8552145019 0.5760725055 
Si 5.8475187847 3.2107616519 0.1847443741 
Si 1.8407738465 9.0034958174 9.6429972104 
Si 10.0135114416 5.2728972738 5.1787741065 
Si 1.3969546034 1.1439560401 5.4850041718 
Si 10.2024598704 9.7072601008 3.0369614363 
Si 10.0740936565 10.1431222769 0.0064197787 
Si 10.1611214178 3.3675520410 1.5653401838 
Si 0.4670617509 4.4184167795 3.2338456566 
Si 2.3110599116 3.0934800154 4.3305486328 
Si 8.2263095063 3.2653335154 8.8687788428 
Si 0.1662633413 9.4327625636 7.6821652642 
Si 8.5499961852 0.8936254346 9.0330901496 
Si 8.9024155353 1.0702255165 1.9910858215 
Si 7.4181991392 10.3158268001 4.1821514601 
Si 5.8225518912 0.2976804733 6.8833842391 
Si 7.3337457232 6.3921204518 7.4143482592 

