&CONTROL
   calculation      = 'scf'
   tstress          = .true.
   tprnfor          = .true.
   outdir           = './'
   disk_io          = 'none'
   pseudo_dir       = '/home/ppiaggi/pseudos'
/
&SYSTEM
   ecutwfc          = 30
   occupations      = 'smearing'
   degauss          = 0.01
   smearing         = 'fermi-dirac'
   input_dft        = 'PBE'
   ntyp             = 1
   nat              = 64
   ibrav            = 0
/
&ELECTRONS
   electron_maxstep = 100
   mixing_beta      = 0.5
/
&IONS
/
&CELL
/

ATOMIC_SPECIES
Si 28.085 Si_ONCV_PBE_sr.upf

K_POINTS gamma

CELL_PARAMETERS angstrom
10.61246349037752 0.00000000000000 0.00000000000000
0.00000000000000 10.61246349037752 0.00000000000000
0.00000000000000 0.00000000000000 10.61246349037752

ATOMIC_POSITIONS angstrom
Si 9.6618626857 7.0887117255 7.1552518716 
Si 10.4992603423 4.5234352132 9.8608357637 
Si 2.0291879191 7.9113792828 1.8187003182 
Si 9.9472212165 8.1976398730 9.8792908377 
Si 1.4273126647 8.0788121193 8.0704707230 
Si 2.7972861891 6.3544990514 6.7795706640 
Si 5.7256150774 7.6791149069 5.8544503842 
Si 0.5114262893 0.4573027255 8.6710618693 
Si 5.0628773449 6.3767003250 7.7193467559 
Si 6.7656258870 1.4865089860 7.3263778454 
Si 8.1398550093 6.2866005100 0.1402553787 
Si 3.1825929011 10.1157895866 9.6622765718 
Si 4.7373506398 0.0827845378 1.1006079761 
Si 6.2717324486 3.3397740978 5.5355034064 
Si 9.6668505435 6.1085127601 3.0337849380 
Si 7.1197531812 6.3357998907 2.8241569467 
Si 4.4445527721 2.3838670614 2.4060895599 
Si 1.8753071985 0.7898559427 2.8254516672 
Si 8.2958900600 9.6601753040 10.5410416111 
Si 1.2386442887 1.0114272004 5.3464635943 
Si 5.8495049762 8.3530275634 3.3450591046 
Si 3.5195386169 3.5938152488 5.6118813062 
Si 9.3470227313 9.9818284599 7.3783683040 
Si 2.6912464539 6.8915533788 10.0766720461 
Si 4.0787093182 1.4459906004 4.6426556281 
Si 9.1129011743 0.2505602630 2.0885540398 
Si 10.1929103587 2.4705178258 2.2321831207 
Si 8.5533059744 9.1899052093 5.2512804092 
Si 10.3869380287 9.8270881298 3.7836828332 
Si 6.2960349900 4.0958802841 2.7664145328 
Si 10.4715087503 3.3527319157 6.9194429328 
Si 4.0991170855 1.4386892255 8.3028942859 
Si 0.6375946840 5.7416505097 5.9280159811 
Si 8.7568211868 3.9692099199 1.3218247776 
Si 7.7879987823 2.3212853642 4.0321312159 
Si 1.7243873552 3.3808018817 3.7701307173 
Si 4.9280459962 10.2920732176 6.2551876180 
Si 0.8943260945 9.5353408960 0.3960401575 
Si 1.9352888421 4.7856055113 8.7165044380 
Si 3.0331163528 8.2444196121 5.1715489710 
Si 10.2350312263 2.2666311772 10.1961577726 
Si 4.9995527752 8.1305903287 9.4250031130 
Si 6.9777690322 9.0572388033 8.0405648009 
Si 0.8769556143 7.6985675524 3.9867947719 
Si 6.2896462870 8.5764411448 0.7122151598 
Si 9.9390814570 4.0901813912 4.3445515286 
Si 2.4219764178 9.9485265495 6.8667202142 
Si 6.5770636357 4.6446613837 7.5307845047 
Si 0.2714222437 6.1289099150 0.9045087533 
Si 3.4135837814 3.7749593882 10.4108585215 
Si 2.0202522248 1.6255322577 0.6090620147 
Si 8.2788146062 6.9656814363 5.0323983497 
Si 4.7373294149 5.6766597833 4.6416262191 
Si 9.5057957976 1.5363345021 6.0144651087 
Si 2.1145864128 2.5382359553 7.7000851347 
Si 5.5999847346 5.9264771739 0.1109522445 
Si 8.8636993066 5.0266251696 8.3885580912 
Si 3.9432942840 6.5831976396 2.1236282317 
Si 8.1386876383 0.9484645158 9.3507477060 
Si 2.4093051364 4.5446601402 1.7223815996 
Si 7.2893827976 0.1006046681 3.8305793093 
Si 3.6066457172 9.4773756204 3.1852566294 
Si 5.6631713422 3.0960058114 9.4849635318 
Si 6.9287288384 2.0633918889 0.6344417211 

