&CONTROL
   calculation      = 'scf'
   tstress          = .true.
   tprnfor          = .true.
   outdir           = './'
   disk_io          = 'none'
   pseudo_dir       = '/home/ppiaggi/pseudos'
/
&SYSTEM
   ecutwfc          = 30
   occupations      = 'smearing'
   degauss          = 0.01
   smearing         = 'fermi-dirac'
   input_dft        = 'PBE'
   ntyp             = 1
   nat              = 64
   ibrav            = 0
/
&ELECTRONS
   electron_maxstep = 100
   mixing_beta      = 0.5
/
&IONS
/
&CELL
/

ATOMIC_SPECIES
Si 28.085 Si_ONCV_PBE_sr.upf

K_POINTS gamma

CELL_PARAMETERS angstrom
10.61739658355607 0.00000000000000 0.00000000000000
0.00000000000000 10.61739658355607 0.00000000000000
0.00000000000000 0.00000000000000 10.61739658355607

ATOMIC_POSITIONS angstrom
Si 5.0482217014 1.5577525745 3.7691333176 
Si 7.7220750048 9.2637740757 7.7036750565 
Si 3.0627260707 0.9061427732 5.8678528655 
Si 2.8777922570 8.8145944959 0.5034058094 
Si 6.8650387526 5.2928783709 1.5964211329 
Si 8.8582426132 8.2531359471 5.7021471570 
Si 7.6451519666 7.1534603308 9.2397999942 
Si 7.2089786975 8.9408034890 0.6746697250 
Si 3.5905168549 0.7022048813 10.3891119396 
Si 8.6269744808 5.5465067405 3.0953320956 
Si 8.7271814698 1.5366664249 6.8574473140 
Si 3.8176548200 10.4504804919 2.3512543256 
Si 3.8163701150 4.8245450076 6.8583391753 
Si 3.1668084094 3.2059547506 8.7944532945 
Si 0.4464933785 3.9570824719 7.4443345276 
Si 9.5529282543 1.2322975171 3.2594451946 
Si 3.9996794670 7.3641200964 8.1804598675 
Si 5.2655279573 8.6438773762 2.9037942612 
Si 1.2961186879 1.6540417442 2.2590634711 
Si 8.0699115343 5.6539547939 6.8907434697 
Si 10.0487394399 3.1607989629 0.3927098944 
Si 1.5391827479 8.5111174493 9.3185916943 
Si 4.7949649407 9.3744604351 5.6067604661 
Si 1.4625994664 6.0326879474 8.6735529996 
Si 8.3473122548 1.5987144906 0.8990471670 
Si 5.8280907152 5.2804560169 9.6962206386 
Si 5.1225647123 8.0871648037 10.2514680103 
Si 3.2874645042 5.0967856734 10.1054044855 
Si 5.0351410688 1.4422246823 7.4308610513 
Si 10.2873123412 5.0126003359 1.7025526292 
Si 5.6408635439 2.6855218223 10.4116632900 
Si 0.9702909598 1.2806385237 10.0788079071 
Si 6.0081086743 7.4750825081 6.8844792057 
Si 1.3745387791 1.6188450745 7.3382985879 
Si 2.1979391190 5.0753279149 1.6388057801 
Si 10.1162236126 9.3840160920 3.6454618822 
Si 7.6829180462 7.7584289707 3.6059120799 
Si 10.3218613497 10.3882413131 7.4814210938 
Si 3.7581761643 5.7858334768 4.2194595763 
Si 6.0366163842 6.2261262958 4.7324178574 
Si 5.0922414276 10.1434253827 8.9215116795 
Si 0.7685190169 3.9206223320 3.9227033418 
Si 6.5356977280 0.3064488559 5.7526434951 
Si 7.2106456288 10.5793438342 2.9580703926 
Si 6.0274535709 3.7182653705 6.8236202885 
Si 2.0440718077 10.3212243059 3.9445114743 
Si 3.4853940113 2.7682207242 1.6551778056 
Si 7.7423860845 2.5398936107 8.6179815459 
Si 9.0219310163 4.5454561210 8.8401611868 
Si 9.5590651095 3.1019573511 5.3400302291 
Si 4.5656079397 6.4798608393 1.7454787635 
Si 9.6392583059 8.2707395907 1.4641177541 
Si 10.1229762768 5.9647790789 5.5084539911 
Si 7.3227441019 0.1411593493 9.7802467151 
Si 10.0877052854 6.3994446776 10.2666508874 
Si 2.8427017613 9.5684933577 7.8018116531 
Si 6.4817932055 2.8395059249 2.1274077534 
Si 1.8180168170 6.1212688871 5.8040316946 
Si 2.5781480906 8.0432406341 3.9846133812 
Si 10.0918779223 9.9570051335 9.8859322807 
Si 7.2012598502 3.7992867239 4.6754024378 
Si 1.2993357591 7.4953192660 1.7925032130 
Si 3.0055407727 3.2781211952 4.8160723251 
Si 0.8935218738 8.7141751590 6.2975919922 

