&CONTROL
   calculation      = 'scf'
   tstress          = .true.
   tprnfor          = .true.
   outdir           = './'
   disk_io          = 'none'
   pseudo_dir       = '/home/ppiaggi/pseudos'
/
&SYSTEM
   ecutwfc          = 30
   occupations      = 'smearing'
   degauss          = 0.01
   smearing         = 'fermi-dirac'
   input_dft        = 'PBE'
   ntyp             = 1
   nat              = 64
   ibrav            = 0
/
&ELECTRONS
   electron_maxstep = 100
   mixing_beta      = 0.5
/
&IONS
/
&CELL
/

ATOMIC_SPECIES
Si 28.085 Si_ONCV_PBE_sr.upf

K_POINTS gamma

CELL_PARAMETERS angstrom
10.72085545852369 0.00000000000000 0.00000000000000
0.00000000000000 10.72085545852369 0.00000000000000
0.00000000000000 0.00000000000000 10.72085545852369

ATOMIC_POSITIONS angstrom
Si 0.8146413554 9.0816795423 10.1892832823 
Si 3.7137793768 9.1233515075 10.2798852318 
Si 8.0255680711 8.0301351555 5.0261621769 
Si 4.8881418837 6.8355209527 3.9226859663 
Si 2.5591646856 2.3132604240 9.3073428289 
Si 5.8423087404 10.3806398314 8.9931574388 
Si 9.5088198655 0.0229677175 5.2797318502 
Si 0.7808963907 2.0435451424 3.0004458172 
Si 6.4637860105 3.7217020890 4.8442721432 
Si 9.6880189645 9.8374676896 8.8051350758 
Si 2.8341975116 4.4327842690 1.2591644736 
Si 5.9900528495 4.7895528970 0.9777173598 
Si 0.3534633882 1.2127002860 6.7619866051 
Si 4.6116403006 6.8572950101 0.0018791730 
Si 9.2102225993 1.3877825765 3.3375631171 
Si 1.5835132346 2.5298217043 0.7046485946 
Si 4.8203646355 9.8592953513 3.5189278289 
Si 4.1039863529 5.3640192158 7.6336779207 
Si 5.0042487484 2.5048313902 0.8659824601 
Si 10.4577871073 3.9802784018 8.2059035808 
Si 7.0520822329 5.8610916792 6.2977735637 
Si 5.7816608611 8.7121852590 1.7214370401 
Si 4.9530566635 1.9094165197 9.2930412077 
Si 6.8549685845 5.3206211929 9.1564896717 
Si 0.7591309100 8.4648658444 6.8888036043 
Si 1.5495066811 7.8992763938 3.2647470668 
Si 3.0171167474 6.1322006720 5.6610190746 
Si 4.6814973948 4.5727986413 3.3661878011 
Si 3.5196568470 1.2191327993 2.5206982563 
Si 1.3874931134 5.8424695532 2.2460513811 
Si 8.9479154288 3.7156126431 4.0284900888 
Si 10.2956127268 3.2646613000 10.5562045604 
Si 8.3403859917 5.1771118218 2.1758941030 
Si 0.6989911992 6.9907053354 8.8379516143 
Si 0.3882182574 5.9622643921 5.8661412021 
Si 2.2434783758 0.9029415372 5.0044310029 
Si 8.2155952341 3.0221019452 0.6634194008 
Si 3.6556080151 9.9131569291 7.2598416908 
Si 6.2593500177 1.1899184682 4.0281041380 
Si 8.8203694114 7.7610845670 9.9568229734 
Si 9.3256754917 8.1157626281 1.7364140752 
Si 10.4823593080 8.5871050383 4.6840918418 
Si 0.5656216131 4.4962946167 3.9856602712 
Si 7.1938226629 9.7901887170 0.0342538836 
Si 3.1392380119 8.5909109420 5.1407359592 
Si 1.7597748192 3.7453737379 7.5068073172 
Si 9.1820910746 5.8586902076 7.9866192032 
Si 5.2503567063 3.4365058921 7.0153311404 
Si 8.0258360925 0.5930702194 7.5613979132 
Si 4.5608984917 1.0849505724 6.2005997298 
Si 7.3060700196 2.9500685174 8.4741822678 
Si 6.5595125289 9.9226663279 5.9784957673 
Si 9.5567099268 0.5878073514 10.6559513996 
Si 5.5967046627 7.5513953550 6.7700915718 
Si 10.6212801530 10.0497727902 2.0118114102 
Si 2.4454592927 9.8214721733 1.7459341948 
Si 9.0981253346 2.9569941900 6.4115647235 
Si 2.5479506708 5.5861338992 9.5326308855 
Si 7.3060592987 7.5257617896 2.9257321755 
Si 1.9773331391 0.1236146797 8.6442257562 
Si 6.2876637970 7.5147300294 9.0498171599 
Si 6.9793841121 0.9411324406 1.5136346988 
Si 10.3237549723 5.6267552206 0.8048671515 
Si 2.9332582160 3.6670686096 5.1792881554 

