&CONTROL
   calculation      = 'scf'
   tstress          = .true.
   tprnfor          = .true.
   outdir           = './'
   disk_io          = 'none'
   pseudo_dir       = '/home/ppiaggi/pseudos'
/
&SYSTEM
   ecutwfc          = 30
   occupations      = 'smearing'
   degauss          = 0.01
   smearing         = 'fermi-dirac'
   input_dft        = 'PBE'
   ntyp             = 1
   nat              = 64
   ibrav            = 0
/
&ELECTRONS
   electron_maxstep = 100
   mixing_beta      = 0.5
/
&IONS
/
&CELL
/

ATOMIC_SPECIES
Si 28.085 Si_ONCV_PBE_sr.upf

K_POINTS gamma

CELL_PARAMETERS angstrom
10.75199593272641 0.00000000000000 0.00000000000000
0.00000000000000 10.75199593272641 0.00000000000000
0.00000000000000 0.00000000000000 10.75199593272641

ATOMIC_POSITIONS angstrom
Si 10.3624618721 9.0419124836 6.0372672202 
Si 2.8120877682 1.1937618524 9.2981432987 
Si 3.1579794774 10.0994465476 7.5800281086 
Si 9.1264661796 6.8638806675 6.4105980230 
Si 8.4764435135 2.9867001822 3.9356820952 
Si 7.0565026747 0.8680032557 3.5577064302 
Si 3.5309017043 4.7665533329 1.8768146500 
Si 9.9903890528 6.5588895509 3.0345573161 
Si 0.9442800652 3.1356583338 1.5993163870 
Si 3.0601685704 0.3489205464 5.2166318826 
Si 0.5260553786 4.9864316497 9.6061342222 
Si 8.9659173764 0.4284122027 5.4364456875 
Si 8.1732587322 10.4597136753 1.2384686515 
Si 3.5706088253 7.8205395056 9.8533871207 
Si 0.4771456243 9.7787145089 0.6073135879 
Si 2.7173411801 9.8505700977 0.6062684939 
Si 0.4146647007 10.4440050092 3.3729441321 
Si 5.8682135882 8.2477808160 5.7867887230 
Si 8.2425338420 2.4881193788 0.4135669220 
Si 7.8784820117 5.1479051246 3.1834186998 
Si 0.1609692063 7.1575284284 9.0524386876 
Si 10.5935115127 5.1449053178 6.9633366299 
Si 9.8400008857 7.7373190571 0.4306174371 
Si 3.5275255776 7.5066672404 5.6875800565 
Si 5.3518059755 5.6933861343 10.5607394291 
Si 7.1747101179 6.2755852101 5.2749507086 
Si 2.5829842389 7.2168149340 1.4518097548 
Si 0.7305013557 2.1980735365 9.3501291990 
Si 9.1241007405 9.0121509589 3.2494359548 
Si 5.2155889390 3.2712840105 10.2858861570 
Si 2.5126339295 4.2684241133 5.3862876265 
Si 5.7399100207 1.5728234690 1.4376171202 
Si 5.5276333650 4.5326221574 6.5591153428 
Si 5.5544595949 9.3143250526 8.3104757043 
Si 7.5437616263 3.9370906067 7.9742392875 
Si 1.2783263004 1.9583362832 5.4889799396 
Si 2.7079224316 4.4083613404 7.7184815602 
Si 3.1908160730 0.4952509103 2.6696990861 
Si 8.7826711097 4.8233561274 10.3155724178 
Si 10.5802112937 1.8627295354 7.1530771021 
Si 1.4621639269 8.8910082207 8.6669151215 
Si 6.4715080800 9.1928812585 3.5379765177 
Si 4.4709057007 5.1095420032 4.1501844141 
Si 4.4918828448 2.5693399561 3.6725807547 
Si 3.0487284467 2.2745417316 0.9022204075 
Si 1.6520441751 9.0315368075 4.9706584717 
Si 10.4324358616 1.2836162824 0.6097854717 
Si 7.6958916168 6.1886338190 1.0439768723 
Si 0.5567534022 5.5375252013 1.4489497239 
Si 7.0552769471 1.5660604636 9.0083447523 
Si 3.9529282967 8.7082672978 2.9638199348 
Si 5.9343491151 10.1382827569 10.6981606891 
Si 10.1194345080 10.3112286115 8.0958443615 
Si 6.7843696576 10.6655821414 6.6206920235 
Si 4.6069184493 2.6903644223 8.3080134972 
Si 10.7324165481 2.0901127454 3.5559000949 
Si 8.3895996424 9.2819292888 9.4734760964 
Si 5.8295494108 6.6247670300 8.2996054364 
Si 5.8413443503 8.1476582299 1.1444531991 
Si 2.8175712862 6.8076799848 7.7362546095 
Si 8.1254876143 6.9435529574 8.5311819248 
Si 5.3509028079 1.8860291106 5.6223799532 
Si 0.9639078338 6.4246186257 4.9553906375 
Si 8.8528816431 3.4824209547 6.2675534691 

