&CONTROL
   calculation      = 'scf'
   tstress          = .true.
   tprnfor          = .true.
   outdir           = './'
   disk_io          = 'none'
   pseudo_dir       = '/home/ppiaggi/pseudos'
/
&SYSTEM
   ecutwfc          = 30
   occupations      = 'smearing'
   degauss          = 0.01
   smearing         = 'fermi-dirac'
   input_dft        = 'PBE'
   ntyp             = 1
   nat              = 64
   ibrav            = 0
/
&ELECTRONS
   electron_maxstep = 100
   mixing_beta      = 0.5
/
&IONS
/
&CELL
/

ATOMIC_SPECIES
Si 28.085 Si_ONCV_PBE_sr.upf

K_POINTS gamma

CELL_PARAMETERS angstrom
10.61576024137951 0.00000000000000 0.00000000000000
0.00000000000000 10.61576024137951 0.00000000000000
0.00000000000000 0.00000000000000 10.61576024137951

ATOMIC_POSITIONS angstrom
Si 8.7603482822 10.1329023868 10.0964266346 
Si 9.6091632395 7.8473398226 9.0380459543 
Si 6.6769841033 2.6521990757 10.0641865708 
Si 1.4920344862 0.0188060316 3.3353232472 
Si 0.6189083763 1.6899016413 1.5449222037 
Si 8.1386999782 5.2178797054 9.7041955252 
Si 7.1187695815 2.8276775925 3.9311327907 
Si 6.3001352305 5.3520204518 2.2788109407 
Si 5.3746957156 5.1267434037 9.5701609364 
Si 6.9622401967 0.4521337213 4.5304030721 
Si 4.6725905648 10.4596236397 9.6057131175 
Si 0.4852909868 9.8645253521 6.0328091561 
Si 0.5539537241 8.1470439657 2.8386436728 
Si 9.4164871912 0.4092184489 7.9047286225 
Si 5.3301201384 0.4689182998 2.4589816235 
Si 2.9662875739 5.4107149901 6.6930032855 
Si 0.6193606076 5.1520513761 1.2604304450 
Si 2.2454774535 2.2031311859 7.0115716345 
Si 6.4676731586 4.0248274906 7.0162319533 
Si 6.5958796950 7.1257547517 0.8225929680 
Si 2.1670482169 8.2937431565 10.0609593796 
Si 8.7604862870 2.1834814137 1.6418228632 
Si 5.5828601582 6.9730258091 7.7702057087 
Si 4.7362638947 4.0785432375 4.7848416136 
Si 1.4681384099 4.8323365249 4.7653298463 
Si 8.2135304721 6.1620878843 7.5432195232 
Si 3.8758459114 2.0502217754 3.8850391598 
Si 2.0388841435 3.5879783409 2.8164142708 
Si 9.2274735801 4.7842046680 4.1270254145 
Si 4.6140871101 8.3730959643 5.0873801647 
Si 6.4212292075 1.1339436617 8.0997507539 
Si 8.5720140797 2.4936951595 6.7875897092 
Si 4.7044166140 8.7540319048 0.6670561568 
Si 9.6253416581 7.3272631126 0.7053302188 
Si 8.7105815981 4.6521764579 1.6291582612 
Si 0.3879104950 7.5733576665 6.8983014728 
Si 3.6291144119 9.3917843171 2.9874235526 
Si 0.4810860842 10.0447278822 0.4897952539 
Si 3.9436912351 2.1311244842 10.1597814917 
Si 5.4775836639 0.0516094738 6.0394227747 
Si 0.2236570831 6.7455937617 4.5888428323 
Si 9.2112739299 2.6996515239 9.2478664555 
Si 4.0404432740 6.1688925866 3.9301773723 
Si 3.3255355163 7.7292288741 7.2497362156 
Si 2.8384950521 0.3466587123 5.6630728426 
Si 7.0920178657 5.5916924707 4.9819762813 
Si 4.0208465805 3.1710974363 8.1684984172 
Si 6.9916989314 9.2421127134 8.1394961602 
Si 0.3912130580 3.0763942392 5.7566189219 
Si 2.7993865914 9.8082299756 8.2996030562 
Si 9.7927840444 1.7873330888 4.1006027872 
Si 3.5531586474 4.5589276199 1.0604380146 
Si 1.6408992920 2.2891613069 10.0987621019 
Si 7.9322446730 8.5106231382 2.1888105254 
Si 2.8168389012 6.9602868968 1.7581715954 
Si 8.5050817114 8.7501465366 6.0867902969 
Si 6.7938530078 7.8764163899 4.3986614875 
Si 7.4907245888 0.1743999555 1.5132766224 
Si 5.7108543795 3.1045790826 1.6385107460 
Si 9.5400546404 9.5304155301 3.8620029601 
Si 10.3213215153 4.7631854627 7.3290359446 
Si 0.8943629383 4.4241605436 9.5634093129 
Si 1.0837417315 0.6688141267 8.7450722032 
Si 3.0080605905 5.9107279133 9.4564661442 

