&CONTROL
   calculation      = 'scf'
   tstress          = .true.
   tprnfor          = .true.
   outdir           = './'
   disk_io          = 'none'
   pseudo_dir       = '/home/ppiaggi/pseudos'
/
&SYSTEM
   ecutwfc          = 30
   occupations      = 'smearing'
   degauss          = 0.01
   smearing         = 'fermi-dirac'
   input_dft        = 'PBE'
   ntyp             = 1
   nat              = 64
   ibrav            = 0
/
&ELECTRONS
   electron_maxstep = 100
   mixing_beta      = 0.5
/
&IONS
/
&CELL
/

ATOMIC_SPECIES
Si 28.085 Si_ONCV_PBE_sr.upf

K_POINTS gamma

CELL_PARAMETERS angstrom
10.66039364151507 0.00000000000000 0.00000000000000
0.00000000000000 10.66039364151507 0.00000000000000
0.00000000000000 0.00000000000000 10.66039364151507

ATOMIC_POSITIONS angstrom
Si 5.9500240883 10.3986383360 5.5840847557 
Si 1.8943945917 1.9118669769 10.3262862444 
Si 3.7477679886 3.0574755191 0.7833641022 
Si 2.2186198039 10.1439828527 10.1634700523 
Si 6.0999518644 1.8135781475 0.2747258064 
Si 7.7717680973 3.1664140818 3.9036762456 
Si 3.5441651305 2.8720912737 7.8700995682 
Si 10.2845294825 1.0000920370 1.3754253084 
Si 10.6198521645 3.3073231649 0.8134477331 
Si 8.1675352112 9.1506793544 5.7504295381 
Si 3.2486909999 8.9273654284 8.1432081929 
Si 6.9566957202 4.3542910848 9.7774145570 
Si 2.1530157414 0.5949043332 7.3002269053 
Si 8.7361286269 3.9570315158 6.3547672536 
Si 9.5728735842 7.4105513191 10.1945237790 
Si 0.2907153308 6.9701171558 7.7564491116 
Si 9.7313190149 8.6881781763 3.9175987197 
Si 2.1854233381 2.5299459398 5.0867560716 
Si 10.3839056720 2.3265989311 5.7709934374 
Si 7.9457457215 3.4508760257 1.7035202435 
Si 8.3764682662 6.9338718174 6.6944287158 
Si 4.7917829795 4.6821301705 9.9133132551 
Si 8.4281605150 5.7414748074 1.4556980725 
Si 2.9560418736 4.0774833035 2.7673529062 
Si 4.3231840562 4.6584321154 6.8938420393 
Si 9.3228980137 1.3465676228 3.7149659574 
Si 6.6401992934 1.1289143658 7.7983764398 
Si 0.4231120897 3.7321291911 3.1636423794 
Si 3.1058950271 7.0365100874 4.7145590880 
Si 1.6730634989 1.1039264032 2.7922022838 
Si 4.2214839009 0.7364743608 2.2546092928 
Si 9.9339730980 10.3506559043 6.8903347698 
Si 2.1874381525 6.3512386633 2.7622465776 
Si 8.8371678378 0.9353034947 8.6305054467 
Si 3.1359040352 9.2914605128 3.3406795366 
Si 5.7932949809 1.6032912225 4.0347457854 
Si 1.6433529818 5.1779663996 8.6364326255 
Si 1.7942615142 4.8993889929 5.9547253219 
Si 3.6742645745 6.4086768643 8.5671294065 
Si 4.7472758360 3.6713862682 4.5025984812 
Si 3.1132933402 7.5672591056 0.3304828633 
Si 0.2927813151 9.3328015194 8.8121692147 
Si 7.7157370683 10.4253639429 10.5092505805 
Si 6.7821211139 5.5433620520 5.0345947655 
Si 4.6198414905 6.1275089820 1.3525907452 
Si 7.6637143473 6.5080423934 8.8994778386 
Si 9.2046635878 3.0173284767 9.1700386293 
Si 6.7219964938 3.6939330007 7.1753723750 
Si 5.2129538115 7.2610712795 5.8558395104 
Si 5.4807535602 8.8858964971 7.5308112198 
Si 1.1725793382 8.9703481356 1.4263180277 
Si 0.7912634539 5.7788501476 0.1262926174 
Si 7.9477925171 10.2294472286 2.9971376911 
Si 10.2975991251 5.8734184995 5.0645717924 
Si 0.7558656168 2.8096533482 8.3725239205 
Si 0.9986358272 10.3183122700 5.0115150132 
Si 10.4687943866 6.6335365474 2.5379732162 
Si 4.7728927620 9.6710877908 0.2576318652 
Si 9.3166510230 9.1436754758 0.9594205032 
Si 6.6007238557 6.7406841639 2.8036622069 
Si 4.7760375781 0.8628746482 9.2139274699 
Si 1.9029548878 8.1487942392 6.1054952691 
Si 6.2329615959 8.3327499919 9.5764874576 
Si 5.3853536975 8.9099250244 3.8669405291 

