&CONTROL
   calculation      = 'scf'
   tstress          = .true.
   tprnfor          = .true.
   outdir           = './'
   disk_io          = 'none'
   pseudo_dir       = '/home/ppiaggi/pseudos'
/
&SYSTEM
   ecutwfc          = 30
   occupations      = 'smearing'
   degauss          = 0.01
   smearing         = 'fermi-dirac'
   input_dft        = 'PBE'
   ntyp             = 1
   nat              = 64
   ibrav            = 0
/
&ELECTRONS
   electron_maxstep = 100
   mixing_beta      = 0.5
/
&IONS
/
&CELL
/

ATOMIC_SPECIES
Si 28.085 Si_ONCV_PBE_sr.upf

K_POINTS gamma

CELL_PARAMETERS angstrom
10.72866584164873 0.00000000000000 0.00000000000000
0.00000000000000 10.72866584164873 0.00000000000000
0.00000000000000 0.00000000000000 10.72866584164873

ATOMIC_POSITIONS angstrom
Si 2.8826959537 6.8387198241 6.3404162104 
Si 5.0716656453 9.8048311547 6.0227726009 
Si 4.1838149036 1.6835744299 3.9961490807 
Si 3.5746949004 8.0085520902 0.7273198605 
Si 0.4983669128 6.6727151775 10.3512528347 
Si 1.3618110126 0.2894132711 2.2424199049 
Si 8.1252692458 7.4533543615 5.7401044419 
Si 1.3917225330 9.1640508586 8.7131464906 
Si 2.1437698225 5.9103147255 8.8850519034 
Si 4.4505831798 5.9454403775 10.2003005063 
Si 8.5585356872 5.3039841755 7.1137813590 
Si 8.0490849897 3.3474188433 5.4761256189 
Si 9.3116880293 7.8120029319 9.2605015645 
Si 3.4599410906 1.6307786653 8.6728710791 
Si 4.0126068541 4.0114910729 8.3959427564 
Si 9.5840030257 9.3187689487 6.2394809222 
Si 5.5782303317 7.3062428955 6.3545351347 
Si 0.0767321691 4.8982904053 6.3976214567 
Si 4.2063880165 10.4004866822 0.8080895484 
Si 8.0726344112 10.2761629024 4.0461124775 
Si 6.3984261066 9.3496675064 0.4882669468 
Si 8.5266822783 7.6961440695 3.4581923181 
Si 1.9911652795 3.4511650419 0.3666982884 
Si 6.1218840159 6.9452983906 8.6284544025 
Si 9.9213551944 4.6181971262 2.8106100479 
Si 10.6498316050 10.0439409303 0.1230835460 
Si 2.9472825220 5.6926086382 3.3245131417 
Si 7.1066789822 9.3321475950 8.8165708294 
Si 3.6625519450 8.3789592783 8.7781622056 
Si 0.5982819049 10.2271221709 4.0887696529 
Si 9.3503112263 2.9990697920 9.9568027063 
Si 8.4281072966 9.9947607261 1.1327754542 
Si 4.1280043839 4.7534963311 6.0832822762 
Si 6.1662899638 1.1553914818 5.1226375367 
Si 7.5931488774 5.3383480922 2.7352733563 
Si 5.6969966626 1.6153830298 10.5430384653 
Si 0.7322067678 2.5813277302 5.8293240271 
Si 4.0570128020 4.2774761564 1.5278156592 
Si 7.8981648473 5.5267434643 9.4273537757 
Si 9.8468982535 1.5954062540 4.1438184373 
Si 5.3248943452 2.4239703883 2.2689197095 
Si 10.4624769135 4.4793038182 0.5385339649 
Si 8.1487542954 1.6118532987 0.9066216155 
Si 0.2856539466 7.6070639570 7.2830582486 
Si 7.2006406376 1.9112903624 7.4439560502 
Si 0.8213265763 5.6617422666 4.3812223551 
Si 5.7544701255 9.0421624860 3.6766815979 
Si 1.2015247449 8.1488615820 1.2889311855 
Si 2.5463522795 9.6209096362 5.9014635762 
Si 10.2395459659 0.8988851745 8.8274175105 
Si 2.5331667492 3.3074974777 4.7616608458 
Si 8.5909899014 10.7282903383 7.6462450447 
Si 5.1449531617 10.6563009905 8.2871326274 
Si 5.1074350172 6.8177130964 2.9470464914 
Si 0.0840861331 7.7370095577 3.4587931234 
Si 6.5855554962 3.4144622761 9.3424363856 
Si 0.9728915115 3.7242095876 8.5595012671 
Si 2.2572898358 1.2395042220 10.5424376600 
Si 1.5543583785 0.8416960213 7.2634355188 
Si 7.6518454083 2.6798168826 2.9733639087 
Si 6.4922268321 7.1793871506 0.7268939324 
Si 6.3581292377 5.2732250905 5.0256503975 
Si 3.5352026815 10.1907198077 3.4086473392 
Si 1.2278958056 2.8530955646 2.6798276113 

