&CONTROL
   calculation      = 'scf'
   tstress          = .true.
   tprnfor          = .true.
   outdir           = './'
   disk_io          = 'none'
   pseudo_dir       = '/home/ppiaggi/pseudos'
/
&SYSTEM
   ecutwfc          = 30
   occupations      = 'smearing'
   degauss          = 0.01
   smearing         = 'fermi-dirac'
   input_dft        = 'PBE'
   ntyp             = 1
   nat              = 64
   ibrav            = 0
/
&ELECTRONS
   electron_maxstep = 100
   mixing_beta      = 0.5
/
&IONS
/
&CELL
/

ATOMIC_SPECIES
Si 28.085 Si_ONCV_PBE_sr.upf

K_POINTS gamma

CELL_PARAMETERS angstrom
10.68263842781820 0.00000000000000 0.00000000000000
0.00000000000000 10.68263842781820 0.00000000000000
0.00000000000000 0.00000000000000 10.68263842781820

ATOMIC_POSITIONS angstrom
Si 0.2534637572 8.4830938582 7.8065089533 
Si 0.6436022587 3.5604806574 2.7377786242 
Si 4.3761321493 9.9845921024 0.1330714904 
Si 8.6306745080 1.5121061042 8.0912439980 
Si 4.6135431057 6.0487342132 3.7893989163 
Si 9.9589324049 5.8551648049 3.0498291753 
Si 2.6250340582 3.8000495068 4.3541472794 
Si 10.6360834895 6.2291532936 5.7794035332 
Si 3.3608221452 7.8017231313 8.6028035044 
Si 8.3964256126 8.8752962454 10.0164904607 
Si 6.9177454841 2.8131446383 6.9810935299 
Si 4.8998912288 0.2714202041 7.6393149793 
Si 8.2642279621 0.0233026802 1.1261744257 
Si 5.9188440126 7.2653905864 2.5348939552 
Si 9.2470627453 9.0648276164 3.1872079055 
Si 3.2143738550 2.8062329712 0.1247668073 
Si 7.4866280283 9.9354733309 4.5613156865 
Si 10.3582814772 3.7194383172 5.4313845385 
Si 2.9113928639 1.5566740717 2.3662364597 
Si 10.0406866368 4.2228362879 10.6329107459 
Si 3.2967049494 9.9665277608 2.5761289395 
Si 5.2684422546 4.4008517746 5.5885368324 
Si 0.0170087901 2.7516767368 7.7052589063 
Si 0.2080871139 9.2781385405 5.0892837255 
Si 4.8525671406 2.5478306303 3.5178035169 
Si 5.6799268042 1.1966050609 5.5066757741 
Si 1.7959010767 4.5661442390 0.5141105204 
Si 5.7923188431 9.6539537604 3.0605224964 
Si 1.2352868946 8.7956358107 1.7713096430 
Si 9.5322037302 0.9821521627 4.6191408083 
Si 3.1873360972 4.1972834168 7.1127570486 
Si 8.3960624029 5.9103299498 6.7532221696 
Si 5.9213437500 0.8596778496 1.5687240878 
Si 3.7028374971 9.7223226463 4.7926695869 
Si 7.3333001189 4.8971992039 8.8375651665 
Si 5.2390970468 7.0566091010 7.2226920806 
Si 4.7738254127 2.6179514690 8.5957956936 
Si 2.5712362911 5.6297397688 2.5970455455 
Si 3.3992369130 7.6406823570 0.7159205160 
Si 1.9002597715 2.0290389777 6.7942007706 
Si 1.5895659154 0.6843736165 5.0379429652 
Si 8.2541862819 5.3884616973 1.2452110657 
Si 4.8884714883 5.2966764679 8.8904442267 
Si 3.3729576225 7.4639487869 5.2000520033 
Si 10.6478557571 0.7453501166 2.1002387628 
Si 2.2323295870 6.1315887569 6.8350832279 
Si 8.6628719803 2.0503081108 10.5354850835 
Si 2.5558639744 9.8324392833 7.3053543368 
Si 0.0833973285 8.1591001173 10.6739534428 
Si 7.2364940495 8.3099923851 6.4609985954 
Si 0.5949214754 1.6748667833 10.6238839165 
Si 6.8998947953 6.8018922703 0.0577228890 
Si 7.9241354851 4.1335294306 4.7736010773 
Si 4.5004780606 5.2165246318 0.5350527648 
Si 8.7254508762 9.7225149338 7.9109103787 
Si 6.3856966772 2.8518692026 10.5268214637 
Si 1.4617481466 6.4569605581 9.5973785073 
Si 2.4817371464 0.5131266495 9.5425979374 
Si 6.0622263856 9.5198546002 8.9053037768 
Si 10.2801700251 5.1524822144 8.3954321272 
Si 6.1736676697 4.1217144325 2.1406084534 
Si 1.2343681877 7.4258544982 3.8292665229 
Si 7.9710856810 7.1281827785 4.1934697148 
Si 8.7027502695 2.7531509409 2.8334416513 

