&CONTROL
   calculation      = 'scf'
   tstress          = .true.
   tprnfor          = .true.
   outdir           = './'
   disk_io          = 'none'
   pseudo_dir       = '/home/ppiaggi/pseudos'
/
&SYSTEM
   ecutwfc          = 30
   occupations      = 'smearing'
   degauss          = 0.01
   smearing         = 'fermi-dirac'
   input_dft        = 'PBE'
   ntyp             = 1
   nat              = 64
   ibrav            = 0
/
&ELECTRONS
   electron_maxstep = 100
   mixing_beta      = 0.5
/
&IONS
/
&CELL
/

ATOMIC_SPECIES
Si 28.085 Si_ONCV_PBE_sr.upf

K_POINTS gamma

CELL_PARAMETERS angstrom
10.57576577984984 0.00000000000000 0.00000000000000
0.00000000000000 10.57576577984984 0.00000000000000
0.00000000000000 0.00000000000000 10.57576577984984

ATOMIC_POSITIONS angstrom
Si 0.7356714192 8.1984076629 0.6970434347 
Si 8.9823680286 2.6837063243 8.4137408299 
Si 9.3239335360 0.8404360126 2.1499685769 
Si 1.9109245430 8.2323664468 6.0366576829 
Si 0.0874109251 5.3389638386 7.9871673172 
Si 0.9400692444 5.6548513867 10.1736751649 
Si 3.5528756349 4.2067752331 1.5706281275 
Si 5.9845720364 9.8957863433 7.6373421367 
Si 5.5725930805 2.4430124709 3.9983903442 
Si 2.7694757848 6.8056639158 1.1624670230 
Si 9.6079668776 7.7645157203 8.6375663369 
Si 8.6548365624 8.9115103979 5.8938213903 
Si 8.4223389275 5.1646752186 9.4714654686 
Si 1.7457945361 4.1867553085 6.7094455988 
Si 7.6203574569 0.7766429934 9.1013771209 
Si 4.1333794186 0.6809492343 8.2675414438 
Si 3.6736720316 7.9250452690 3.3953073006 
Si 3.4091404022 6.0566141529 5.6587221170 
Si 3.9319956866 9.5792430977 5.2885385874 
Si 5.5475708186 4.0578684509 6.0182981535 
Si 5.3733668047 7.5230498360 6.5866609581 
Si 3.2636284408 1.1573377766 4.4765207151 
Si 6.1044800689 7.7175275929 9.0781633151 
Si 3.9723845361 2.1274421958 10.4542713826 
Si 5.3696758625 6.8257472950 1.1897842260 
Si 1.5042440457 0.4533640426 7.6903901779 
Si 10.3310637112 6.6498723101 5.7952975563 
Si 9.8981024360 4.6439139358 1.0495865869 
Si 7.6899882988 1.2128076681 4.3345516352 
Si 0.8582709840 2.5012637888 8.8330382158 
Si 3.4859521891 9.6652663766 10.3582540051 
Si 2.5940238305 4.0875123224 9.7071146818 
Si 3.4569534393 7.1465314227 9.0857038361 
Si 7.6701270107 6.5290124588 4.4582457918 
Si 5.5119093364 9.2533191479 1.3910198973 
Si 0.2463635214 2.3728422650 0.7764653205 
Si 0.4819429345 2.7920338932 5.0525932529 
Si 0.0486795096 5.5783780244 3.5044280519 
Si 9.6883638490 9.7991555713 3.7986035528 
Si 9.2009373800 1.8829939456 6.0994671559 
Si 7.7447601898 6.7130942379 7.3822969692 
Si 8.1376498885 3.0861353637 2.1501060619 
Si 9.2504848427 7.1065021492 2.0720780619 
Si 8.7973238548 4.1502583408 4.2887056906 
Si 5.9824886106 4.8285033517 10.0425885481 
Si 6.4805754515 9.6164592175 4.9686005210 
Si 1.7150825123 2.5234411697 2.9485340752 
Si 0.9930749825 0.3372654010 5.1956939396 
Si 1.5443473495 8.5416124140 8.4839427632 
Si 9.3970649564 10.1932509074 7.5932940723 
Si 5.5674955614 4.1441984270 2.5037067907 
Si 10.5253088013 10.4167274141 10.2043977645 
Si 3.7653321937 2.4655705793 6.6183248008 
Si 2.2536322331 5.3568263070 3.6377461553 
Si 6.4388752070 2.4448103511 0.1698869863 
Si 7.9639746629 10.0413723350 0.5670059338 
Si 7.7911137712 4.1288529908 6.6269017468 
Si 8.3188021805 7.6185701525 10.4345264279 
Si 2.4550159651 0.4435137744 1.4320009897 
Si 5.0091057040 0.9303480005 2.1496513039 
Si 1.4847634851 8.9218429211 2.8374039284 
Si 4.3860767661 5.0959010137 8.2465485487 
Si 7.4544659949 8.9690319880 2.7870738590 
Si 5.6056423485 5.8806545619 3.8591815392 

