&CONTROL
   calculation      = 'scf'
   tstress          = .true.
   tprnfor          = .true.
   outdir           = './'
   disk_io          = 'none'
   pseudo_dir       = '/home/ppiaggi/pseudos'
/
&SYSTEM
   ecutwfc          = 30
   occupations      = 'smearing'
   degauss          = 0.01
   smearing         = 'fermi-dirac'
   input_dft        = 'PBE'
   ntyp             = 1
   nat              = 64
   ibrav            = 0
/
&ELECTRONS
   electron_maxstep = 100
   mixing_beta      = 0.5
/
&IONS
/
&CELL
/

ATOMIC_SPECIES
Si 28.085 Si_ONCV_PBE_sr.upf

K_POINTS gamma

CELL_PARAMETERS angstrom
10.70192269697311 0.00000000000000 0.00000000000000
0.00000000000000 10.70192269697311 0.00000000000000
0.00000000000000 0.00000000000000 10.70192269697311

ATOMIC_POSITIONS angstrom
Si 2.9882229612 5.0267358985 3.4741330594 
Si 0.7996262601 7.3429851335 3.3334134778 
Si 5.9607997115 2.8927511088 9.9685520403 
Si 3.2985894214 8.7757478423 9.3219311690 
Si 5.8659913783 7.3607396233 3.8851511025 
Si 4.1160878923 9.2797976994 2.4391822211 
Si 1.6647375851 9.7045677132 2.2093584312 
Si 1.5194482826 1.4293059877 2.7561517675 
Si 9.7881283256 6.5365310468 5.3732320496 
Si 0.5138035895 8.0860517322 6.7582427793 
Si 0.5872219897 4.5292891277 4.1035024312 
Si 0.3722332051 6.1561633103 1.2522319748 
Si 8.0766554440 7.4419030050 7.6833490830 
Si 1.8499236555 10.1895146382 7.8855512104 
Si 2.6604658767 2.1790933938 7.8981687773 
Si 5.8789193009 2.2422026319 2.7635789019 
Si 1.3313191835 8.3271981563 10.6312471995 
Si 8.1895286227 2.6681177514 10.6588153523 
Si 5.1397910098 1.6419317879 5.9593442500 
Si 6.4333003004 6.9800829349 9.3722516096 
Si 10.3709657376 6.7858858456 8.8483817916 
Si 9.3681313693 0.5757655815 3.1979485403 
Si 10.5236714725 0.5057097253 5.2721737936 
Si 9.4230857424 1.5046047158 9.2056333751 
Si 5.3675814344 7.2771040974 6.9654534066 
Si 8.3864761061 9.3899632916 0.2397722973 
Si 3.3114531324 6.4747488471 8.5515318599 
Si 5.5145509388 5.3894668664 5.3210601765 
Si 7.2984544332 2.6369109448 4.8246086845 
Si 3.1561789360 7.3947075259 4.1745738999 
Si 2.6525464539 0.4942404748 0.0593633512 
Si 7.8296978759 5.0451860132 4.1849119572 
Si 7.4906609648 0.7254201983 1.4444706122 
Si 6.1510156855 4.0482805101 7.2374962815 
Si 10.3795058719 2.4083927895 1.3720935090 
Si 9.1023491191 2.7286371243 6.6851914550 
Si 2.1605362598 5.0546679167 10.5136116652 
Si 4.5260999547 1.2726512433 8.7849728996 
Si 10.3936217079 9.8340502759 9.4011789066 
Si 0.7485438427 2.5794202161 6.0418667759 
Si 3.8655772858 8.9693991335 6.4614998668 
Si 5.2990998311 10.3785641027 4.7163266306 
Si 7.0833350851 0.7118597920 7.6753868525 
Si 6.9263485810 6.2223868079 1.8756938853 
Si 1.6857668632 9.5142661238 4.8566609430 
Si 9.4175956560 9.7258003278 7.0957814212 
Si 7.6051501338 10.6748468325 5.1707409703 
Si 3.8382873830 5.5734008117 1.3459808176 
Si 8.7779631403 6.7973797106 0.6904912630 
Si 5.1975813924 0.3836971046 0.7642735286 
Si 5.7659926126 4.2049673603 1.4379317374 
Si 9.4592796449 8.8253619559 2.5911067157 
Si 3.5709961617 2.6361190026 3.6124126025 
Si 5.2209650935 5.2302008528 9.4743265482 
Si 8.3893442214 5.0684198874 6.9208049851 
Si 7.8779742492 8.3411748673 4.5825847027 
Si 4.9441812668 7.8752666627 0.7602496057 
Si 8.6176911460 5.0742524352 9.8358481989 
Si 5.9177779822 9.7477285674 9.7472576828 
Si 0.2387684569 4.3547728742 8.3345396753 
Si 1.8600155686 5.4979522567 6.9792374830 
Si 3.4077490329 3.8663692281 5.9765101340 
Si 1.2966663578 2.2509139970 10.0099684812 
Si 9.6331751868 4.5311940699 2.3856512038 

