&CONTROL
   calculation      = 'scf'
   tstress          = .true.
   tprnfor          = .true.
   outdir           = './'
   disk_io          = 'none'
   pseudo_dir       = '/home/ppiaggi/pseudos'
/
&SYSTEM
   ecutwfc          = 30
   occupations      = 'smearing'
   degauss          = 0.01
   smearing         = 'fermi-dirac'
   input_dft        = 'PBE'
   ntyp             = 1
   nat              = 64
   ibrav            = 0
/
&ELECTRONS
   electron_maxstep = 100
   mixing_beta      = 0.5
/
&IONS
/
&CELL
/

ATOMIC_SPECIES
Si 28.085 Si_ONCV_PBE_sr.upf

K_POINTS gamma

CELL_PARAMETERS angstrom
10.62135306042513 0.00000000000000 0.00000000000000
0.00000000000000 10.62135306042513 0.00000000000000
0.00000000000000 0.00000000000000 10.62135306042513

ATOMIC_POSITIONS angstrom
Si 7.1432104378 2.0901548261 8.3122284197 
Si 1.4640366845 5.8155944120 2.9916634098 
Si 5.8938737841 10.2863130995 0.5348382334 
Si 4.5993751371 7.7181230362 2.0021144305 
Si 1.4161237608 2.8645470563 8.8640077112 
Si 0.0527000737 5.9497633439 5.4081062018 
Si 0.5750485518 10.5341729945 0.9298038683 
Si 3.9978666706 5.2470227613 2.5119499988 
Si 0.4973639755 4.9357640099 10.4347783726 
Si 4.4859497078 9.4545549413 4.8529280774 
Si 1.7723639425 0.9719207196 6.2826684128 
Si 7.3960092620 3.6362095989 2.8553595859 
Si 2.4558798760 3.3287108064 4.4590033351 
Si 10.1613953661 8.2416495286 6.6029340717 
Si 6.0255785620 9.4392283289 3.0327361820 
Si 6.8783669992 1.0222861136 4.8107719271 
Si 1.5470744227 7.6229026061 1.4705900593 
Si 7.9962006807 4.5125668185 0.5846598142 
Si 5.1267996660 1.7826029268 0.2418354636 
Si 2.6929590976 1.9581101648 0.1926968358 
Si 5.4937143075 7.6945542538 7.1616172426 
Si 8.4717186572 9.6798125970 9.3113684807 
Si 2.8392257506 0.0947746520 8.9716020177 
Si 4.5855248927 5.0009366323 4.8926625592 
Si 3.4815202129 9.9758297068 1.3436755116 
Si 7.4568908577 8.2135772925 0.6623890001 
Si 5.8634011221 3.6809892234 9.4132166352 
Si 4.4029863190 0.5711494531 6.7371879743 
Si 0.5848563092 9.3938539086 8.9022339608 
Si 1.9112806192 4.0651848063 6.6990679382 
Si 9.0336625836 3.1108031270 9.6646877903 
Si 6.1756901448 6.0841128387 0.3214063921 
Si 1.2634418106 1.6546368652 2.1814665983 
Si 6.7161576953 6.4303583271 8.6921223546 
Si 2.8813394155 0.4705142571 3.7094650709 
Si 3.1519183847 7.2327059587 10.2739392232 
Si 10.1240294461 4.8129174404 7.8025415504 
Si 10.4309122001 3.1855137245 4.7925031998 
Si 8.8745547148 10.5600997173 6.3887438658 
Si 3.4881054518 6.4554034777 6.5364019161 
Si 6.8610435724 4.2484350106 5.2224661930 
Si 7.3873741019 8.5850166303 5.5461200635 
Si 4.7782812081 9.2359143886 9.2290954799 
Si 4.1962947885 4.6702726688 8.2950218277 
Si 10.4571469421 4.0487323304 2.4233785356 
Si 1.5218699519 7.0286166596 8.3564557338 
Si 8.8641245460 0.9472441300 0.4613639614 
Si 8.5895838121 2.9884876252 6.4625516483 
Si 2.9797250089 7.6778468654 4.4635386528 
Si 4.6053230948 2.2007762182 3.8411910916 
Si 6.6785474841 10.4974124916 7.8322707176 
Si 8.9305292454 5.8789507830 3.4102509339 
Si 3.1868413936 4.9640168090 0.0004573916 
Si 8.0158926693 6.4128862014 6.1580055920 
Si 10.5017566250 1.0010285376 4.2052379677 
Si 9.1440609273 6.9604063303 9.0557974834 
Si 5.1666934681 3.2872025587 2.0516630426 
Si 8.3222018702 8.0717928504 3.4436338465 
Si 1.2756669880 9.2200142230 5.2061093093 
Si 9.8901578730 6.7007673547 1.0046567918 
Si 8.5290208570 1.4571859118 2.9620404561 
Si 10.4193455466 9.1446557231 2.7601497771 
Si 10.5037215753 0.9866100508 7.9957758266 
Si 4.8811702552 2.7634317752 6.6094237184 

