&CONTROL
   calculation      = 'scf'
   tstress          = .true.
   tprnfor          = .true.
   outdir           = './'
   disk_io          = 'none'
   pseudo_dir       = '/home/ppiaggi/pseudos'
/
&SYSTEM
   ecutwfc          = 30
   occupations      = 'smearing'
   degauss          = 0.01
   smearing         = 'fermi-dirac'
   input_dft        = 'PBE'
   ntyp             = 1
   nat              = 64
   ibrav            = 0
/
&ELECTRONS
   electron_maxstep = 100
   mixing_beta      = 0.5
/
&IONS
/
&CELL
/

ATOMIC_SPECIES
Si 28.085 Si_ONCV_PBE_sr.upf

K_POINTS gamma

CELL_PARAMETERS angstrom
10.61547265256601 0.00000000000000 0.00000000000000
0.00000000000000 10.61547265256601 0.00000000000000
0.00000000000000 0.00000000000000 10.61547265256601

ATOMIC_POSITIONS angstrom
Si 0.5773670652 2.5843155863 3.3528758064 
Si 5.8457072494 10.3946602059 4.8036606074 
Si 8.1657612595 2.8916016732 5.9920521554 
Si 8.8370837500 6.8110677169 6.6489588340 
Si 1.1877015423 0.3619133091 2.2494080396 
Si 6.6565701279 1.4701049612 6.9043246442 
Si 6.4917436841 7.3826578419 4.9717566168 
Si 1.5954524623 3.7417524160 1.1085207317 
Si 0.6827511084 2.3329624249 9.8234628534 
Si 9.7480505357 1.2715000834 5.1791935679 
Si 4.6345773590 2.0906961080 4.5979221319 
Si 3.8276315898 1.1948245244 7.0739917436 
Si 2.4880969422 3.4749749728 6.5228788653 
Si 10.1283604590 5.2891274027 4.0752693358 
Si 2.1033815978 6.5315941684 4.3196481318 
Si 10.5155916704 8.9511788501 8.2022360235 
Si 10.2964140065 2.8370593747 7.5813051816 
Si 9.5960688137 8.0142360028 4.2293529214 
Si 5.2929914348 4.0908103878 5.9450362270 
Si 5.1071994324 6.0168817459 9.5612182170 
Si 8.4493642269 4.6555323020 8.2794742025 
Si 7.9699270200 0.5381365245 9.8272844236 
Si 6.8514702058 9.3074128814 6.7001572586 
Si 4.1272320745 9.6007502372 7.9608295599 
Si 1.8759981736 9.1870228060 6.4043252668 
Si 10.0282034745 10.3177086447 0.6079884576 
Si 4.9818413158 7.7561632472 1.6099001206 
Si 2.5824048012 4.1706281267 4.2283126051 
Si 7.2176721659 5.5148335823 2.3646920726 
Si 8.2826269979 10.1075116707 3.9928083443 
Si 3.9104853539 7.0779194685 7.9258940394 
Si 3.5773612066 9.5184803241 2.2424336741 
Si 3.8575353763 8.9203515175 4.4900052369 
Si 9.9813361627 7.0875689331 1.8173901491 
Si 3.2961573360 3.5505252917 9.2072028195 
Si 6.3981470617 3.8675139206 0.7094097449 
Si 1.5891574870 7.8957036352 2.3303510186 
Si 0.8449682691 9.6893257410 4.3724707237 
Si 8.9530365578 1.2901196224 2.1416928386 
Si 3.7551809890 1.3020514137 10.1028727091 
Si 6.6238320103 7.7464607052 8.9797663180 
Si 5.9179349253 1.8957111063 8.9320709993 
Si 1.9419839516 5.4994411469 8.1760476525 
Si 2.0002204346 6.5501500146 10.5013775525 
Si 4.6143124217 5.1102354576 3.0637952551 
Si 8.6506335884 2.9322377025 10.1809070486 
Si 2.6349938528 8.6591153510 10.1982208845 
Si 3.2149065083 1.8022206386 1.6167471005 
Si 3.9365144928 5.5470727727 0.9303835467 
Si 4.3168031851 6.3268960092 5.6675477718 
Si 0.6865227858 6.8257701465 6.3552923986 
Si 8.5687776787 8.4130699259 0.5110946694 
Si 6.3856632658 0.1625451788 2.0268015781 
Si 9.0137570614 7.0081651977 9.0285231838 
Si 1.3871025806 10.5733398416 9.5406666620 
Si 7.9869967000 5.2132161578 4.7737568209 
Si 1.5330971760 0.9488916233 7.0277188983 
Si 5.7154341690 2.4335121818 2.2588345793 
Si 5.6232069426 9.7844828379 10.2496528495 
Si 9.2669573151 4.1274762304 1.8202563267 
Si 10.3007451194 5.6781313981 10.4709111460 
Si 6.0691841797 4.2373251414 8.5641811791 
Si 8.9903817906 0.0334218603 7.4689297881 
Si 7.2103474898 7.9686425478 2.3139394979 

