&CONTROL
   calculation      = 'scf'
   tstress          = .true.
   tprnfor          = .true.
   outdir           = './'
   disk_io          = 'none'
   pseudo_dir       = '/home/ppiaggi/pseudos'
/
&SYSTEM
   ecutwfc          = 30
   occupations      = 'smearing'
   degauss          = 0.01
   smearing         = 'fermi-dirac'
   input_dft        = 'PBE'
   ntyp             = 1
   nat              = 64
   ibrav            = 0
/
&ELECTRONS
   electron_maxstep = 100
   mixing_beta      = 0.5
/
&IONS
/
&CELL
/

ATOMIC_SPECIES
Si 28.085 Si_ONCV_PBE_sr.upf

K_POINTS gamma

CELL_PARAMETERS angstrom
10.64292284590541 0.00000000000000 0.00000000000000
0.00000000000000 10.64292284590541 0.00000000000000
0.00000000000000 0.00000000000000 10.64292284590541

ATOMIC_POSITIONS angstrom
Si 0.9212439515 2.3579182707 6.6205259426 
Si 1.5419040902 1.3971071249 3.1046257375 
Si 9.4880380021 0.8194507802 6.7594586574 
Si 4.1507186241 8.4754383937 0.3926929885 
Si 7.6104348394 0.1911234799 9.1572346742 
Si 3.7652106727 4.1209184401 3.5762775064 
Si 2.3917946941 10.4197833255 9.5920832158 
Si 4.6750102893 1.2635384432 0.6457710509 
Si 5.4954199969 7.8275504655 8.7306131119 
Si 1.7091576227 3.3312454937 4.4706661707 
Si 4.5391533792 7.0578542853 6.5865430900 
Si 8.4693399989 5.3408315425 2.9752929391 
Si 6.9425595021 5.4034225718 8.8983136472 
Si 5.7185063026 1.3575899524 3.0454723724 
Si 1.9921848700 0.0010384183 6.9927089545 
Si 4.8796524098 9.6447018263 7.1196577382 
Si 5.6118535728 5.8509894062 1.2810247654 
Si 2.6770675980 3.7367514970 8.5653072342 
Si 7.4857104266 5.6069365424 6.6973359168 
Si 0.7255716864 2.6619120759 1.3022680394 
Si 6.3290695005 9.5894224851 4.7877294852 
Si 0.0272611019 0.2342752106 8.8076785162 
Si 6.5871923082 9.7024928974 0.2149934272 
Si 7.8000917245 7.2730222564 0.1805369645 
Si 9.6469261972 4.9086543745 6.1043016129 
Si 0.2856720136 4.8866980247 2.9939180541 
Si 7.8360222321 7.8389703217 2.4877300006 
Si 3.2724433450 2.8412559688 1.5997058042 
Si 3.0941850302 0.8044059445 4.7551727842 
Si 1.8629372149 5.2407454961 6.4720571689 
Si 5.7101196794 3.3430272093 9.8121362886 
Si 10.6299810517 5.5456226639 9.1063508600 
Si 2.2721363125 7.8006983711 8.2684229014 
Si 9.0524444558 6.8390996491 4.4060849148 
Si 9.1953576238 2.6543449578 4.6105461056 
Si 2.0996890337 8.1701674377 5.4603728519 
Si 1.0980303500 7.1774488093 1.9932598052 
Si 7.9209101847 2.6680743282 0.2995429349 
Si 5.1421175301 3.0579033062 5.7069055167 
Si 0.2782326105 8.7800920602 4.0144572829 
Si 8.3406351330 9.7012583183 5.8450187265 
Si 6.4929172977 7.1301197314 4.7750005494 
Si 5.9909012700 4.8953294351 3.9140306629 
Si 9.6458086903 1.1631118232 0.4506000674 
Si 9.9187038750 0.4948629193 3.6933709435 
Si 7.3937342874 10.1823610027 2.6276737931 
Si 2.7953956142 6.4659800600 3.4343434873 
Si 4.3571168268 7.6214289787 2.4931898200 
Si 4.3750927235 4.7634955498 7.0230093559 
Si 9.1182815765 4.0568906162 8.2434439615 
Si 5.3444394934 1.2495642855 7.7433010882 
Si 7.7353614678 2.6938302015 6.7210909206 
Si 10.6287571156 9.7223206627 1.1731800282 
Si 3.6453075040 1.6728226842 9.2595983061 
Si 2.6402856567 6.5738780118 10.0425342823 
Si 4.0442681098 4.8392093030 10.6300768380 
Si 9.9783148859 8.3252241807 9.8193947619 
Si 10.5729881999 7.6354031364 7.6504203006 
Si 3.6852929651 9.6109211892 3.8346451014 
Si 0.6443917281 2.8882125444 9.1219533849 
Si 2.6332400418 10.2894181636 1.5334855383 
Si 7.3727890152 3.2445801730 2.8919482103 
Si 7.9129279925 8.5474271239 8.1688690011 
Si 8.9754109803 4.8246391416 0.4350901360 

