&CONTROL
   calculation      = 'scf'
   tstress          = .true.
   tprnfor          = .true.
   outdir           = './'
   disk_io          = 'none'
   pseudo_dir       = '/home/ppiaggi/pseudos'
/
&SYSTEM
   ecutwfc          = 30
   occupations      = 'smearing'
   degauss          = 0.01
   smearing         = 'fermi-dirac'
   input_dft        = 'PBE'
   ntyp             = 1
   nat              = 64
   ibrav            = 0
/
&ELECTRONS
   electron_maxstep = 100
   mixing_beta      = 0.5
/
&IONS
/
&CELL
/

ATOMIC_SPECIES
Si 28.085 Si_ONCV_PBE_sr.upf

K_POINTS gamma

CELL_PARAMETERS angstrom
10.92702980942578 0.00000000000000 0.00000000000000
0.00000000000000 10.92702980942578 0.00000000000000
0.00000000000000 0.00000000000000 10.92702980942578

ATOMIC_POSITIONS angstrom
Si 0.0300742456 2.0923185949 6.2442730387 
Si 3.3449168031 10.3064728595 2.8679738060 
Si 9.3875205796 3.2460271833 9.6734153875 
Si 4.4449846021 10.6727578258 0.4637628138 
Si 5.5499804916 1.6050386276 10.1258272027 
Si 5.3521247628 2.7739576415 4.5114755785 
Si 2.2939878571 0.2833979816 7.7616003980 
Si 7.6687097176 2.0939795035 2.5114794584 
Si 4.4888238457 9.6685856403 9.5172244234 
Si 1.2715128967 3.1592447126 4.7698670524 
Si 3.4485487538 8.1549625441 5.3752354309 
Si 8.4009299851 6.4635020377 10.9183865288 
Si 7.2428833659 7.1443543381 8.3883748279 
Si 9.3551328632 2.3613748499 4.5432186001 
Si 2.4353289877 8.9620657469 8.5364360818 
Si 3.5482141927 10.4941445965 5.8715083437 
Si 6.2774256471 7.7896173024 10.4677558195 
Si 0.7436630531 2.5508932550 8.5156200900 
Si 5.2825632911 5.1173028922 4.3797283801 
Si 0.4930155653 3.4430306037 1.8909662166 
Si 5.5059882696 9.7198224831 7.1270240688 
Si 10.4811742121 9.9022710998 8.5036768464 
Si 8.8825388240 1.1747977559 8.5810183634 
Si 6.5618015979 6.7752064901 1.7030759391 
Si 0.1036361030 0.7573600850 3.5223936212 
Si 0.6568150202 5.4014603024 2.9399173702 
Si 6.4545855814 0.3949520289 1.4223605433 
Si 2.6906062581 2.5516581470 1.1940402554 
Si 5.9084635586 0.2843704873 4.1466876153 
Si 10.0350891472 7.4078268809 4.9235775807 
Si 7.1003839702 3.3834564372 10.3338232151 
Si 0.5368460672 7.6431732489 1.0526783635 
Si 3.5500390067 7.2789971994 9.7114086702 
Si 0.2207183532 5.4512110691 7.5421091502 
Si 7.1368256146 9.0729860265 4.7986379219 
Si 1.4524426563 7.6359395552 4.3400523349 
Si 0.5723294111 7.7910487433 7.2521604142 
Si 0.2948833827 1.0064482857 10.0953844977 
Si 5.7365595256 5.6566501566 6.9551200359 
Si 0.0716299585 10.4804311741 6.3451185968 
Si 6.8228920482 0.6871069323 7.2474617914 
Si 5.8644057744 7.1955365457 5.1509362900 
Si 4.4569934079 3.6179395699 2.4616303484 
Si 9.6788679754 2.1276566093 1.1162398032 
Si 0.4481207706 9.6004009743 4.4158859217 
Si 8.4673007642 0.0713743753 4.0402474180 
Si 2.3523272693 5.6649000641 4.6947655765 
Si 6.7327986874 3.9594638866 1.5481525104 
Si 3.9032661723 3.3136436438 6.9510114727 
Si 10.3028669397 4.3602782670 5.4418247505 
Si 4.3115000060 5.1825591143 8.5991790869 
Si 8.3019420221 2.4222493330 6.4956821405 
Si 9.7984533896 9.7516857020 1.2632629892 
Si 4.7904754306 1.4935610695 7.9095196005 
Si 4.7578036115 5.4024437351 0.9051274018 
Si 3.8101023161 3.5947961208 10.3979976612 
Si 7.8534420835 9.8827007894 10.8751591989 
Si 1.0851622377 6.2809332237 10.0281723373 
Si 2.5693490083 8.5904593172 1.6003400048 
Si 2.1819311664 4.4281569762 8.4243356830 
Si 1.7965020439 0.4143103550 1.2616785699 
Si 7.8448752922 4.4879824644 3.5807002523 
Si 9.9876112026 7.7882623507 9.3292467296 
Si 7.5471574380 4.3539733708 8.1515751649 

