&CONTROL
   calculation      = 'scf'
   tstress          = .true.
   tprnfor          = .true.
   outdir           = './'
   disk_io          = 'none'
   pseudo_dir       = '/home/ppiaggi/pseudos'
/
&SYSTEM
   ecutwfc          = 30
   occupations      = 'smearing'
   degauss          = 0.01
   smearing         = 'fermi-dirac'
   input_dft        = 'PBE'
   ntyp             = 1
   nat              = 64
   ibrav            = 0
/
&ELECTRONS
   electron_maxstep = 100
   mixing_beta      = 0.5
/
&IONS
/
&CELL
/

ATOMIC_SPECIES
Si 28.085 Si_ONCV_PBE_sr.upf

K_POINTS gamma

CELL_PARAMETERS angstrom
10.60398949851339 0.00000000000000 0.00000000000000
0.00000000000000 10.60398949851339 0.00000000000000
0.00000000000000 0.00000000000000 10.60398949851339

ATOMIC_POSITIONS angstrom
Si 1.2770702673 2.4551204806 6.7483365009 
Si 1.5156494270 1.1436932874 3.0790274107 
Si 9.5375250667 1.0557809124 6.7506163586 
Si 4.4298802369 8.6290070584 0.1378624675 
Si 7.4303745015 0.1597172898 9.1292820750 
Si 3.8367672923 4.1555868406 3.5124442735 
Si 2.3116909187 10.3730770232 9.7722973942 
Si 4.8499890929 1.0889130776 0.7563772689 
Si 5.4701210028 8.0506866791 8.8121061451 
Si 1.9071699273 3.2972363066 4.7150745345 
Si 4.5973066271 7.5399455249 6.6724861640 
Si 8.0676742703 5.2511380156 2.1811876199 
Si 7.1277472452 5.6096270886 9.2825097232 
Si 5.9899709839 1.5635688555 2.5657837150 
Si 1.5630280521 10.3629184013 7.0829347855 
Si 4.9237610478 9.6582408831 7.0560218602 
Si 5.8864866504 5.8169138753 1.1253695935 
Si 2.9313456490 3.5479358264 8.1763545587 
Si 7.6408849010 6.2607120438 6.5905703451 
Si 0.7026362502 3.1637957028 1.4405625774 
Si 6.1605997790 9.8157525431 4.7976690087 
Si 0.0981486181 0.0534372145 8.7632429615 
Si 6.5401589791 9.4003518585 0.4610519198 
Si 7.5913960820 7.3395513314 0.0866617404 
Si 9.9331068949 4.5622816498 5.3572839505 
Si 0.1386938202 4.9636850683 3.1120164221 
Si 7.8622219738 7.9355909771 2.7441110064 
Si 3.0688581848 2.7828367761 1.8671610749 
Si 2.8259844093 0.8553559673 5.5561193576 
Si 1.7690847760 5.1794020267 6.1651170785 
Si 5.8701883186 3.3880806847 9.7762950982 
Si 10.4341135867 5.4279171246 9.1147227974 
Si 2.2012927840 8.2285367910 7.9233009533 
Si 9.1856634871 6.6671841693 4.4374939014 
Si 8.8921662658 1.9653116017 4.7634075186 
Si 2.2020032513 8.5557228870 5.5842835537 
Si 0.8121277437 7.4459305540 2.5205258878 
Si 7.8157128758 2.0171120904 10.3050842425 
Si 5.2017552365 3.2204422147 5.8109650372 
Si 10.5401110658 8.5640894347 4.2724852208 
Si 8.2373487063 9.5160944039 6.2058257942 
Si 6.2044472755 7.3847667426 5.0661620228 
Si 5.7669478768 5.2180429644 4.2554340057 
Si 10.4799546333 1.2538051143 10.5601844179 
Si 10.1110418387 0.0473096991 3.3629386256 
Si 6.8511739911 10.1088362089 2.5781691748 
Si 2.4562551075 6.1756998600 3.7455411707 
Si 5.1226600789 7.4458033062 2.5483083403 
Si 4.1307735052 5.2510107677 6.7630018184 
Si 8.6820694219 3.9588298154 7.8266986090 
Si 5.7615716541 1.3009928676 7.5291930796 
Si 7.2847605177 2.2859444322 6.5546546327 
Si 10.4546853264 9.5043982035 1.4364800414 
Si 3.9164032535 1.6902547181 9.3251801770 
Si 3.0552744743 6.9114894833 10.1862877482 
Si 3.7710755774 4.5933831510 10.4034574531 
Si 9.9080284597 8.5869622400 9.8840422355 
Si 10.4530841240 7.3255540653 7.8095625619 
Si 3.4179097071 9.2717572779 3.5018933040 
Si 0.4489336806 3.1843568384 8.8981999358 
Si 2.3716246673 10.1515596826 1.5764208908 
Si 7.5725633966 2.9166591235 3.0863335595 
Si 7.9569898279 8.0433381144 7.9927358765 
Si 8.9589289837 4.5149348367 0.0185441508 

