&CONTROL
   calculation      = 'scf'
   tstress          = .true.
   tprnfor          = .true.
   outdir           = './'
   disk_io          = 'none'
   pseudo_dir       = '/home/ppiaggi/pseudos'
/
&SYSTEM
   ecutwfc          = 30
   occupations      = 'smearing'
   degauss          = 0.01
   smearing         = 'fermi-dirac'
   input_dft        = 'PBE'
   ntyp             = 1
   nat              = 64
   ibrav            = 0
/
&ELECTRONS
   electron_maxstep = 100
   mixing_beta      = 0.5
/
&IONS
/
&CELL
/

ATOMIC_SPECIES
Si 28.085 Si_ONCV_PBE_sr.upf

K_POINTS gamma

CELL_PARAMETERS angstrom
10.95011239840980 0.00000000000000 0.00000000000000
0.00000000000000 10.95011239840980 0.00000000000000
0.00000000000000 0.00000000000000 10.95011239840980

ATOMIC_POSITIONS angstrom
Si 0.2335242870 1.8558359994 6.6426338339 
Si 3.8538811085 10.3865320135 3.5678751228 
Si 9.1564839876 3.7597977428 10.0631204438 
Si 4.6755118422 10.7440531833 0.6520113026 
Si 5.0504546408 1.7474189365 10.0703256178 
Si 4.6523742547 2.2441379352 4.3474026743 
Si 2.1675637992 0.3430111759 6.8740754096 
Si 8.0313599386 2.0075717069 2.1904714343 
Si 5.0534221213 9.5806694416 9.1264478292 
Si 1.3845541119 2.7859932971 4.2607544349 
Si 3.1334184633 8.1056345510 4.8792934339 
Si 8.1110220063 6.6633733468 10.4219118266 
Si 7.3702907030 7.7022981109 8.4587866260 
Si 9.2223379635 2.6693746000 4.3840636506 
Si 2.4265449075 9.0537719333 8.5966156907 
Si 3.9651342505 10.2054281045 5.8379538742 
Si 5.7659678353 7.9743755537 10.6091149482 
Si 0.7574805952 2.2781489843 9.0147019322 
Si 5.4407166467 4.7044420392 4.3872829837 
Si 0.1664570386 3.3268959992 1.9303077138 
Si 6.1995265856 9.2958570182 7.0783169060 
Si 10.1967775157 9.8372743756 9.0603201005 
Si 9.5612986928 1.1779035907 8.2621007071 
Si 6.8275921824 6.8975524505 2.0176129600 
Si 10.7194811311 1.0172446366 3.9788656914 
Si 0.1069786561 5.5807138337 3.2040576383 
Si 6.6695601603 0.2563125659 1.8959791114 
Si 2.5587894149 2.8333853835 0.9663802695 
Si 5.6506303014 0.2316638629 4.6927582692 
Si 9.6091725842 8.6253487857 5.4642812886 
Si 6.6664393783 3.5956227076 9.8102166478 
Si 0.3555402945 7.2666040887 1.0224327999 
Si 3.5936954878 7.1647461432 10.2358365667 
Si 0.1736775427 5.4090598718 7.9380978313 
Si 7.5217307575 9.0108036922 4.7160710585 
Si 0.9401996458 7.2330091439 4.8428952603 
Si 0.9097189129 7.8999038393 7.3288335775 
Si 0.1269238478 0.4547910182 10.6847035741 
Si 6.4744948580 6.2027787690 6.6913180336 
Si 10.8426917958 10.2159183122 6.1403412281 
Si 7.3309797995 0.3240477712 7.8673929556 
Si 5.6595765432 7.3131858669 4.8324926536 
Si 4.2773986057 3.5228373105 2.5630052082 
Si 9.6032047730 1.7877810508 0.5989547230 
Si 0.8366958983 9.8448956538 3.9466504607 
Si 7.9584978907 0.5320254460 4.5961782779 
Si 2.6385171833 5.0036648106 4.8942184371 
Si 6.6571755832 4.0884982168 1.3002272963 
Si 4.3507096082 3.5560161510 6.4457398629 
Si 9.9259264856 4.6687556229 5.5466261338 
Si 4.2811763945 5.4018875482 7.8990278303 
Si 8.0545084762 2.6156204983 6.5227301031 
Si 9.5128334953 9.7685624203 0.7246850086 
Si 4.6095812155 1.2287230623 7.7064810539 
Si 4.7324086262 5.7344643619 0.6438545639 
Si 3.8203299641 3.8108909672 10.2570797847 
Si 7.1355531435 10.1186922642 10.4594707122 
Si 1.5921572928 5.8835829926 10.2424942350 
Si 2.6369403671 8.8923015758 1.9316983781 
Si 2.2626764754 4.1349814439 8.5636230021 
Si 2.4398273938 0.2086631518 0.7512532663 
Si 7.8814748001 4.3167861600 4.0151762641 
Si 10.6159478183 7.4008743669 9.7493121227 
Si 8.0988016809 5.0255650354 8.0948377402 

