&CONTROL
   calculation      = 'scf'
   tstress          = .true.
   tprnfor          = .true.
   outdir           = './'
   disk_io          = 'none'
   pseudo_dir       = '/home/ppiaggi/pseudos'
/
&SYSTEM
   ecutwfc          = 30
   occupations      = 'smearing'
   degauss          = 0.01
   smearing         = 'fermi-dirac'
   input_dft        = 'PBE'
   ntyp             = 1
   nat              = 64
   ibrav            = 0
/
&ELECTRONS
   electron_maxstep = 100
   mixing_beta      = 0.5
/
&IONS
/
&CELL
/

ATOMIC_SPECIES
Si 28.085 Si_ONCV_PBE_sr.upf

K_POINTS gamma

CELL_PARAMETERS angstrom
10.67372711444937 0.00000000000000 0.00000000000000
0.00000000000000 10.67372711444937 0.00000000000000
0.00000000000000 0.00000000000000 10.67372711444937

ATOMIC_POSITIONS angstrom
Si 1.2995369499 2.0265458511 6.7242025864 
Si 2.1721568364 0.9945117154 3.2469691357 
Si 9.6769397604 0.7821472407 7.1317468351 
Si 4.0948259753 8.8637191653 0.4072453843 
Si 7.2345668484 10.6251723298 8.6338711256 
Si 4.4836164854 2.9858043806 3.6500410927 
Si 2.2335094199 10.3044268300 9.4919320483 
Si 4.5269838387 0.9627413667 1.1183931271 
Si 5.7676445098 8.7599171691 8.4953581688 
Si 2.0839705030 3.1087657170 4.5678642135 
Si 3.9064773866 7.5711414855 6.8632812507 
Si 8.5266321893 5.3669314465 1.7362951897 
Si 6.9142803188 5.6055212687 8.7326671438 
Si 6.3166156428 2.2066436487 2.5224151917 
Si 1.0617487246 10.2585404772 6.8162634827 
Si 4.2995267139 10.1458472663 7.0079956429 
Si 5.6307966545 5.7454111363 0.3576317660 
Si 2.7110839922 3.3174477558 9.0105683029 
Si 7.5304639114 6.4666668986 6.4313261881 
Si 1.1000876851 3.8863253898 0.9119077413 
Si 6.5855081763 10.0524841752 5.2089069166 
Si 0.1014349905 0.2033387710 9.2817983826 
Si 6.2536513265 10.0056371869 0.6485335247 
Si 7.9119749397 7.2853310945 0.6443504911 
Si 10.4980909348 3.7231027548 4.7939551013 
Si 10.6712721572 5.1451740920 2.7066330480 
Si 7.8684261330 7.6644512079 3.0729980574 
Si 3.0495478790 2.7335415140 1.3970307734 
Si 3.1925224537 0.8761454186 5.4232993994 
Si 1.1883060397 5.8266168521 6.3025796916 
Si 6.4507203503 3.2535975202 10.3370137189 
Si 10.5947842287 5.6709085210 9.8467694325 
Si 2.2026836960 8.1852543750 8.6742071404 
Si 9.4954863995 6.4925293394 4.3170316263 
Si 8.5542878162 1.2111051208 4.5181993613 
Si 1.9425863136 8.8216967016 5.3487647630 
Si 0.2140103634 7.6664258474 2.8581892993 
Si 8.4632195765 1.4437496770 9.8102012434 
Si 5.4605507070 3.7963245228 6.2496700263 
Si 10.2745724153 8.9753236560 5.4244948568 
Si 8.2081388459 9.7282697141 6.8715106943 
Si 6.1178494965 7.6804297774 5.4501865180 
Si 5.6830552225 5.3581896640 4.3634409918 
Si 10.6193231273 1.8381332201 10.6656364293 
Si 0.2551138191 10.1853507303 3.3631526553 
Si 6.7088324193 10.0228325613 2.9040756521 
Si 2.0563042023 7.0062024567 3.9397794152 
Si 5.2884368573 7.0296846564 2.7280552183 
Si 3.5892648905 5.2440768474 6.4038626882 
Si 8.5003427994 4.3676891352 7.2038905566 
Si 6.1283417702 2.3879262300 7.9555984624 
Si 7.7019586850 2.4483181781 6.2431056841 
Si 10.5547790995 9.2758637904 1.2998998566 
Si 4.0298870195 1.3441317818 9.0206229539 
Si 3.0538066961 6.6981053236 10.5556436714 
Si 3.5747379479 4.5751116742 0.0631029680 
Si 9.4651623407 8.8864755515 10.0891484278 
Si 0.2512670079 7.1890434022 7.8600045624 
Si 3.7886928079 8.7137426256 2.9981965778 
Si 0.4261282750 3.6771843807 8.3654162150 
Si 2.1206881243 9.8745211230 1.3926225241 
Si 8.3145345578 3.4653856136 3.2366476416 
Si 8.3538458948 7.6899293945 8.2773579663 
Si 8.8371629322 4.1014757073 10.4504327432 

