&CONTROL
   calculation      = 'scf'
   tstress          = .true.
   tprnfor          = .true.
   outdir           = './'
   disk_io          = 'none'
   pseudo_dir       = '/home/ppiaggi/pseudos'
/
&SYSTEM
   ecutwfc          = 30
   occupations      = 'smearing'
   degauss          = 0.01
   smearing         = 'fermi-dirac'
   input_dft        = 'PBE'
   ntyp             = 1
   nat              = 64
   ibrav            = 0
/
&ELECTRONS
   electron_maxstep = 100
   mixing_beta      = 0.5
/
&IONS
/
&CELL
/

ATOMIC_SPECIES
Si 28.085 Si_ONCV_PBE_sr.upf

K_POINTS gamma

CELL_PARAMETERS angstrom
10.82562023729370 0.00000000000000 0.00000000000000
0.00000000000000 10.82562023729370 0.00000000000000
0.00000000000000 0.00000000000000 10.82562023729370

ATOMIC_POSITIONS angstrom
Si 0.8459226258 2.9590209076 5.8107815698 
Si 3.2066786217 8.9222272103 5.0707746472 
Si 7.0651678379 3.4332155508 9.1659985268 
Si 6.1063318279 1.3682501418 0.1486974719 
Si 3.8352357839 2.3902428203 10.2449989215 
Si 2.8617635353 10.6744404507 2.7161372919 
Si 3.0078661061 0.9448157493 6.0173452296 
Si 7.3267906022 2.7113307165 1.9897165228 
Si 5.9695934187 10.2583252600 7.9371607224 
Si 10.2263680291 1.7722622890 3.9338138818 
Si 1.8669431636 5.3220914211 4.3329869768 
Si 9.7126382207 7.3876630648 10.8236391488 
Si 8.1472860112 7.2283099349 8.7046105923 
Si 9.1792815628 3.3962568833 5.2750649267 
Si 4.7236511343 7.6378864510 8.4453694645 
Si 4.0624547271 5.7712464047 5.4189482453 
Si 6.5159624721 6.7943757733 0.0127579934 
Si 0.0797541846 0.2131586276 0.7627667065 
Si 5.9712497386 3.9082654181 5.0320081012 
Si 10.4499170870 3.9797578141 1.1945855419 
Si 6.8755137970 10.6313220053 5.6073573399 
Si 9.7762928677 9.3311108867 8.2808741650 
Si 10.0638321668 2.5939918188 7.8472106439 
Si 5.9408297457 8.3368750985 1.8837878287 
Si 8.9480246633 10.6508081217 2.4474129208 
Si 9.0747818507 5.8806068203 2.0261122580 
Si 6.7752902049 10.7529370230 2.4498919878 
Si 0.8960582383 2.1731241808 2.1359490009 
Si 4.9549513363 0.1031412051 4.2351017187 
Si 9.8690792587 8.1832487217 6.0032177951 
Si 5.3495668452 4.4767620392 10.3761946131 
Si 1.5387320093 6.9764627057 1.5387428349 
Si 3.0075846399 8.3771355801 10.0756104416 
Si 0.8681129822 7.4500294630 8.3377303225 
Si 7.5497009485 8.4951997944 6.0384443634 
Si 1.4205054107 7.5016784972 4.5847692523 
Si 2.8740181375 9.0302127722 7.3637817466 
Si 1.3983778429 10.3465757162 8.7963468982 
Si 6.6458699149 6.2804727550 6.2458091190 
Si 0.6057400024 0.0156054563 5.2422741230 
Si 10.0733911895 1.2277768936 9.9400953275 
Si 6.6211875008 7.0975472681 3.7967723552 
Si 2.8600422617 3.5965633346 3.0749633003 
Si 8.6908728802 2.9375537026 0.1348601641 
Si 0.6305068564 9.0842867453 3.0185726445 
Si 8.6358787294 1.0028518994 5.5259595014 
Si 4.1723131213 2.0275520655 4.3510549370 
Si 4.9338955050 5.1209513970 2.7095661404 
Si 5.2289802614 3.3449975715 7.2559585690 
Si 9.3473926195 5.8958276424 6.3608313341 
Si 3.8056818407 5.2249964332 7.8189882519 
Si 7.5028368385 2.8924000406 6.8973815499 
Si 7.9285002262 9.1050178080 0.2207030023 
Si 4.4948733019 1.3098459206 8.0094542144 
Si 4.0645115950 6.7181309300 1.7379992010 
Si 2.1982720966 4.4662070595 9.5704870014 
Si 7.7049836452 0.0427526477 9.3565077918 
Si 3.3261718179 4.3246295980 0.8249815461 
Si 1.8077703234 9.5147567084 0.9237826517 
Si 0.5932537321 5.4234841802 7.1415534143 
Si 3.9906159112 0.0973151810 0.5911849560 
Si 7.6394345147 4.5673400037 3.4627261916 
Si 0.5211529362 5.7906242649 10.7974952759 
Si 7.9071412775 5.0884853620 7.7113491099 

