&CONTROL
   calculation      = 'scf'
   tstress          = .true.
   tprnfor          = .true.
   outdir           = './'
   disk_io          = 'none'
   pseudo_dir       = '/home/ppiaggi/pseudos'
/
&SYSTEM
   ecutwfc          = 30
   occupations      = 'smearing'
   degauss          = 0.01
   smearing         = 'fermi-dirac'
   input_dft        = 'PBE'
   ntyp             = 1
   nat              = 64
   ibrav            = 0
/
&ELECTRONS
   electron_maxstep = 100
   mixing_beta      = 0.5
/
&IONS
/
&CELL
/

ATOMIC_SPECIES
Si 28.085 Si_ONCV_PBE_sr.upf

K_POINTS gamma

CELL_PARAMETERS angstrom
10.69365121214084 0.00000000000000 0.00000000000000
0.00000000000000 10.69365121214084 0.00000000000000
0.00000000000000 0.00000000000000 10.69365121214084

ATOMIC_POSITIONS angstrom
Si 1.2894511568 2.0132509391 6.6561455668 
Si 2.2286852364 0.9563813493 3.1864300263 
Si 9.6946289286 0.8220765757 7.1562127785 
Si 4.1208519629 8.7667301193 0.3908732697 
Si 7.1822518192 10.6875451373 8.6478381051 
Si 4.5002840952 2.9234517557 3.7260423601 
Si 2.2268138475 10.2224354715 9.4725859548 
Si 4.6302547320 1.0063495734 1.1568605754 
Si 5.6805316858 8.8567492752 8.4743336142 
Si 2.1165088352 3.1253478906 4.5634621865 
Si 3.9011188177 7.5884929351 6.8849790091 
Si 8.5994814143 5.2857862450 1.7795839665 
Si 6.8735047214 5.6285177663 8.7063858455 
Si 6.5008951385 2.2333797493 2.4607695487 
Si 1.0685310164 10.3057604017 6.8671206116 
Si 4.2395087167 10.2507415662 7.0223603462 
Si 5.7067739059 5.8799575873 0.3330441427 
Si 2.7086590774 3.2725246122 8.9877678898 
Si 7.5239460564 6.4804061028 6.4131430367 
Si 1.1169946437 3.9396052685 0.7666406878 
Si 6.6069975459 10.0777824515 5.2601749503 
Si 0.0693305766 0.2395335097 9.2973597861 
Si 6.1437271881 10.0799104881 0.5905526107 
Si 7.8328963335 7.3542378116 0.5829954074 
Si 10.5199970101 3.6812573488 4.7503658224 
Si 10.6699433874 5.1011282758 2.7552085412 
Si 7.7375410457 7.7826468665 3.1186750522 
Si 3.1106762011 2.7084024298 1.4727296449 
Si 3.3018786848 0.8139964528 5.4184623755 
Si 1.1045793147 5.8456309669 6.2832151745 
Si 6.5798035908 3.1978615394 10.3982604847 
Si 10.6771509083 5.7199912588 9.9162976246 
Si 2.2513130024 8.1959244049 8.7978165633 
Si 9.6010060122 6.5224107648 4.4396297055 
Si 8.5230538891 1.2027256455 4.4356730545 
Si 1.9840358840 8.8799010300 5.3793984677 
Si 0.1471275308 7.6571354822 2.9612645064 
Si 8.4993674517 1.4094553107 9.8292619974 
Si 5.3761796786 3.8590713812 6.2207642514 
Si 10.3402795078 8.9960554695 5.4111906927 
Si 8.1880217966 9.7502893832 6.9989947183 
Si 5.9872576835 7.7401396029 5.5133471427 
Si 5.6105417386 5.3614331336 4.3710085457 
Si 10.5597453117 1.8986363854 0.0855144553 
Si 0.3786279697 10.1769660665 3.4686140945 
Si 6.7644294790 10.0789694468 2.9430425247 
Si 2.1353082740 6.9858736083 3.8701820848 
Si 5.2979877010 6.9193377105 2.6703864997 
Si 3.5349040383 5.1982159352 6.4205965116 
Si 8.6597294452 4.3865036463 7.1901330401 
Si 6.1252485588 2.5466823425 8.1151873382 
Si 7.7766798091 2.4662126171 6.2679874151 
Si 10.5238360309 9.2999262624 1.2517667299 
Si 4.0951978936 1.3192543627 9.0051664603 
Si 3.0869362954 6.7795182209 10.6768621797 
Si 3.4959256797 4.5139505814 0.1145450450 
Si 9.3871009070 8.8890654891 10.0341095800 
Si 0.2233304894 7.0935265951 7.8541766994 
Si 3.8631456623 8.6179921246 2.9176985713 
Si 0.3988603578 3.8212479368 8.2694325633 
Si 2.1695600389 9.9749416078 1.3912761037 
Si 8.3441384107 3.3826692197 3.3016006498 
Si 8.4473535322 7.6610707458 8.2787895081 
Si 8.7785252166 4.0586897684 10.4058850580 

