&CONTROL
   calculation      = 'scf'
   tstress          = .true.
   tprnfor          = .true.
   outdir           = './'
   disk_io          = 'none'
   pseudo_dir       = '/home/ppiaggi/pseudos'
/
&SYSTEM
   ecutwfc          = 30
   occupations      = 'smearing'
   degauss          = 0.01
   smearing         = 'fermi-dirac'
   input_dft        = 'PBE'
   ntyp             = 1
   nat              = 64
   ibrav            = 0
/
&ELECTRONS
   electron_maxstep = 100
   mixing_beta      = 0.5
/
&IONS
/
&CELL
/

ATOMIC_SPECIES
Si 28.085 Si_ONCV_PBE_sr.upf

K_POINTS gamma

CELL_PARAMETERS angstrom
10.87890326468816 0.00000000000000 0.00000000000000
0.00000000000000 10.87890326468816 0.00000000000000
0.00000000000000 0.00000000000000 10.87890326468816

ATOMIC_POSITIONS angstrom
Si 0.9733061021 1.9774582464 6.5241870769 
Si 2.4064460389 0.6280292945 2.8609992540 
Si 9.5583240763 1.3166736621 6.8957342601 
Si 4.3328495923 8.8611930762 0.1417031545 
Si 6.4602952780 1.1140867255 8.8775440678 
Si 5.4536377222 2.7517424285 4.0729199566 
Si 2.6573897005 0.2228663002 9.7481718172 
Si 5.1055019388 1.8047991727 0.9466832500 
Si 4.6722496163 8.9625083023 8.5276350232 
Si 2.5588377158 3.5453366638 4.6589012020 
Si 3.7077478107 7.4618506282 7.1286298212 
Si 8.5541142737 5.0919359465 1.2394008122 
Si 7.3456421835 5.8775668246 8.6088895517 
Si 7.1468737419 1.7610224660 3.1451453283 
Si 1.3407160383 0.0632695256 7.5965640873 
Si 3.9322992530 0.0051882795 7.0040663788 
Si 5.4922795866 6.5889818247 10.2342847306 
Si 2.3895837388 2.9456044847 8.1259206412 
Si 6.8997703332 5.8354545901 5.9672525031 
Si 1.1631832160 3.7299842889 0.9832102556 
Si 6.4657129718 10.1022039661 5.6462922201 
Si 10.2329575044 10.8020329342 9.1799775786 
Si 6.7659380652 9.9403150066 0.0994602643 
Si 7.4634171902 7.6032002183 1.0193227750 
Si 0.2559011778 2.9206047650 4.6583246201 
Si 0.7449829440 5.5442372286 2.2983967716 
Si 6.1459276104 8.4965648755 3.0806443109 
Si 3.7247297787 3.2533577791 2.6139719975 
Si 4.2880285108 0.7009560225 4.5194336622 
Si 0.7078684776 5.5221748128 4.8595843305 
Si 6.9428072745 2.9741833635 10.6994013608 
Si 0.1255849714 5.9284909708 0.1090599173 
Si 2.1804259446 6.9952979827 9.3472624741 
Si 9.8382164995 7.0420446301 6.0515096089 
Si 8.3157248665 1.0139823214 5.2126808938 
Si 3.4354162252 9.1371690942 4.8319845529 
Si 10.6613143205 7.7167868473 3.4264737668 
Si 8.8849417220 1.7377851286 10.4014499582 
Si 5.4611659233 3.2238106778 6.3425529080 
Si 10.3550187991 9.6121093740 5.6739137555 
Si 8.4569765465 10.0636817696 7.1522696779 
Si 5.4447170215 7.8203648852 5.0489533997 
Si 4.8041454395 5.4883740603 5.0298609244 
Si 9.8206035551 2.7544295176 1.4000604556 
Si 0.8348154877 9.8959399602 3.7521119782 
Si 7.4604254918 10.5380345887 2.5181288598 
Si 2.4010501028 6.7197353630 3.6699653796 
Si 6.5214129565 5.5049535089 2.0459083058 
Si 3.2237562833 5.2069477118 6.4148976147 
Si 9.4090111290 4.3500708961 7.1195241791 
Si 5.7774591568 4.0533488096 8.8952440434 
Si 7.5889270972 2.5460658834 7.3972843373 
Si 0.2159853939 9.1400302458 1.6516242147 
Si 4.0559379886 2.1075264139 9.5847162956 
Si 3.4585774103 6.3894518599 0.6152911866 
Si 3.6640581352 3.7001978518 0.1782889062 
Si 9.2546394917 9.0545547028 10.7808299518 
Si 10.5527537448 7.0329498669 8.2167812413 
Si 3.7616310185 8.0359738690 2.4273444120 
Si 1.0145937157 5.2319583104 7.8221055098 
Si 2.4806510380 9.9537069365 0.9893785937 
Si 9.2307059045 3.6093046150 3.3691963411 
Si 8.4337718458 7.8976812507 8.3427698200 
Si 8.9344624897 4.3303365656 9.6586058066 

