&CONTROL
   calculation      = 'scf'
   tstress          = .true.
   tprnfor          = .true.
   outdir           = './'
   disk_io          = 'none'
   pseudo_dir       = '/home/ppiaggi/pseudos'
/
&SYSTEM
   ecutwfc          = 30
   occupations      = 'smearing'
   degauss          = 0.01
   smearing         = 'fermi-dirac'
   input_dft        = 'PBE'
   ntyp             = 1
   nat              = 64
   ibrav            = 0
/
&ELECTRONS
   electron_maxstep = 100
   mixing_beta      = 0.5
/
&IONS
/
&CELL
/

ATOMIC_SPECIES
Si 28.085 Si_ONCV_PBE_sr.upf

K_POINTS gamma

CELL_PARAMETERS angstrom
10.94459161367652 0.00000000000000 0.00000000000000
0.00000000000000 10.94459161367652 0.00000000000000
0.00000000000000 0.00000000000000 10.94459161367652

ATOMIC_POSITIONS angstrom
Si 0.1409718123 1.7848549449 6.5940288905 
Si 3.6867075743 10.4048043553 3.2917500967 
Si 9.3128952838 3.4941484294 10.0263513219 
Si 4.5716106400 10.7333609955 0.6006172986 
Si 5.4498703386 1.7214967041 10.1375812065 
Si 5.0072272754 2.4929371886 4.6536950771 
Si 2.0937332095 0.2852149630 7.1719033277 
Si 8.0069537786 2.0219804669 2.5666709023 
Si 4.6628009773 9.6297412110 9.2728818568 
Si 1.3868548709 2.8847097900 4.5820080020 
Si 3.5615014462 8.1680034442 5.1517943860 
Si 8.1125800323 6.5896401093 10.6939057428 
Si 7.2622728207 7.4464593529 8.4545328527 
Si 9.2212671628 2.4524312550 4.3568558633 
Si 2.5491814449 9.1011393252 8.6400765143 
Si 3.8632110032 10.3291006151 5.9052857403 
Si 6.1141194928 7.8288852731 10.5380219244 
Si 0.8500708085 2.4996024449 8.6003914251 
Si 5.5669993581 4.9299803478 4.3466445594 
Si 0.4153691409 3.2386359936 1.7390627736 
Si 5.7281146912 9.6545635448 7.0713334754 
Si 10.4588268595 10.1375045943 8.6557929479 
Si 9.1702106429 1.1619544578 8.2752057191 
Si 6.7341962753 6.9272479268 1.8258424405 
Si 10.8169120079 0.8339789754 3.8122310955 
Si 0.3528415946 5.5266247596 3.0688963222 
Si 6.4796469636 0.3759762723 1.6831906335 
Si 2.4650065908 2.7582231447 1.1338049682 
Si 5.8098707906 0.2598311717 4.5336657409 
Si 9.8234167042 7.9897379360 5.1655845715 
Si 6.8285933780 3.4735069296 9.8222346883 
Si 0.4654494032 7.4566378231 1.0623236515 
Si 3.5622456784 7.1913628116 10.0130755323 
Si 0.3009029406 5.4646783711 7.8481039760 
Si 7.3879823999 9.1002637579 4.7464833248 
Si 1.1785902371 7.4552259708 4.6027917815 
Si 0.7106476559 7.7768218508 7.3880042891 
Si 0.0780868156 0.7216688597 10.2137555641 
Si 6.1382194836 5.8370681007 6.8929694658 
Si 0.0754997330 10.5418744207 6.4265656942 
Si 7.0587034166 0.6066061791 7.4781220565 
Si 5.4923462987 7.2825093706 5.0253186853 
Si 4.2387746644 3.5091972429 2.4333876656 
Si 9.6400510163 2.0238957704 0.8567743708 
Si 0.6907481994 9.6759273876 4.2470487757 
Si 8.0865537935 0.3960508423 4.3480783009 
Si 2.4017577958 5.5686082130 4.8598255155 
Si 6.7465855530 3.9770566452 1.4177405085 
Si 4.2257615450 3.3228546261 6.5117912291 
Si 10.0537346901 4.3931809629 5.4342852402 
Si 4.2617801960 5.2689124609 8.2773289699 
Si 8.1178115471 2.2831403119 6.6096249336 
Si 9.5829093035 9.7831953300 1.0504115580 
Si 4.8587638902 1.3270755115 7.7052661108 
Si 4.7078270272 5.5417064069 0.7090475566 
Si 3.7594672193 3.8001811001 10.2710723904 
Si 7.5180479267 9.9720880367 10.6104970101 
Si 1.3963328873 6.0085041838 10.0421990905 
Si 2.6397041621 8.6558257816 1.7960403176 
Si 2.2258234857 4.2745525344 8.5001280214 
Si 2.2620829177 0.3017117459 1.0450924864 
Si 7.6697180773 4.3923163402 3.8997112162 
Si 10.4018055372 7.5775755605 9.4243768939 
Si 7.6851390068 4.7358670709 8.1928914456 

