&CONTROL
   calculation      = 'scf'
   tstress          = '.true.'
   tprnfor          = '.true.'
   outdir           = './'
   disk_io          = 'none'
   pseudo_dir       = './'
/
&SYSTEM
   ecutwfc          = 30
   input_dft        = 'PBE'
   ntyp             = 1
   nat              = 64
   ibrav            = 0
/
&ELECTRONS
   electron_maxstep = 1000
   mixing_beta      = 0.5
/
&IONS
/
&CELL
/

ATOMIC_SPECIES
Si 28.085 Si_ONCV_PBE-1.0.upf

K_POINTS gamma

CELL_PARAMETERS angstrom
10.80475266915175 0.00000000000000 0.00000000000000
0.00000000000000 10.90419561538157 0.00000000000000
0.00000000000000 0.00000000000000 11.00630460681406

ATOMIC_POSITIONS angstrom
Si 3.9797920163 4.0755318596 1.3492572721 
Si 0.0029073060 2.6848435531 2.7394949609 
Si 3.9542135015 1.3973770303 4.2234159296 
Si 0.0461332632 0.0044512850 0.0294423572 
Si 1.3135376464 4.0351219095 4.2216002756 
Si 2.6501894457 2.7040108045 -0.0076748193 
Si 1.3209231071 1.3718714697 1.3483012529 
Si 2.6443841643 -0.0096701840 2.7717011312 
Si 3.9781050460 4.0935790844 6.9760680865 
Si 0.0378916589 2.7639176722 8.3825497908 
Si 4.0077458327 1.3377805175 9.7707881283 
Si -0.0287061976 0.0359435096 5.6105205274 
Si 1.3087961684 4.1288835300 9.8022564547 
Si 2.6070705260 2.7006120311 5.6070058709 
Si 1.2780735414 1.4041893753 6.9501519915 
Si 2.6449985803 -0.0176617590 8.3775713922 
Si 4.0222313882 9.5336950363 1.4136309358 
Si -0.0102411386 8.1504897756 2.8355811621 
Si 3.9495238294 6.7897495118 4.2270582599 
Si 0.0088473650 5.4162179192 0.0043137649 
Si 1.3666331482 9.4854427139 4.1440252747 
Si 2.6514801735 8.1877353801 0.0180748895 
Si 1.3579382833 6.8193362666 1.3746541093 
Si 2.6918823803 5.4542880761 2.7836726252 
Si 4.0001112534 9.5553409900 6.9748268185 
Si 0.0473031935 8.1431759171 8.3276538242 
Si 4.0052161730 6.8403368968 9.8032215254 
Si -0.0279669343 5.4377175358 5.5645119423 
Si 1.3600944689 9.5181395704 9.7456293462 
Si 2.6669585561 8.1391592272 5.5926241136 
Si 1.2801021956 6.7695890999 6.9861465483 
Si 2.6777561277 5.4446035111 8.3224448062 
Si 9.2720078881 4.0941723344 1.4407717453 
Si 5.2839019774 2.6961413812 2.7896638987 
Si 9.2663810877 1.3867049418 4.1305811070 
Si 5.3192282068 -0.0101880568 -0.0488001191 
Si 6.6380474319 4.0976227643 4.1817358493 
Si 7.9474885848 2.7542932094 -0.0239970631 
Si 6.6453714951 1.3583780098 1.3622757106 
Si 8.0010467618 -0.0193501555 2.7878449764 
Si 9.3004837414 4.0437063508 7.0018485213 
Si 5.3259097371 2.7009391841 8.3389345675 
Si 9.2821458401 1.3142868063 9.7965798185 
Si 5.3024940188 0.0495794270 5.6002651876 
Si 6.6085038889 4.1133504114 9.7955563717 
Si 7.9242415773 2.7262458091 5.5957990433 
Si 6.6462467720 1.3745781042 6.9408621638 
Si 7.9623290195 0.0091872476 8.3617158441 
Si 9.2863705389 9.5263055801 1.3463376958 
Si 5.2665603587 8.1955316637 2.7534039226 
Si 9.2620641553 6.7940956974 4.2004532579 
Si 5.2772643457 5.4730917425 -0.0421176785 
Si 6.6523058267 9.5712657350 4.1742298056 
Si 7.9667117780 8.1367890420 -0.0350446240 
Si 6.6402421821 6.7708271325 1.4422495412 
Si 7.9423349005 5.3998768870 2.7519666348 
Si 9.3201100780 9.5727153863 6.9268651331 
Si 5.3022807929 8.1285874192 8.3518820583 
Si 9.2658090190 6.8248788056 9.7878863372 
Si 5.3331597681 5.4514665923 5.5805758505 
Si 6.6707169795 9.5300525247 9.7233579828 
Si 7.9559631684 8.2026564770 5.5818999607 
Si 6.6396852946 6.8360338167 6.9354866945 
Si 7.9225556996 5.4504202185 8.3348627305 

