&CONTROL
   calculation      = 'scf'
   tstress          = .true.
   tprnfor          = .true.
   outdir           = './'
   disk_io          = 'none'
   pseudo_dir       = '/home/ppiaggi/pseudos'
/
&SYSTEM
   ecutwfc          = 30
   occupations      = 'smearing'
   degauss          = 0.01
   smearing         = 'fermi-dirac'
   input_dft        = 'PBE'
   ntyp             = 1
   nat              = 64
   ibrav            = 0
/
&ELECTRONS
   electron_maxstep = 1000
   mixing_beta      = 0.5
/
&IONS
/
&CELL
/

ATOMIC_SPECIES
Si 28.085 Si_ONCV_PBE_sr.upf

K_POINTS gamma

CELL_PARAMETERS angstrom
10.57911111474741 0.00000000000000 0.00000000000000
0.00000000000000 10.85936932426882 0.00000000000000
0.00000000000000 0.00000000000000 10.90660702864631

ATOMIC_POSITIONS angstrom
Si -0.1122077644 0.0048872159 -0.1959635981 
Si -0.1324161388 2.5786385802 2.7510786181 
Si 2.6372560620 -0.0951015881 2.7249506618 
Si 2.6564952934 2.7030354759 -0.1317396080 
Si 1.4761091231 1.2672968812 1.5576744818 
Si 5.4217835678 0.0999539570 -0.1494728246 
Si 5.3391344199 2.8577266777 2.5618026277 
Si 6.7336002090 1.2461976943 1.3103638522 
Si 7.9557831250 -0.1566147117 2.8954506841 
Si 7.7211676261 2.8525517923 0.0186676188 
Si 0.0007956544 5.3134820633 0.0803164928 
Si 2.7777301157 5.3361589198 2.6754118409 
Si 1.2449479554 6.9001865367 1.5033054672 
Si 3.8671799653 3.8475867063 1.5391594520 
Si 5.4387961462 5.2136321861 0.0600249730 
Si 6.4063611610 6.8868697794 1.5236687026 
Si 9.1620463608 3.9893312723 1.3513462540 
Si 7.8943803964 5.5366201698 2.9492499147 
Si 0.0163021869 8.1725470871 2.7336391765 
Si 2.7309864289 7.8972064845 0.1777044637 
Si 3.8354152607 9.2783115205 1.5007503702 
Si 5.0814465482 8.0282323397 2.8380506283 
Si 7.9599193835 7.9934468758 0.0506217129 
Si 9.2072849747 9.5733347219 1.4098578360 
Si 0.0583932186 -0.0320593946 5.6265641741 
Si 2.5788790893 2.8593161521 5.3606523772 
Si 1.1373079481 1.3091541697 6.7500675212 
Si 3.8574260026 1.4588113144 4.0732242619 
Si 5.1759290724 0.1736507223 5.4116796928 
Si 6.5111762210 1.3012712860 6.9207460130 
Si 9.0273912851 1.2127574007 4.1029948886 
Si 7.8279391641 2.7928676516 5.5334983263 
Si 1.2375839520 4.2013524947 4.0916352994 
Si 0.1011489518 5.5303644133 5.5213807641 
Si 1.3127817928 6.7568517352 6.9803992365 
Si 6.6539184931 4.1992695401 4.2974968076 
Si 3.7856425369 6.6117958568 4.1336797922 
Si 3.7851094702 4.1437656406 6.9599653077 
Si 5.2326759451 5.5373036080 5.6363666935 
Si 6.6539291841 6.7776243293 6.8987139899 
Si 9.1723466102 6.8952531162 4.2640172604 
Si 9.1904816513 3.9463422310 7.0756822708 
Si 1.3377121226 9.2749588665 4.2027603005 
Si 2.7921005065 8.1256495596 5.4402339052 
Si 6.4472400158 9.3429283347 4.2449788674 
Si 4.0561962840 9.5811570023 6.8888558389 
Si 7.8153606783 8.0429724510 5.5404864223 
Si 9.1842705121 9.5580997667 6.8026284694 
Si -0.0005479814 2.7567996848 8.2309116581 
Si 2.4863788149 -0.1315706117 8.2105157560 
Si 3.7880902820 1.3000469702 9.6303997998 
Si 5.3007510777 2.7034532375 8.0994562302 
Si 7.7381544380 0.1430603441 8.4085589787 
Si 9.0325308328 1.5055504148 9.6646122482 
Si 1.3597425152 3.9371353650 9.5572599265 
Si 2.7333739795 5.3653423188 8.3159147879 
Si 6.7679659945 4.1341270883 9.8488453508 
Si 3.9634424533 6.5732040074 9.7121060600 
Si 7.9167215858 5.3057556687 8.3617408738 
Si 9.2731439025 6.6016690422 9.7618493658 
Si 0.1853816720 8.1376543555 8.1102810863 
Si 1.3228058714 9.2380544738 9.7879859947 
Si 5.3768332624 7.9469488792 8.4060034090 
Si 6.6849091244 9.3245295670 9.7488631804 

