&CONTROL
   calculation      = 'scf'
   tstress          = '.true.'
   tprnfor          = '.true.'
   outdir           = './'
   disk_io          = 'none'
   pseudo_dir       = './'
/
&SYSTEM
   ecutwfc          = 30
   input_dft        = 'PBE'
   ntyp             = 1
   nat              = 64
   ibrav            = 0
/
&ELECTRONS
   electron_maxstep = 1000
   mixing_beta      = 0.5
/
&IONS
/
&CELL
/

ATOMIC_SPECIES
Si 28.085 Si_ONCV_PBE-1.0.upf

K_POINTS gamma

CELL_PARAMETERS angstrom
11.02336265560161 0.00000000000000 0.00000000000000
0.00000000000000 10.76501806775648 0.00000000000000
0.00000000000000 0.00000000000000 10.91110916509955

ATOMIC_POSITIONS angstrom
Si 4.1544176265 4.0052219051 1.3189242689 
Si 0.0161931872 2.6968863006 2.7543865620 
Si 4.1257249837 1.3181919690 4.0116647329 
Si -0.0325955957 -0.0199529090 -0.0373115701 
Si 1.3766037950 4.0256931294 4.0995238528 
Si 2.7411275285 2.6982223262 -0.0146792588 
Si 1.3620562732 1.3741785913 1.3366973437 
Si 2.7902455711 -0.0090917122 2.7439060607 
Si 4.1812109138 3.9947165085 6.7259660759 
Si 0.0254031847 2.6251662762 8.1122134628 
Si 4.1749674314 1.3735067833 9.5165931221 
Si -0.0234909542 0.0361514020 5.3695876716 
Si 1.3972041428 3.9618421456 9.4782530119 
Si 2.7461450198 2.6954327585 5.4289181358 
Si 1.3644813511 1.3209532021 6.7575520077 
Si 2.7598535093 -0.0471821294 8.1103098694 
Si 4.1138131807 9.3118238625 1.3690723109 
Si 0.0282606233 7.9800766464 2.7107115100 
Si 4.1229296033 6.7049926809 4.0090798912 
Si 0.0244126213 5.3691983370 -0.0155487621 
Si 1.3735248845 9.3182258219 4.0447498242 
Si 2.7631780625 7.9490536220 0.0291885621 
Si 1.3924868377 6.6636165098 1.3756211874 
Si 2.8095493552 5.3474727867 2.6695068888 
Si 4.1399688301 9.3662937089 6.7655071493 
Si 0.0057258561 8.0405565114 8.1285404621 
Si 4.1989893838 6.7070550323 9.5190242106 
Si 0.0505462060 5.3698471887 5.3810132880 
Si 1.3831917470 9.3684800476 9.4653078956 
Si 2.8029018242 8.0408807138 5.4279411723 
Si 1.3855545896 6.6662668627 6.7403257644 
Si 2.7495554091 5.3429682087 8.1073110929 
Si 9.6925414949 4.0196401024 1.3787514392 
Si 5.5095182929 2.6650793179 2.7107257617 
Si 9.6770346352 1.3100319337 4.0384914021 
Si 5.5062080389 -0.0272537815 0.0115280910 
Si 6.9059333754 3.9537245422 4.0548631297 
Si 8.3095232758 2.6978112732 -0.0116479363 
Si 6.9388956425 1.3368037492 1.3343964829 
Si 8.2908954128 0.0351991602 2.7107150129 
Si 9.6934729562 3.9970742835 6.7350057621 
Si 5.5808674997 2.6453867174 8.1544900730 
Si 9.7381742737 1.3738468412 9.4752047100 
Si 5.5217934401 -0.0383416963 5.3844468020 
Si 6.8928131625 3.9877373277 9.4209247521 
Si 8.3646824178 2.6449864295 5.4304528872 
Si 6.8911509751 1.3495735064 6.7333352436 
Si 8.3018365993 0.0313601122 8.1519895995 
Si 9.7457448983 9.2999196248 1.3566189449 
Si 5.5562758535 8.0398071979 2.6994847876 
Si 9.6770070747 6.6506238721 4.0315492938 
Si 5.5484013836 5.2920374766 -0.0113442678 
Si 6.8878028225 9.3737433024 4.0939467192 
Si 8.2741260076 7.9662099578 -0.0305867638 
Si 6.8923118529 6.7047328371 1.3613464340 
Si 8.2759523359 5.3049382339 2.6673771365 
Si 9.7073438305 9.3089856848 6.8120434068 
Si 5.5617311787 8.0349970816 8.1581126696 
Si 9.7051015673 6.6150830370 9.4391235320 
Si 5.5700998539 5.2953370029 5.3780978352 
Si 6.9020490358 9.3412223677 9.4227578190 
Si 8.3288376959 8.0119105959 5.3716948777 
Si 6.9775046853 6.6257694430 6.7273698050 
Si 8.3021918261 5.3195864375 8.1100370360 

