&CONTROL
   calculation      = 'scf'
   tstress          = '.true.'
   tprnfor          = '.true.'
   outdir           = './'
   disk_io          = 'none'
   pseudo_dir       = './'
/
&SYSTEM
   ecutwfc          = 30
   input_dft        = 'PBE'
   ntyp             = 1
   nat              = 64
   ibrav            = 0
/
&ELECTRONS
   electron_maxstep = 1000
   mixing_beta      = 0.5
/
&IONS
/
&CELL
/

ATOMIC_SPECIES
Si 28.085 Si_ONCV_PBE-1.0.upf

K_POINTS gamma

CELL_PARAMETERS angstrom
11.06114442477385 0.00000000000000 0.00000000000000
0.00000000000000 10.98385247403474 0.00000000000000
0.00000000000000 0.00000000000000 10.91030043281296

ATOMIC_POSITIONS angstrom
Si 4.1495815411 4.1100631661 1.3334770621 
Si 0.0330370514 2.7909662002 2.7533281061 
Si 4.0558642290 1.3910588856 4.1489410454 
Si -0.0381947910 -0.0407197640 0.0124052763 
Si 1.3856711522 4.1699466142 4.1771559553 
Si 2.7332294142 2.7210111187 0.0079172816 
Si 1.3659676199 1.3853158469 1.4106784184 
Si 2.6935926937 0.0154927184 2.7766722095 
Si 4.0655543198 4.1589750120 6.9097236981 
Si 0.0068881546 2.7795111081 8.2411760840 
Si 4.1326352716 1.3856637015 9.6220961476 
Si -0.0371706076 0.0266176444 5.4614153286 
Si 1.3806804644 4.1517502350 9.6779104936 
Si 2.7005456451 2.8108846193 5.5346661952 
Si 1.3189100814 1.4096779296 6.9153798058 
Si 2.7587421520 -0.0085531016 8.2560820568 
Si 4.0891256211 9.6377969054 1.3342267780 
Si 0.0159233373 8.2982425931 2.8000702366 
Si 4.1182032284 6.9122920688 4.1562717274 
Si 0.0171476793 5.5448321084 0.0351264177 
Si 1.4045323025 9.6326795369 4.1727523167 
Si 2.6998287410 8.3323225948 0.0285711824 
Si 1.3210927653 6.9482876068 1.4049027745 
Si 2.7832590532 5.4801039901 2.7529433520 
Si 4.0817605178 9.6584567262 6.8686349710 
Si 0.0204849991 8.2612275131 8.2513250895 
Si 4.0656555785 6.9329996209 9.6186906470 
Si 0.0456602307 5.5083827286 5.4888553634 
Si 1.3572985272 9.6639750838 9.6341164122 
Si 2.7273886263 8.2734345118 5.5231373992 
Si 1.3585957030 6.8636581434 6.8589259815 
Si 2.7784133255 5.5746492130 8.2540420082 
Si 9.5621598571 4.1377043011 1.3459527227 
Si 5.5197573447 2.7685640924 2.7848855855 
Si 9.6256603920 1.3480252144 4.0928394294 
Si 5.5080505411 -0.0329573048 -0.0368392499 
Si 6.8203035265 4.1053875978 4.1727826592 
Si 8.1844678459 2.7791575264 -0.0317726974 
Si 6.8568470591 1.3727927622 1.3798569535 
Si 8.2080045565 -0.0000171967 2.7497000195 
Si 9.5925846588 4.1153624722 6.8528432264 
Si 5.4593501015 2.7993346602 8.2296561579 
Si 9.5420950988 1.4149190720 9.6753627800 
Si 5.5057974742 -0.0112260934 5.5243588105 
Si 6.8201234255 4.1671637239 9.6674287806 
Si 8.2157115430 2.7586118184 5.5446735938 
Si 6.8113146053 1.4113882415 6.8857193511 
Si 8.1748095765 0.0116199581 8.2853199531 
Si 9.5964672860 9.6710161840 1.3351970509 
Si 5.4967400146 8.3300059167 2.7086618614 
Si 9.6066531068 6.8705814809 4.1625850011 
Si 5.4676899993 5.5461287677 -0.0417729384 
Si 6.8326136346 9.7070101798 4.0935910907 
Si 8.2053088877 8.3319590357 0.0474257527 
Si 6.7998457865 6.9031713673 1.3362934297 
Si 8.1646826788 5.5152426603 2.7730875442 
Si 9.6133064124 9.6702606693 6.9032065381 
Si 5.5209108805 8.3250621384 8.2439250910 
Si 9.5869115436 6.9021963566 9.5911952342 
Si 5.4856350034 5.5755908470 5.4829605086 
Si 6.8006808204 9.6859842747 9.6641277373 
Si 8.1594975653 8.2537071925 5.5378235205 
Si 6.8127718007 6.9102341213 6.9221557757 
Si 8.2429955385 5.5266447269 8.2481081223 

