&CONTROL
   calculation      = 'scf'
   tstress          = .true.
   tprnfor          = .true.
   outdir           = './'
   disk_io          = 'none'
   pseudo_dir       = '/home/ppiaggi/pseudos'
/
&SYSTEM
   ecutwfc          = 30
   occupations      = 'smearing'
   degauss          = 0.01
   smearing         = 'fermi-dirac'
   input_dft        = 'PBE'
   ntyp             = 1
   nat              = 64
   ibrav            = 0
/
&ELECTRONS
   electron_maxstep = 1000
   mixing_beta      = 0.5
/
&IONS
/
&CELL
/

ATOMIC_SPECIES
Si 28.085 Si_ONCV_PBE_sr.upf

K_POINTS gamma

CELL_PARAMETERS angstrom
11.15684191266289 0.00000000000000 0.00000000000000
0.00000000000000 11.46455404924441 0.00000000000000
0.00000000000000 0.00000000000000 11.26853724997763

ATOMIC_POSITIONS angstrom
Si 0.1114038342 -0.0177373235 0.0294448192 
Si 0.1831073457 3.0777536666 2.6703849130 
Si 2.5090714064 0.2112252638 2.8284129595 
Si 2.5182261622 2.7423672139 -0.1900414315 
Si 1.4181264122 1.5162166201 1.2590423259 
Si 5.3104728736 -0.1713552032 0.0738242294 
Si 5.4164949900 3.0395308569 2.5937442829 
Si 6.4933986543 1.6222838328 1.3985247838 
Si 7.8691100657 -0.2065291553 2.8905157477 
Si 8.0473437366 3.0219177034 0.0211771632 
Si 0.1259111358 5.8413984292 0.1900581784 
Si 2.6924505997 5.8213240010 2.8648006260 
Si 1.4245326160 7.0576335059 1.2868383074 
Si 4.1220148896 4.4983196971 1.4036157693 
Si 5.3130709679 5.8017661153 -0.0213551512 
Si 6.7877747465 7.4407584253 1.3469150281 
Si 9.4986475603 4.4373218196 1.2343189875 
Si 8.1518272313 5.9774582647 2.6842388451 
Si -0.1164558818 8.6319500937 2.7934054391 
Si 2.8346118294 8.6469356581 0.1143444845 
Si 4.1516711560 10.2408779101 1.2218225282 
Si 5.2132616189 8.8752821594 2.7347731206 
Si 7.9858526561 8.5508647128 -0.0731190225 
Si 9.2634123351 10.0292156080 1.1583824975 
Si 0.0367437872 -0.1476673806 5.2353160073 
Si 2.7609555352 2.8874946787 5.5522265209 
Si 1.4733056783 1.4575386926 6.6144214739 
Si 4.1462815543 1.5944342553 4.0374712635 
Si 5.2789693124 0.1218604324 5.4470639293 
Si 6.8400157390 1.6118337246 6.7037684042 
Si 9.3941817626 1.4387939130 4.2154386145 
Si 8.1032530649 2.8681780222 5.5699056415 
Si 1.3492600296 4.2543208306 3.9525586370 
Si 0.1436630795 5.9703878228 5.3632285730 
Si 1.1646249051 7.3582706045 6.7110715035 
Si 6.7056905571 4.4140858807 4.1202720681 
Si 3.9811810632 7.2470084579 3.9710158660 
Si 3.8824832474 4.1966076783 6.8848832800 
Si 5.1980713936 5.8069065008 5.3638450842 
Si 6.7257277081 7.1851427504 6.8040488072 
Si 9.4565838171 7.2613487078 3.9848398497 
Si 9.1280634110 4.4326748728 6.6233761055 
Si 1.4920828451 10.3465171786 4.0829937437 
Si 2.5472626021 8.7699708553 5.3386603954 
Si 6.6253519341 10.2547661101 4.0620846726 
Si 4.1849809999 10.0260429964 6.7666750546 
Si 8.0272838163 8.7944273897 5.4578619166 
Si 9.4582694435 10.2736442027 6.5921237569 
Si 0.0559569562 2.8532238733 8.1694597870 
Si 2.7025807584 -0.0359008486 8.0782632316 
Si 3.9386230300 1.3679740487 9.5423082677 
Si 5.2817820612 3.0265140729 8.1980478742 
Si 8.1519948073 0.0014719055 8.2712305675 
Si 9.4461694254 1.4187324493 9.4221461393 
Si 1.3575835427 4.4858428443 9.4909852246 
Si 2.5499343653 5.6178290659 8.2007070254 
Si 6.5312511642 4.2887844832 9.4554151764 
Si 3.8188673809 7.2688417657 9.5575170793 
Si 7.9451729168 5.6308933924 8.2840210235 
Si 9.2653510524 7.3299861678 9.5424170351 
Si 0.1510143282 8.7225584518 8.2093649509 
Si 1.5117299725 9.9550802793 9.2435520895 
Si 5.3852109972 8.7721843229 8.1028801727 
Si 6.4759126089 9.9704340343 9.4596105479 

