&CONTROL
   calculation      = 'scf'
   tstress          = .true.
   tprnfor          = .true.
   outdir           = './'
   disk_io          = 'none'
   pseudo_dir       = '/home/ppiaggi/pseudos'
/
&SYSTEM
   ecutwfc          = 30
   occupations      = 'smearing'
   degauss          = 0.01
   smearing         = 'fermi-dirac'
   input_dft        = 'PBE'
   ntyp             = 1
   nat              = 64
   ibrav            = 0
/
&ELECTRONS
   electron_maxstep = 1000
   mixing_beta      = 0.5
/
&IONS
/
&CELL
/

ATOMIC_SPECIES
Si 28.085 Si_ONCV_PBE_sr.upf

K_POINTS gamma

CELL_PARAMETERS angstrom
11.40410996758749 0.00000000000000 0.00000000000000
0.00000000000000 10.52833149362714 0.00000000000000
0.00000000000000 0.00000000000000 11.29859443861334

ATOMIC_POSITIONS angstrom
Si 0.0038492300 0.1639134114 -0.1491688765 
Si -0.1483043921 2.6978968766 2.8975412354 
Si 2.5510734064 -0.0443671423 2.9530320368 
Si 2.8023988424 2.6927479122 -0.1085994553 
Si 1.5099019879 1.3392293635 1.2729652050 
Si 5.3504259880 0.1122420349 0.0918408211 
Si 5.6599461827 2.7654079929 2.8545690103 
Si 6.8647462834 1.3205071036 1.5619171462 
Si 8.2066725665 -0.1779532047 2.9549209261 
Si 8.0443712948 2.4269318790 -0.1078074454 
Si -0.1145818066 4.9807367982 0.0902478847 
Si 2.7657531198 5.1900243347 2.7302173905 
Si 1.3878081667 6.5797570210 1.5764084730 
Si 3.9399650332 4.0420879873 1.4574669880 
Si 5.4491702716 5.1861860000 -0.0142692809 
Si 6.7093334069 6.2770560207 1.6129849628 
Si 9.7059799979 4.0085702388 1.2727701902 
Si 8.0261170893 5.2305724141 3.0033562458 
Si 0.0620477869 7.8478176295 2.7195909950 
Si 2.5869847045 7.7521439040 0.1831623757 
Si 4.1577369188 8.9411742080 1.3937849710 
Si 5.5160593286 7.7884087602 2.8516603141 
Si 8.0740209042 7.6306070091 -0.0827202647 
Si 9.7124069755 9.1929850964 1.3019936062 
Si -0.1866222217 0.1813658347 5.5454164484 
Si 2.6697479302 2.5970631987 5.8704549578 
Si 1.2261913021 1.2696368035 6.9983308098 
Si 4.1370675497 1.4165616469 4.1671911462 
Si 5.4800901535 0.0164623896 5.9433299632 
Si 6.9107723562 1.4009149622 7.2043468283 
Si 9.6821424905 1.3293011673 4.2831280373 
Si 8.2912287184 2.6438111460 5.9466512904 
Si 1.2972563318 3.8564707735 4.1771637783 
Si -0.0979170120 5.1110026479 5.6089842328 
Si 1.4060584100 6.4961604300 7.0349252058 
Si 6.9844824828 3.9851875575 4.3483833104 
Si 3.9154077005 6.2771075941 4.2125765122 
Si 4.1997416616 3.8442251007 6.9915594545 
Si 5.5985988750 5.0996154139 5.8779392441 
Si 6.7060578143 6.2876994081 7.3545738183 
Si 9.6229492569 6.3319442546 4.1602452796 
Si 9.4079406547 3.8274716094 6.9951309337 
Si 1.4226608291 8.8439941730 4.4243298685 
Si 2.9195187108 7.6782968685 5.8431410611 
Si 6.6681251598 9.1952788023 4.3040586668 
Si 3.9601465408 9.2007175417 7.2686969639 
Si 8.3851208730 7.6387297074 5.8585714286 
Si 9.3614433573 8.9213765359 7.2417801480 
Si -0.0302266666 2.5366531159 8.4635686600 
Si 2.7551481609 -0.1547172130 8.7543970357 
Si 4.1417752693 1.1252877546 9.9606719629 
Si 5.4676578190 2.4232536107 8.6176582323 
Si 8.1570043676 0.0110381998 8.6183171852 
Si 9.3731460928 1.4718269601 10.2088210863 
Si 1.3151513076 4.0222706304 10.1483154717 
Si 2.8327007672 5.2589972144 8.5915122344 
Si 6.7357764763 3.9398442141 10.2137545913 
Si 4.1058780439 6.4232935174 10.2161328515 
Si 8.2037958023 5.0514953175 8.8076568941 
Si 9.5129277029 6.4790809747 9.8677553135 
Si -0.0000371728 7.8735314242 8.4839888005 
Si 1.5472398277 9.1474974288 9.9576227302 
Si 5.5264538513 7.6178696082 8.7228997519 
Si 6.6314278320 8.9642114325 10.2046128123 

