&CONTROL
   calculation      = 'scf'
   tstress          = '.true.'
   tprnfor          = '.true.'
   outdir           = './'
   disk_io          = 'none'
   pseudo_dir       = './'
/
&SYSTEM
   ecutwfc          = 30
   input_dft        = 'PBE'
   ntyp             = 1
   nat              = 64
   ibrav            = 0
/
&ELECTRONS
   electron_maxstep = 1000
   mixing_beta      = 0.5
/
&IONS
/
&CELL
/

ATOMIC_SPECIES
Si 28.085 Si_ONCV_PBE-1.0.upf

K_POINTS gamma

CELL_PARAMETERS angstrom
10.76204541705434 0.00000000000000 0.00000000000000
0.00000000000000 11.07909812198058 0.00000000000000
0.00000000000000 0.00000000000000 10.89775267176348

ATOMIC_POSITIONS angstrom
Si 4.0147055782 4.1164176977 1.3780219916 
Si -0.0057677135 2.7745247817 2.7458492953 
Si 4.0463178475 1.3552128835 4.0626676978 
Si 0.0146047337 -0.0054942155 -0.0387996044 
Si 1.3674795897 4.0744051443 4.0733576145 
Si 2.7332566435 2.7586148009 -0.0089097542 
Si 1.3127900857 1.3579409030 1.3195473631 
Si 2.6590017807 -0.0192847437 2.6898716643 
Si 4.0832691383 4.1072108867 6.7997815268 
Si -0.0467242750 2.7756104540 8.0663374488 
Si 4.0305744436 1.4116005960 9.4838576879 
Si 0.0314609565 0.0158589900 5.3835257428 
Si 1.3669701250 4.1170524479 9.4873804646 
Si 2.7205742592 2.7385863753 5.3871123674 
Si 1.3578371980 1.3882830568 6.7956214910 
Si 2.7014047800 -0.0070584253 8.1023382651 
Si 4.0316506279 9.5971042487 1.3803753035 
Si -0.0053935963 8.2560789785 2.6603929034 
Si 4.0686776396 6.8287047219 4.0365490813 
Si -0.0424551193 5.4502898649 0.0421928287 
Si 1.3596584950 9.5953096493 4.0182886644 
Si 2.6823579783 8.2099649506 -0.0350751367 
Si 1.3602750967 6.8574160798 1.3398144964 
Si 2.7267648471 5.4935927739 2.7191144488 
Si 4.0458155937 9.6131458311 6.7277230061 
Si -0.0095082562 8.2085596907 8.1183374645 
Si 4.0422026052 6.8167870648 9.4334684891 
Si 0.0069802403 5.5001906244 5.4477684278 
Si 1.3989305048 9.6316779892 9.4084325901 
Si 2.6865199681 8.2586540867 5.4009881776 
Si 1.3272589239 6.8890386489 6.7751540991 
Si 2.7184522872 5.5138055340 8.0791859553 
Si 9.5027688303 4.1330625933 1.3901325215 
Si 5.4388033257 2.7570361243 2.6870927630 
Si 9.4464714396 1.3393480980 4.0768903392 
Si 5.4207102170 -0.0011394531 0.0411186036 
Si 6.7268668321 4.1384905178 4.0076041910 
Si 8.0919360457 2.7668056579 -0.0242948794 
Si 6.7766970276 1.4108522470 1.3213797545 
Si 8.1040857921 -0.0348852470 2.7247726700 
Si 9.5001304903 4.1221769219 6.7405704384 
Si 5.3802312777 2.6934410150 8.1329758098 
Si 9.4295083540 1.3793368619 9.4420198548 
Si 5.3697906293 -0.0253214868 5.4092181960 
Si 6.7096352151 4.1182965912 9.4853913467 
Si 8.1233700659 2.7401168311 5.4467124794 
Si 6.7687486550 1.3746929946 6.7592806510 
Si 8.0798528499 -0.0076290918 8.1328696475 
Si 9.4936516510 9.6342892758 1.3556130445 
Si 5.4424775501 8.2398449571 2.7433082997 
Si 9.4962048033 6.8727894906 4.0676968826 
Si 5.3584308866 5.4840901776 0.0409667279 
Si 6.7819546655 9.5919815518 4.0344659448 
Si 8.1046119404 8.2486052393 -0.0109858783 
Si 6.7575268256 6.7987528676 1.3528619766 
Si 8.1257326946 5.4766999686 2.6793682559 
Si 9.5019453353 9.5832410446 6.7770303585 
Si 5.4506203104 8.2489336386 8.1125755057 
Si 9.4659651362 6.8939891455 9.4901676422 
Si 5.3599841484 5.4628944131 5.4441007915 
Si 6.7688569280 9.6011927659 9.4117594042 
Si 8.1486906922 8.1688558261 5.3792341349 
Si 6.7487280865 6.8304957525 6.7397039700 
Si 8.1523115494 5.4436603211 8.0783979978 

