&CONTROL
   calculation      = 'scf'
   tstress          = .true.
   tprnfor          = .true.
   outdir           = './'
   disk_io          = 'none'
   pseudo_dir       = '/home/ppiaggi/pseudos'
/
&SYSTEM
   ecutwfc          = 30
   occupations      = 'smearing'
   degauss          = 0.01
   smearing         = 'fermi-dirac'
   input_dft        = 'PBE'
   ntyp             = 1
   nat              = 64
   ibrav            = 0
/
&ELECTRONS
   electron_maxstep = 1000
   mixing_beta      = 0.5
/
&IONS
/
&CELL
/

ATOMIC_SPECIES
Si 28.085 Si_ONCV_PBE_sr.upf

K_POINTS gamma

CELL_PARAMETERS angstrom
11.51187963714055 0.00000000000000 0.00000000000000
0.00000000000000 11.23696897722652 0.00000000000000
0.00000000000000 0.00000000000000 10.91084038596036

ATOMIC_POSITIONS angstrom
Si -0.0484637769 0.1631599384 0.1038890503 
Si -0.1815720095 2.6219085178 2.6921839994 
Si 3.1313004521 0.1333244365 2.6246679026 
Si 2.8180576897 2.7621020426 -0.1518119477 
Si 1.4270950083 1.2094651868 1.5242601161 
Si 6.0358702883 -0.1778510392 0.0915207061 
Si 5.9310781793 2.8858888310 2.7870484568 
Si 7.4805103533 1.2037650314 1.3434589157 
Si 8.9042067293 0.1060639976 2.6962779188 
Si 9.1445314340 2.8048391981 -0.0519784884 
Si -0.1114203381 5.2439803358 -0.0231734692 
Si 3.0736872918 5.3425347370 2.8334678431 
Si 1.6436738439 6.6041577824 1.2572412275 
Si 4.7008923527 4.1847824648 1.4442697407 
Si 5.9313881882 5.3927275976 0.1727881302 
Si 7.6557738744 6.7039055265 1.4890586981 
Si 10.5312131151 4.0279399778 1.4720402259 
Si 8.9976101488 5.3523079497 2.5921820660 
Si 0.1219980391 8.0327991060 2.7976825125 
Si 3.1635192193 8.1115498328 -0.1902122312 
Si 4.2842633927 9.5401189480 1.4930640352 
Si 5.9262879119 8.2872933635 2.7247255945 
Si 9.0681232670 8.0803968854 -0.0288336623 
Si 10.6383854432 9.6579713184 1.3691821968 
Si -0.2100372871 0.0977811817 5.4830597720 
Si 3.0945626384 2.8678067688 5.6502000101 
Si 1.4782387815 1.2562372639 7.0632427715 
Si 4.4618438143 1.1751945646 4.1105352376 
Si 6.0112254714 0.1654691084 5.4979264770 
Si 7.5817959542 1.5103605142 7.0502619985 
Si 10.6999049177 1.2434406159 4.2897938913 
Si 8.7757411418 2.6738482757 5.4170155685 
Si 1.3804308846 4.0906557094 3.9808519809 
Si -0.0926965529 5.3329593105 5.4668624248 
Si 1.4632258292 6.9262135157 7.1010049122 
Si 7.4226977491 4.0517471517 4.0237672453 
Si 4.6554064940 6.7094210405 4.2664248555 
Si 4.4343670588 4.1085925682 6.8132026291 
Si 5.7989623530 5.4461302697 5.4966191879 
Si 7.3705750164 6.7824683832 7.0351163255 
Si 10.5499544191 6.6189555922 4.2889181789 
Si 10.3219829794 3.9796326191 6.7670133350 
Si 1.5982546236 9.5058770612 3.9646686489 
Si 2.8291280438 8.1031097306 5.4476713262 
Si 7.5941889074 9.4042391787 4.1358473521 
Si 4.4306105650 9.3400511917 7.0519783134 
Si 9.1709258673 8.1515926332 5.3478339785 
Si 10.6243228169 9.5599556386 6.9574195127 
Si -0.0378192533 2.6315973332 8.3660197899 
Si 2.8875501812 0.0730406010 8.4629041321 
Si 4.4557281818 1.1987991137 9.5226383322 
Si 6.1352821675 2.9058551730 8.4311854282 
Si 9.1669720858 -0.1511496908 8.2257976190 
Si 10.4306296851 1.2484460710 9.7862150300 
Si 1.6895954496 3.9293897766 9.5701069572 
Si 2.7916393064 5.5346153150 8.2514000668 
Si 7.5714611310 3.9054750742 9.8195257425 
Si 4.3715127633 6.8766129450 9.7512922647 
Si 8.7927566488 5.5655941902 8.5055275309 
Si 10.3150512127 6.9508813436 9.6111665302 
Si -0.0300553627 7.9990125973 8.1502373135 
Si 1.6574356455 9.6162540245 9.5705845979 
Si 6.0355763774 8.1508647184 8.2710840655 
Si 7.5229855527 9.3602453691 9.5883408256 

