&CONTROL
   calculation      = 'scf'
   tstress          = '.true.'
   tprnfor          = '.true.'
   outdir           = './'
   disk_io          = 'none'
   pseudo_dir       = './'
/
&SYSTEM
   ecutwfc          = 30
   input_dft        = 'PBE'
   ntyp             = 1
   nat              = 64
   ibrav            = 0
/
&ELECTRONS
   electron_maxstep = 1000
   mixing_beta      = 0.5
/
&IONS
/
&CELL
/

ATOMIC_SPECIES
Si 28.085 Si_ONCV_PBE-1.0.upf

K_POINTS gamma

CELL_PARAMETERS angstrom
10.95854665489542 0.00000000000000 0.00000000000000
0.00000000000000 10.97412342795966 0.00000000000000
0.00000000000000 0.00000000000000 10.78157474735750

ATOMIC_POSITIONS angstrom
Si 4.0581151436 4.0513852099 1.3726962486 
Si -0.0106280734 2.7098453303 2.6637704429 
Si 4.1198259204 1.3015576036 4.0212592714 
Si 0.0147098411 0.0393071870 -0.0075739056 
Si 1.3634448898 4.0230244950 4.0361505636 
Si 2.7360243557 2.7332761743 -0.0249157815 
Si 1.3441267670 1.3458074327 1.3373635787 
Si 2.6894326490 0.0067449561 2.7415817815 
Si 4.1224923948 4.0005977206 6.7359414507 
Si 0.0064248185 2.7274246960 8.0590568061 
Si 4.1227192538 1.3684686162 9.4928871042 
Si 0.0279580661 -0.0273559554 5.4162867616 
Si 1.3886438560 4.0422881442 9.4541583659 
Si 2.7674186781 2.6699270000 5.4510468983 
Si 1.3189639449 1.3010498673 6.7816834567 
Si 2.7048130489 0.0092200773 8.0883429887 
Si 4.0652117289 9.4439671220 1.3158949776 
Si -0.0444321534 8.0887727947 2.7499319064 
Si 4.1209688783 6.7579603683 4.0418566187 
Si -0.0322145840 5.3981875354 -0.0255998323 
Si 1.4047586569 9.4645043964 4.0330471559 
Si 2.7653679167 8.1203611629 0.0184835035 
Si 1.3274506721 6.7862377955 1.3589076721 
Si 2.7740402284 5.4350146623 2.7274062484 
Si 4.0874035148 9.4387281213 6.7961621405 
Si 0.0246588792 8.0812849799 8.1162831937 
Si 4.1153789534 6.6962211881 9.4102199866 
Si -0.0135210242 5.4103769251 5.4528437062 
Si 1.3171863833 9.4711727323 9.4281275599 
Si 2.7625455011 8.0753960900 5.4210828074 
Si 1.3734852947 6.7637436242 6.7095848572 
Si 2.6998437724 5.3757176954 8.1386238834 
Si 9.4926888315 4.0723927842 1.3444643851 
Si 5.4836555871 2.6658452955 2.6791925376 
Si 9.5096446252 1.3895100640 4.0724740604 
Si 5.4976841350 0.0202173834 -0.0472831120 
Si 6.8258884552 4.0739950326 4.0905322231 
Si 8.1614609465 2.6665952433 0.0410601788 
Si 6.8550087362 1.3915098546 1.3221691691 
Si 8.1324671677 0.0382974838 2.6771726156 
Si 9.5149950536 4.0263801627 6.7174207957 
Si 5.4020116752 2.7345855630 8.0952555382 
Si 9.5216949647 1.3262670052 9.4964766064 
Si 5.4921897053 0.0438241613 5.4147574571 
Si 6.8434694596 4.0495313585 9.4845770415 
Si 8.1395012309 2.7311672164 5.4486641786 
Si 6.8468921094 1.3141674808 6.7354443140 
Si 8.1304311432 0.0243387649 8.0664701237 
Si 9.5526273887 9.4747204038 1.3588087382 
Si 5.4528506183 8.0961619607 2.6584074092 
Si 9.4904027975 6.7348343081 4.0275222621 
Si 5.4137085211 5.4105375386 0.0313717853 
Si 6.8081058957 9.4756222936 4.0059579741 
Si 8.1367256584 8.1296663806 -0.0410159562 
Si 6.7778593348 6.7422547896 1.3846652321 
Si 8.1243109353 5.3664218160 2.6701880105 
Si 9.5696284534 9.4649683340 6.7138705041 
Si 5.4375179683 8.0508897903 8.0911884537 
Si 9.5317636070 6.7013493490 9.4514084437 
Si 5.4031567294 5.4170160906 5.4210197363 
Si 6.8166901547 9.4302094464 9.4616669819 
Si 8.1893633564 8.0879264886 5.3719587010 
Si 6.8157200360 6.7280261645 6.7694698650 
Si 8.2125277994 5.4337605382 8.0741969948 

