&CONTROL
   calculation      = 'scf'
   tstress          = .true.
   tprnfor          = .true.
   outdir           = './'
   disk_io          = 'none'
   pseudo_dir       = './'
/
&SYSTEM
   ecutwfc          = 40
   input_dft        = 'PBE'
   ntyp             = 1
   nat              = 8
   ibrav            = 0
/
&ELECTRONS
   electron_maxstep = 1000
   mixing_beta      = 0.5
/
&IONS
/
&CELL
/

ATOMIC_SPECIES
Si 28.085 Si_ONCV_PBE-1.0.upf

K_POINTS automatic
3 3 3  1 1 1

CELL_PARAMETERS angstrom
5.44370237000000 0.00000000000000 0.00000000000000
0.00000000000000 5.44370237000000 0.00000000000000
0.00000000000000 0.00000000000000 5.44370237000000

ATOMIC_POSITIONS angstrom
Si 4.0827767775 4.0827767775 1.3609255925 
Si 0.0000000000 2.7218511850 2.7218511850 
Si 4.0827767775 1.3609255925 4.0827767775 
Si 0.0000000000 0.0000000000 0.0000000000 
Si 1.3609255925 4.0827767775 4.0827767775 
Si 2.7218511850 2.7218511850 0.0000000000 
Si 1.3609255925 1.3609255925 1.3609255925 
Si 2.7218511850 0.0000000000 2.7218511850 

