&CONTROL
   calculation      = 'scf'
   tstress          = .true.
   tprnfor          = .true.
   outdir           = './'
   disk_io          = 'none'
   pseudo_dir       = '/home/ppiaggi/pseudos'
/
&SYSTEM
   ecutwfc          = 30
   occupations      = 'smearing'
   degauss          = 0.01
   smearing         = 'fermi-dirac'
   input_dft        = 'PBE'
   ntyp             = 1
   nat              = 64
   ibrav            = 0
/
&ELECTRONS
   electron_maxstep = 100
   mixing_beta      = 0.5
/
&IONS
/
&CELL
/

ATOMIC_SPECIES
Si 28.085 Si_ONCV_PBE_sr.upf

K_POINTS gamma

CELL_PARAMETERS angstrom
11.45641730639841 0.00000000000000 0.00000000000000
0.00000000000000 11.45641730639841 0.00000000000000
0.00000000000000 0.00000000000000 11.45641730639841

ATOMIC_POSITIONS angstrom
Si 2.5082680051 2.0929957905 7.0321780710 
Si 0.7930659055 1.4578520151 3.6402536863 
Si 9.6146034653 1.8134706647 6.3886481981 
Si 4.7572200044 8.3433764881 11.1197704838 
Si 6.7907226199 10.6444093606 7.5646379782 
Si 5.1734774708 3.2245003022 3.9497946255 
Si 4.4065734399 0.0241633026 10.0810514959 
Si 7.5015818573 3.7955110536 10.9141621625 
Si 6.3677516929 10.5872189254 9.9885180133 
Si 3.7317904606 3.4663910972 5.7682259189 
Si 3.4721765880 7.7810955268 8.0468271262 
Si 9.7630557208 5.1797326747 2.0065112963 
Si 6.6756772773 5.9506464516 8.1228175422 
Si 8.6916515743 9.7722323110 3.7233470810 
Si 0.2679289403 1.1807785625 7.1277131349 
Si 5.6334182564 8.5135271980 6.7005262464 
Si 8.5582874204 7.4173886465 2.2304727982 
Si 3.8375561051 2.1917615641 9.1752727744 
Si 7.6446495966 7.3244656458 6.2582054306 
Si 1.8040534897 2.8368151406 1.4372075511 
Si 7.1565145680 10.2164778049 5.3765997496 
Si 1.7533473867 0.4231530840 1.6013436418 
Si 6.6412278304 1.7432428266 2.8402978914 
Si 7.4485615580 0.4878955895 0.5691055492 
Si 1.4480796911 3.2744961073 4.6376837462 
Si 0.5456932148 4.7594310929 2.4657646969 
Si 10.1728975935 6.8901299528 3.3431085906 
Si 3.9238572967 3.6865834379 1.5087872464 
Si 2.2062424756 11.1471971469 5.6909180149 
Si 0.4257067194 6.0381734798 5.9937340371 
Si 5.3098432060 4.8175494979 0.1173056937 
Si 11.0758007542 5.3118022534 10.2451073918 
Si 1.8351232934 7.0814177526 9.4772295654 
Si 9.8050893159 6.9912672048 5.7461494027 
Si 10.7088058822 2.7679735290 4.5312879987 
Si 1.3708176128 9.3485969119 4.4351801139 
Si 8.1791258332 10.0288789715 1.6205216844 
Si 9.2416741691 1.9595056161 0.4504353962 
Si 4.6505836721 5.9976063062 7.0077988150 
Si 0.1026365533 10.8154651274 5.5072143634 
Si 9.3920511027 10.9204631920 6.5853663396 
Si 3.5809209010 7.4991874661 5.7189174988 
Si 6.4515668419 4.9057409984 5.4581350716 
Si 11.4403783222 1.2107027245 0.3204268269 
Si 10.8671564822 9.3354678576 3.0364088429 
Si 6.0151804503 11.0593264261 3.5540556025 
Si 1.0626308221 6.9678961135 3.5507446979 
Si 6.8948385403 8.4783101712 0.4243411145 
Si 2.4944744786 5.6470972187 4.8075480456 
Si 10.4018770062 2.9285008483 8.0984039169 
Si 6.0460784078 3.3118898534 8.6310127575 
Si 8.1251317385 3.4363752839 7.0753229386 
Si 0.6922036075 9.5699692635 0.8393406663 
Si 5.5737188658 0.8573627563 8.4852871293 
Si 3.0465248594 6.6492244097 0.0114415583 
Si 3.1262042417 3.9267443139 10.6281068787 
Si 9.7128651565 11.3370414381 0.5643419709 
Si 0.0824173515 7.2919065078 11.3019848011 
Si 3.5307761625 9.0157765327 3.6979482038 
Si 0.5377264222 5.0241430712 8.3035196123 
Si 3.5074165276 9.8414634408 1.0552425786 
Si 7.3379498489 3.5734398605 4.1754516772 
Si 9.2281555967 6.5742650713 10.3887479519 
Si 7.5008830159 5.1154392607 1.2873232435 

