&CONTROL
   calculation      = 'scf'
   tstress          = .true.
   tprnfor          = .true.
   outdir           = './'
   disk_io          = 'none'
   pseudo_dir       = '/home/ppiaggi/pseudos'
/
&SYSTEM
   ecutwfc          = 30
   occupations      = 'smearing'
   degauss          = 0.01
   smearing         = 'fermi-dirac'
   input_dft        = 'PBE'
   ntyp             = 1
   nat              = 64
   ibrav            = 0
/
&ELECTRONS
   electron_maxstep = 100
   mixing_beta      = 0.5
/
&IONS
/
&CELL
/

ATOMIC_SPECIES
Si 28.085 Si_ONCV_PBE_sr.upf

K_POINTS gamma

CELL_PARAMETERS angstrom
11.49928656721776 0.00000000000000 0.00000000000000
0.00000000000000 11.49928656721776 0.00000000000000
0.00000000000000 0.00000000000000 11.49928656721776

ATOMIC_POSITIONS angstrom
Si 2.5389389805 2.6989400538 8.0033309615 
Si 1.3994286774 1.3077908627 3.6072112033 
Si 10.1642308961 1.9714376891 6.4837922359 
Si 5.4055616309 6.7623279552 1.0569810733 
Si 7.1733469549 10.1484538749 6.7660537240 
Si 4.9647249811 3.1681339443 4.2950180307 
Si 4.8452358944 11.0820349541 10.2520624469 
Si 8.3088210084 5.4066770617 0.5355827217 
Si 7.0255236261 0.5735522160 10.6396573999 
Si 2.8746146546 3.9041112831 6.1248190072 
Si 3.7986283275 7.7508526256 7.9871629646 
Si 9.4671901415 5.6251290087 2.9917923848 
Si 7.4903592870 4.8313792541 7.4930961172 
Si 7.6595022931 7.8674898893 3.5036256299 
Si 0.5577544961 1.3017077401 7.8792996566 
Si 5.4523637273 8.8665249077 6.2787254586 
Si 7.2936639903 8.2112150640 1.1797808047 
Si 4.3595750255 1.3872394336 9.1161629197 
Si 6.8066922027 6.9995237392 6.0977266880 
Si 2.3511326322 1.6233082875 1.5200331949 
Si 7.3419954917 10.2075602078 4.7178812957 
Si 1.2341724301 10.9415481701 1.7070000952 
Si 6.9472709810 1.6829665863 2.6057728340 
Si 7.2639153359 3.0670322168 0.6204049092 
Si 1.1788723610 2.5129850907 6.0302603737 
Si 0.3131313229 5.9656803803 2.4472436694 
Si 10.9941689055 7.3731700576 4.1648691053 
Si 4.4651844733 2.0308085056 2.2967640054 
Si 1.2315160949 0.1756424029 5.7760801434 
Si 11.4364544654 6.7793928964 6.4071034938 
Si 6.2505292079 5.1560271124 10.6386799605 
Si 10.3051776515 5.2953639678 10.8004749225 
Si 2.2621741514 7.0303418272 9.7878822453 
Si 9.1540990661 6.7598326100 5.5168747249 
Si 10.8117557227 2.7065525815 4.5390673895 
Si 0.8203154064 9.3418824158 4.6026929421 
Si 7.5747410518 10.8859031224 0.9992052078 
Si 9.3901219229 3.3107135984 0.0010604366 
Si 5.0224743982 5.7899827809 7.5178425819 
Si 10.9584636207 10.9596940443 6.9256178244 
Si 9.0762603954 11.3526361656 5.6333509986 
Si 3.4410120145 8.3076595805 5.0781884417 
Si 5.9961649890 5.1355238845 4.7854971007 
Si 11.4288994341 0.7545061393 0.1876189098 
Si 0.1911054935 7.9218930140 0.6094483889 
Si 6.2626149581 11.0067951221 2.7589893282 
Si 2.7614961727 6.6334209527 2.0226785100 
Si 5.4071025353 9.1140240524 0.1418540492 
Si 2.8457169475 6.3480201594 6.4287451511 
Si 10.7615958346 3.4922068383 8.4569318194 
Si 6.8265399713 1.1517225454 8.4226294476 
Si 8.5691878549 2.8959803291 7.8182959413 
Si 0.8087287253 10.1978088128 11.0989964018 
Si 5.2375110571 11.0344624056 7.5389897699 
Si 3.7475714951 5.1555786403 11.1633579087 
Si 3.7317484768 2.9276953614 0.1752755756 
Si 9.3233225672 1.1214978206 0.4772157928 
Si 0.2586074556 8.4082898372 9.7351695157 
Si 2.6579450971 8.7054429014 2.8956928469 
Si 0.1618352095 6.0439330254 9.1290076228 
Si 3.2261478450 9.9896027302 0.3487020660 
Si 7.4147284793 3.0438611543 4.6474596647 
Si 9.5348519437 7.5801917137 11.4626958374 
Si 6.8836914256 5.4707165886 2.7536306607 

