&CONTROL
   calculation      = 'scf'
   tstress          = .true.
   tprnfor          = .true.
   outdir           = './'
   disk_io          = 'none'
   pseudo_dir       = '/home/ppiaggi/pseudos'
/
&SYSTEM
   ecutwfc          = 30
   occupations      = 'smearing'
   degauss          = 0.01
   smearing         = 'fermi-dirac'
   input_dft        = 'PBE'
   ntyp             = 1
   nat              = 64
   ibrav            = 0
/
&ELECTRONS
   electron_maxstep = 100
   mixing_beta      = 0.5
/
&IONS
/
&CELL
/

ATOMIC_SPECIES
Si 28.085 Si_ONCV_PBE_sr.upf

K_POINTS gamma

CELL_PARAMETERS angstrom
11.46355153731395 0.00000000000000 0.00000000000000
0.00000000000000 11.46355153731395 0.00000000000000
0.00000000000000 0.00000000000000 11.46355153731395

ATOMIC_POSITIONS angstrom
Si 3.2639253208 1.9424988080 9.3226071887 
Si 0.7800350716 1.3887863416 3.0487773856 
Si 9.8470990621 0.6526967948 8.0371647641 
Si 5.0958467107 6.9065490666 0.0623872841 
Si 6.7865486092 10.8594338348 5.2821982045 
Si 4.2312771173 2.7546226531 5.1469626870 
Si 5.1638026442 10.8513634946 9.8400260508 
Si 9.0865497354 4.9990255544 1.7606066358 
Si 7.1358659516 0.2777033896 10.9340730189 
Si 2.9707105996 3.9146996780 7.1034355643 
Si 3.0684946942 6.3628672079 7.6370638884 
Si 10.6788255804 4.9068815271 3.4736395326 
Si 7.1954764196 4.6242247369 8.3445828257 
Si 7.2341315154 8.7633922176 4.3544644421 
Si 0.6570907741 0.6115483766 7.6401361202 
Si 5.5245950017 8.4982402705 6.1580135419 
Si 6.2371120475 8.5966433969 1.8551350817 
Si 4.2055529076 0.3837469731 7.5600058949 
Si 7.1524307836 6.7305606234 5.8317035474 
Si 2.5600288658 2.3646555569 1.7651347386 
Si 8.5509152898 10.7951577014 3.8973782517 
Si 0.9507181832 0.5208659521 1.0901631168 
Si 7.5785309942 3.0457166173 2.2198365103 
Si 6.8671488400 2.4946866220 0.0754299398 
Si 1.9062281309 2.0252656501 6.2317471054 
Si 0.7680384650 6.7493952386 2.8062200986 
Si 11.0993086508 8.1104168584 4.7014317565 
Si 4.6307131070 2.7078398993 2.5957149017 
Si 0.7329554118 0.1103408104 5.2646131164 
Si 0.7149599286 5.4012586507 5.1526829992 
Si 4.9072483608 4.3665699525 0.1924558350 
Si 9.9319064164 6.3484002058 10.8682034518 
Si 1.9685898513 4.7037703210 9.3058933305 
Si 9.9208096985 6.1741312954 5.1799777154 
Si 0.5146962687 3.1228090014 4.5153439244 
Si 1.7723338490 9.6660551927 4.8210424532 
Si 7.9535152286 10.0045624061 1.2711244487 
Si 10.4040671771 4.1402335910 11.2002108314 
Si 5.4690426310 6.0433436359 7.6514506455 
Si 10.6461544585 10.3463825858 6.7337933450 
Si 8.9381082065 0.4520410814 6.0105922691 
Si 3.8375155855 8.6386573133 4.5326997414 
Si 6.4883013888 4.5181524945 6.1711736991 
Si 10.4741324041 11.3048501298 0.2670147742 
Si 11.1227516137 8.9507983581 11.1397520606 
Si 6.2793781620 1.0111230753 2.6906216449 
Si 1.6495821391 7.5285957637 0.5654522895 
Si 4.2900048918 9.1092475674 0.8199156211 
Si 1.8291357468 7.4783854080 5.8570953141 
Si 9.0838901914 4.5857989121 9.3020645043 
Si 6.7229488252 0.5936423091 8.6287413412 
Si 8.2051516483 2.6416952069 8.0535691064 
Si 0.9827198337 10.9321815329 10.5820732054 
Si 5.9041188025 10.0266068157 7.8785206744 
Si 3.2366191410 5.8469500710 10.8347757355 
Si 4.2971581480 1.3835131079 0.5989912022 
Si 8.8462622316 1.5377551939 0.2308025612 
Si 1.5507204707 6.8577716549 9.4297455413 
Si 2.8855937294 8.0154298704 2.4882784967 
Si 11.1790835059 5.2971352121 9.0342988675 
Si 3.1402909175 11.1144405388 11.3703070091 
Si 6.2933293043 3.9753074750 3.9263466464 
Si 9.7677025042 7.6624671186 1.5088326533 
Si 7.1571996210 6.4374720013 1.2572076971 

