&CONTROL
   calculation      = 'scf'
   tstress          = .true.
   tprnfor          = .true.
   outdir           = './'
   disk_io          = 'none'
   pseudo_dir       = '/home/ppiaggi/pseudos'
/
&SYSTEM
   ecutwfc          = 30
   occupations      = 'smearing'
   degauss          = 0.01
   smearing         = 'fermi-dirac'
   input_dft        = 'PBE'
   ntyp             = 1
   nat              = 64
   ibrav            = 0
/
&ELECTRONS
   electron_maxstep = 100
   mixing_beta      = 0.5
/
&IONS
/
&CELL
/

ATOMIC_SPECIES
Si 28.085 Si_ONCV_PBE_sr.upf

K_POINTS gamma

CELL_PARAMETERS angstrom
10.76110843847378 0.00000000000000 0.00000000000000
0.00000000000000 10.76110843847378 0.00000000000000
0.00000000000000 0.00000000000000 10.76110843847378

ATOMIC_POSITIONS angstrom
Si 1.7391027347 2.0550704007 7.0762035981 
Si 1.9597807855 0.9559609159 2.9576045654 
Si 9.6677152545 0.8699075601 7.1406626377 
Si 4.0621677800 9.2091198573 0.0767094854 
Si 6.9811830106 0.2167351806 8.4965945842 
Si 4.5763227801 3.2219296720 3.3855415647 
Si 2.2561955174 0.0428591275 9.8890174495 
Si 4.6579457876 1.0554376784 0.9935946643 
Si 6.1383191921 8.1472997654 9.2353123952 
Si 2.0096585231 3.6216725672 4.6238223127 
Si 3.8634316294 7.7373338172 6.4534797750 
Si 8.4167579207 5.2705756910 1.7886361169 
Si 6.6561544913 5.7741309993 8.4511827066 
Si 6.1225326461 1.9446937115 2.6506439472 
Si 1.1967213472 10.4359723081 6.9225026863 
Si 5.2160921990 9.7123738545 7.4042344666 
Si 5.8067909634 6.0262960533 0.4680253565 
Si 2.4408668993 3.2595720293 9.1070937882 
Si 7.6215550515 6.5627480701 6.4226384382 
Si 1.1910071986 2.9371584594 2.0295342904 
Si 6.7733752455 9.6511001030 5.2819932270 
Si 0.0394260110 0.2220102760 9.1314354154 
Si 6.4606681954 9.5853389694 0.4964960211 
Si 8.2300849726 7.5550944458 0.6582322526 
Si 10.3873213369 3.6767909646 4.6528450222 
Si 0.4429691917 5.2157263213 2.7259824674 
Si 8.1159311343 7.4565226925 3.1143185876 
Si 3.5443970475 3.2776399304 1.3448372438 
Si 3.0206000942 0.5785118091 5.2727386738 
Si 1.1194781109 5.3032248940 5.9312324214 
Si 6.2653433162 3.4779472029 10.3412099872 
Si 10.0465062715 5.4765863509 9.2948643693 
Si 2.3394111690 7.6185634634 8.4121629274 
Si 9.7320774440 6.3349999711 4.6577520876 
Si 9.0646196931 1.4511462340 4.5178684390 
Si 1.9160153575 8.8527549902 5.3417066178 
Si 10.5503628908 7.7443392988 3.0796032518 
Si 8.9797360698 1.1406021667 9.5926134787 
Si 5.5360091917 4.3351555789 6.4422128945 
Si 10.3540157062 9.1624596911 5.6542630124 
Si 8.2219818580 9.7318622219 7.1368639664 
Si 6.0219162822 7.4121976869 5.2036523576 
Si 6.2689590486 4.9039124432 4.3436891379 
Si 0.0877065849 1.9805282026 10.7194091433 
Si 0.1313952863 10.1679991858 3.5883992199 
Si 5.9105926154 9.8548509302 2.8689222708 
Si 1.8146349549 6.7583312159 3.8481938998 
Si 5.0979567505 7.4445671011 2.5680416789 
Si 3.5648646757 5.3492178715 6.1090489772 
Si 9.1014442062 4.5341392350 7.2785770034 
Si 6.2006475322 2.4002437150 8.0376010260 
Si 7.9640918943 2.6562720070 6.4136744349 
Si 10.4723125713 9.2758494907 1.4492630401 
Si 4.0929553112 1.5113223524 9.4188108163 
Si 4.2296644329 6.9071896290 9.9346230271 
Si 3.6704203884 4.7453044659 10.4153863077 
Si 9.2670253818 9.4061019472 10.2392484847 
Si 10.4515866765 7.7699076925 9.1441442845 
Si 3.7681742975 9.9133483157 3.3863163645 
Si 0.1621419253 3.4618916291 8.3579592242 
Si 2.0881608092 10.0456346217 1.2567575712 
Si 8.2662745803 3.9336371008 3.7826802716 
Si 8.2904655521 7.7422516438 8.5564586305 
Si 8.3626833508 4.2140285423 10.4951691656 

