&CONTROL
   calculation      = 'scf'
   tstress          = .true.
   tprnfor          = .true.
   outdir           = './'
   disk_io          = 'none'
   pseudo_dir       = '/home/ppiaggi/pseudos'
/
&SYSTEM
   ecutwfc          = 30
   occupations      = 'smearing'
   degauss          = 0.01
   smearing         = 'fermi-dirac'
   input_dft        = 'PBE'
   ntyp             = 1
   nat              = 64
   ibrav            = 0
/
&ELECTRONS
   electron_maxstep = 100
   mixing_beta      = 0.5
/
&IONS
/
&CELL
/

ATOMIC_SPECIES
Si 28.085 Si_ONCV_PBE_sr.upf

K_POINTS gamma

CELL_PARAMETERS angstrom
11.45911078099062 0.00000000000000 0.00000000000000
0.00000000000000 11.45911078099062 0.00000000000000
0.00000000000000 0.00000000000000 11.45911078099062

ATOMIC_POSITIONS angstrom
Si 2.3298778631 2.1538659215 7.2162489641 
Si 0.8707113654 1.4219152204 3.3453384241 
Si 9.6372267579 1.6497681791 6.3879500595 
Si 4.7188503605 8.7320143018 10.9904102318 
Si 6.8219409621 10.8331110181 7.5332423456 
Si 5.1787044761 3.3123934806 3.8285920439 
Si 4.2416356920 0.1903690615 10.2216070304 
Si 7.1952558732 3.4871105427 10.8906586725 
Si 6.1960901677 10.2331463550 9.8504808096 
Si 3.6688291214 3.5109340340 5.7628670255 
Si 3.5949751524 7.8461792020 8.0211139871 
Si 9.6563290956 4.9724290230 2.0427125469 
Si 6.6104286953 6.1142950350 8.2536651813 
Si 8.5137067823 10.3204304018 3.8388021116 
Si 0.3218153754 1.1693907961 7.0767228312 
Si 5.6971375661 8.5869992548 6.9438086053 
Si 8.3676031198 7.6482230632 2.2092707221 
Si 3.7818388719 2.1706420597 9.1356271017 
Si 7.5388573099 7.2630708908 6.3798713864 
Si 1.4816630240 2.8173369766 1.3891536226 
Si 7.1085677001 10.0836737139 5.4050219141 
Si 1.7668917504 0.4344572884 1.6718957221 
Si 6.7783046683 1.7134693760 2.7987159216 
Si 7.2501450138 0.1276006363 0.4554606926 
Si 1.6527819253 3.2930046651 4.6248627339 
Si 0.6543381438 4.5742134642 2.4806224654 
Si 10.1820272618 6.8827200857 3.6250209409 
Si 3.9925719192 3.6865792840 1.6637941307 
Si 2.1692096708 11.0890502574 5.7168586957 
Si 0.5733611916 5.8539669562 5.9438980577 
Si 5.3791587010 4.9748583545 0.0645186898 
Si 10.9254141555 5.1802399970 10.1390555964 
Si 1.7934883466 7.2701297030 9.4889000280 
Si 9.9452934922 6.7827851806 5.7692841276 
Si 10.6946391235 2.7970314323 4.6522156313 
Si 1.5552534334 9.4105197102 4.2985760135 
Si 8.3223625505 9.7716535865 1.6795733263 
Si 9.0885301564 1.9468227079 0.3378753191 
Si 4.6270858014 5.7804567606 7.0014479325 
Si 11.2885419170 10.6983174980 5.5215381525 
Si 9.4486785491 10.7912738047 6.7018953176 
Si 3.7842567443 7.6399839626 5.4445902236 
Si 6.5458336879 4.9009814673 5.4910798360 
Si 0.1121843508 1.3266212551 0.2142315138 
Si 10.9470833340 9.5970511155 3.3918738730 
Si 6.0309185449 10.9840504253 3.7172438645 
Si 0.9123938809 6.9374946353 3.5610447254 
Si 6.8270861029 8.5848105647 0.4708525702 
Si 2.4141940002 5.7499526077 4.9040410498 
Si 10.3175541650 3.1915571574 8.0401704884 
Si 6.0016978124 3.4339746460 8.7296308067 
Si 8.1560793939 3.3239098869 6.9761003795 
Si 0.7065515821 9.5973834297 0.9851214193 
Si 5.6481957040 1.0849875697 8.4996579125 
Si 3.1878329464 6.8571548096 11.3394776644 
Si 3.3319198053 4.1332439631 10.6675612447 
Si 9.7412181883 11.0861511024 0.5926812523 
Si 0.1400097073 7.3022839679 10.9948907441 
Si 3.7984316644 9.0801650055 3.7479886587 
Si 0.6752636260 4.9456376220 8.1638830484 
Si 3.4850020663 9.8861301032 1.2297344735 
Si 7.4787886512 3.1737955357 4.0600202453 
Si 9.4208443690 6.7212382966 10.2519278375 
Si 7.4427955843 4.8353207625 1.1454160445 

