&CONTROL
   calculation      = 'scf'
   tstress          = .true.
   tprnfor          = .true.
   outdir           = './'
   disk_io          = 'none'
   pseudo_dir       = '/home/ppiaggi/pseudos'
/
&SYSTEM
   ecutwfc          = 30
   occupations      = 'smearing'
   degauss          = 0.01
   smearing         = 'fermi-dirac'
   input_dft        = 'PBE'
   ntyp             = 1
   nat              = 64
   ibrav            = 0
/
&ELECTRONS
   electron_maxstep = 100
   mixing_beta      = 0.5
/
&IONS
/
&CELL
/

ATOMIC_SPECIES
Si 28.085 Si_ONCV_PBE_sr.upf

K_POINTS gamma

CELL_PARAMETERS angstrom
11.45594892990032 0.00000000000000 0.00000000000000
0.00000000000000 11.45594892990032 0.00000000000000
0.00000000000000 0.00000000000000 11.45594892990032

ATOMIC_POSITIONS angstrom
Si 2.2495703235 2.1724717872 7.2716979511 
Si 0.8795694293 1.4331392111 3.2584040982 
Si 9.6438354722 1.5363916788 6.4076330031 
Si 4.6765932960 8.9367972162 10.9318965461 
Si 6.8711177849 10.8427119837 7.5496078162 
Si 5.1839429062 3.3592508166 3.7311452867 
Si 4.1512578459 0.2145767970 10.3178347716 
Si 7.0161730102 3.3000808404 10.8495168173 
Si 6.1090680621 10.0596291386 9.8368567557 
Si 3.6532906578 3.5598788502 5.7362112922 
Si 3.7010161410 7.8725166487 7.9391559036 
Si 9.6252310112 4.9055518913 2.0768260696 
Si 6.6031402275 6.1930516237 8.3217502300 
Si 8.4694059558 10.6195959223 3.8734167165 
Si 0.2939046610 1.1105648924 7.0472644556 
Si 5.7264049999 8.6722564435 7.0642994517 
Si 8.1957920715 7.6825655595 2.1236121650 
Si 3.7190363487 2.2251004166 9.1404037965 
Si 7.4681674752 7.1816771044 6.4405574003 
Si 1.3713458226 2.7256337372 1.3178809089 
Si 7.0374810752 9.9509007273 5.5838128036 
Si 1.8120676339 0.3505039223 1.5737037045 
Si 6.7393514603 1.5323248170 2.6719855284 
Si 7.2050472402 11.4027360471 0.3966290094 
Si 1.7466427095 3.3397298796 4.6500842301 
Si 0.6608192301 4.5464193483 2.5019219665 
Si 10.1305070947 6.8601544417 3.6799257391 
Si 4.0068441537 3.6826751668 1.6908751502 
Si 2.1495598894 11.1594460597 5.8093918940 
Si 0.5723781588 5.7684827004 5.9967081149 
Si 5.3889471123 5.0140740955 0.0632275588 
Si 10.9019621515 5.1122859457 10.0788063971 
Si 1.7570561671 7.2773915577 9.4631751576 
Si 9.9776389121 6.6892545956 5.8743013006 
Si 10.7059279535 2.8135123215 4.6621931682 
Si 1.6744129515 9.3625919260 4.2234646920 
Si 8.3328625005 9.6425638619 1.6281080060 
Si 9.0103673202 1.9095004795 0.2595093199 
Si 4.5747499100 5.6593991547 6.9873154749 
Si 11.2219497171 10.6586836201 5.5433389360 
Si 9.3409401825 10.7373287095 6.7860229962 
Si 3.9407318724 7.6993370687 5.4186409319 
Si 6.5966103366 4.9157247739 5.5308519517 
Si 0.1074452305 1.3768103102 0.1788903705 
Si 10.9485649518 9.7301445915 3.5220513069 
Si 6.0284525494 10.9560456864 3.7197351616 
Si 0.9083960336 6.9220394779 3.5451006761 
Si 6.8155449766 8.6556338616 0.4706584970 
Si 2.4710252723 5.7621246487 4.9186002171 
Si 10.3353050937 3.3672012452 8.0154983473 
Si 6.0147970583 3.4969054990 8.7890956666 
Si 8.1495558617 3.3123616176 6.9572321530 
Si 0.7172432154 9.6053091160 1.0641809007 
Si 5.7115008104 1.1638327637 8.5327229855 
Si 3.2810525092 6.9255908220 11.2251802947 
Si 3.4612087621 4.2763682641 10.7589002613 
Si 9.8188823719 11.0345303926 0.5389038760 
Si 0.1150016889 7.2956179725 10.8467903015 
Si 3.9823398789 9.1893206984 3.6657089064 
Si 0.7441944808 4.9213725567 8.0907181079 
Si 3.3844768162 9.9192479404 1.3420300493 
Si 7.6144370312 3.0816960859 4.0890291313 
Si 9.5189999967 6.8594098051 10.2024619099 
Si 7.4089173074 4.7636126840 1.0999899059 

