&CONTROL
   calculation      = 'scf'
   tstress          = .true.
   tprnfor          = .true.
   outdir           = './'
   disk_io          = 'none'
   pseudo_dir       = '/home/ppiaggi/pseudos'
/
&SYSTEM
   ecutwfc          = 30
   occupations      = 'smearing'
   degauss          = 0.01
   smearing         = 'fermi-dirac'
   input_dft        = 'PBE'
   ntyp             = 1
   nat              = 64
   ibrav            = 0
/
&ELECTRONS
   electron_maxstep = 100
   mixing_beta      = 0.5
/
&IONS
/
&CELL
/

ATOMIC_SPECIES
Si 28.085 Si_ONCV_PBE_sr.upf

K_POINTS gamma

CELL_PARAMETERS angstrom
11.50363269487091 0.00000000000000 0.00000000000000
0.00000000000000 11.50363269487091 0.00000000000000
0.00000000000000 0.00000000000000 11.50363269487091

ATOMIC_POSITIONS angstrom
Si 2.5371376945 2.5661728634 8.0703965244 
Si 1.4042944576 1.5057564980 3.5929065923 
Si 10.1633329460 1.7924155211 6.6351803021 
Si 5.3771890451 6.7361591899 1.1467511288 
Si 7.2400067983 10.3591362781 6.8140042723 
Si 4.9316763581 3.1660873084 4.3773278022 
Si 4.8021569576 11.1110367183 10.1181121658 
Si 8.3833643554 5.4406660903 0.6244562950 
Si 6.9722597473 0.6640966629 10.7242845871 
Si 2.9337254316 3.8614473940 6.1307230011 
Si 3.8062759715 7.5978733078 8.0811179100 
Si 9.6468428452 5.5983348800 3.0633943794 
Si 7.4129294049 4.8404295436 7.4382258932 
Si 7.5631438407 7.9878464561 3.5565896239 
Si 0.6059803106 1.3807925360 7.8623533271 
Si 5.4073515700 8.8948963905 6.0785195160 
Si 7.3005159062 8.3350836090 1.1858519764 
Si 4.4181196837 1.4517354388 9.0828427415 
Si 6.7899156655 6.8161669553 6.2134571275 
Si 2.2871177415 1.6544639578 1.4582234877 
Si 7.4178759670 10.1345738642 4.5455454231 
Si 1.1962052458 10.9259547718 1.6763208599 
Si 6.9451111741 1.7365193698 2.5825655400 
Si 7.1617820959 3.1468992491 0.6305900320 
Si 1.1699309487 2.4718430753 5.8759290406 
Si 0.3602477615 5.9712136302 2.5616289285 
Si 11.0696926624 7.4238233451 4.3077653352 
Si 4.5776980764 1.9519363957 2.4919169144 
Si 1.1813540560 0.2630995834 5.7973822365 
Si 11.3905864964 6.7114838977 6.3240530522 
Si 6.2757032840 5.0909671600 10.5497399682 
Si 10.3452744007 5.4202586459 10.7431850556 
Si 2.1865069699 6.9189749207 9.8371359373 
Si 9.1816244354 6.7123351666 5.4930191227 
Si 10.9754203924 2.7056659135 4.4699895635 
Si 0.8016536516 9.2330341699 4.5198463076 
Si 7.5243650949 10.8467637644 0.9718153864 
Si 9.4150331428 3.4059380501 0.0644478368 
Si 5.0543510971 5.7771473466 7.3502461104 
Si 10.8644678551 11.0022583675 6.9351260210 
Si 9.1412811956 11.2676816847 5.6651594823 
Si 3.3751658327 8.2472188625 5.0898973222 
Si 6.0693281134 5.0252123955 4.8021109430 
Si 11.4456773934 0.9126395495 0.2583566356 
Si 0.2490156859 7.9317547431 0.5724667774 
Si 6.2734715792 11.1041575459 2.6817153502 
Si 2.6990053101 6.6727396628 1.7606309839 
Si 5.2432867605 9.0450763153 0.3180639404 
Si 2.8973279378 6.4152998667 6.4161856465 
Si 10.6782700563 3.5731778623 8.4938682511 
Si 6.8513220568 1.1302710246 8.4352112280 
Si 8.5531234631 2.8244984392 7.9221952243 
Si 0.9224233891 10.1520133714 11.1014311850 
Si 5.2852865235 11.0455925519 7.5628102353 
Si 3.7905965202 5.1357047876 11.2045382448 
Si 3.6658511272 2.9178159076 0.2521607790 
Si 9.3467245718 1.0842967566 0.5682104333 
Si 0.3224893879 8.4119968972 9.6170599402 
Si 2.5960017830 8.6397458173 2.8757931374 
Si 0.3014837546 6.0977650935 9.0234379822 
Si 3.2670892035 10.0251283028 0.2901837362 
Si 7.2211983588 3.0145269477 4.6637797599 
Si 9.4514306366 7.5666754559 11.4488178851 
Si 6.8597197086 5.5431519540 2.8041715202 

