&CONTROL
   calculation      = 'scf'
   tstress          = .true.
   tprnfor          = .true.
   outdir           = './'
   disk_io          = 'none'
   pseudo_dir       = '/home/ppiaggi/pseudos'
/
&SYSTEM
   ecutwfc          = 30
   occupations      = 'smearing'
   degauss          = 0.01
   smearing         = 'fermi-dirac'
   input_dft        = 'PBE'
   ntyp             = 1
   nat              = 64
   ibrav            = 0
/
&ELECTRONS
   electron_maxstep = 100
   mixing_beta      = 0.5
/
&IONS
/
&CELL
/

ATOMIC_SPECIES
Si 28.085 Si_ONCV_PBE_sr.upf

K_POINTS gamma

CELL_PARAMETERS angstrom
11.40648650341619 0.00000000000000 0.00000000000000
0.00000000000000 11.40648650341619 0.00000000000000
0.00000000000000 0.00000000000000 11.40648650341619

ATOMIC_POSITIONS angstrom
Si 2.2876393072 2.2134172995 6.9971380482 
Si 0.9736303124 1.6064211202 3.2706845335 
Si 9.4552587027 1.3933479523 6.4626871231 
Si 3.8158347430 9.4002908442 11.2609169227 
Si 6.8249799474 10.9690477460 8.0455766617 
Si 5.7570818680 3.3744379347 3.5127073641 
Si 3.8819011128 0.3349195380 10.3051788250 
Si 6.6103098714 2.8318313718 11.2472405453 
Si 6.2715030028 9.5611337104 9.7821686059 
Si 3.8458794284 3.5399004280 5.4641062622 
Si 3.5859256010 7.6423573638 7.5411590155 
Si 9.5746503969 4.7784965779 2.4244715193 
Si 6.3960390225 6.1931176276 8.7517408346 
Si 8.2390762987 0.4833088022 3.6222780735 
Si 0.1633408867 0.9615040766 7.4607432857 
Si 5.7424017199 8.8363883710 7.7349324082 
Si 7.6298102286 6.6466395309 1.8179544124 
Si 3.5476910582 2.6587607521 9.3914394107 
Si 7.3948480131 6.8095697842 6.4805268680 
Si 1.5535976812 2.6019792622 1.1727236904 
Si 7.3484692390 9.5136142876 5.6084439424 
Si 1.5145760909 0.3801188814 0.5596033685 
Si 6.4516114247 0.8777508088 2.0947556204 
Si 7.4107258424 10.9134069048 0.1300419307 
Si 1.4703075168 3.6150691740 4.5303028381 
Si 0.4856494133 4.7068524362 2.6214501347 
Si 9.5472292034 6.6933262802 3.4761837943 
Si 3.9256335820 3.6664439892 1.4855123633 
Si 2.0603764701 0.1375941654 6.1576548610 
Si 0.6157187195 5.6296600073 6.0110929159 
Si 5.4347117464 5.0936235805 0.4472084131 
Si 10.6339479855 5.4473273205 9.7615456783 
Si 2.0244004117 6.8740848718 8.8137807147 
Si 9.6375457635 6.4966784529 6.3202087002 
Si 10.6954403543 2.7076261402 4.5405230500 
Si 2.0726612560 9.1232272871 3.9990799486 
Si 8.8629882975 9.5301879125 1.7409150026 
Si 8.7038678108 1.2577476408 11.2948170005 
Si 4.5517470327 5.4406203065 6.9208400600 
Si 11.2329368113 10.2511462985 5.9933330165 
Si 8.9822659268 10.4655996512 6.8576139053 
Si 4.5674195452 7.7594335412 5.3860402685 
Si 6.8783508978 4.6668612945 5.4218224167 
Si 11.1460650101 1.5891288867 11.2092227258 
Si 10.9196462530 10.1431953102 3.4342763629 
Si 6.2596402569 10.8134176442 4.0288166590 
Si 1.0945139750 6.8095013452 3.5554930950 
Si 6.4359959447 8.8014959287 0.3562690588 
Si 2.9865603612 5.8354216173 4.9392595987 
Si 10.1964864151 4.2015564906 7.9037141890 
Si 6.1688332178 3.9076455528 8.5937039641 
Si 8.1399653375 3.4497549651 6.9015060654 
Si 0.4619775318 9.7044334003 1.3920476129 
Si 5.4704824881 1.4732161708 9.1040415768 
Si 3.8226786349 6.8198470285 10.4428665236 
Si 3.2143250837 4.6284100285 10.9035517005 
Si 10.1095689880 10.6896002332 0.2227321807 
Si 0.1992952728 7.0860858300 10.6609357326 
Si 4.3250088940 9.3906523631 3.3636816180 
Si 1.2538694354 4.9439704776 8.3875659400 
Si 2.6222371823 9.6654574360 1.8920509488 
Si 7.8595710863 3.0360416996 4.3252940561 
Si 9.3440568658 7.0960550992 9.6497849235 
Si 7.8405108473 4.6659145561 1.0257305801 

