&CONTROL
   calculation      = 'scf'
   tstress          = .true.
   tprnfor          = .true.
   outdir           = './'
   disk_io          = 'none'
   pseudo_dir       = '/home/ppiaggi/pseudos'
/
&SYSTEM
   ecutwfc          = 30
   occupations      = 'smearing'
   degauss          = 0.01
   smearing         = 'fermi-dirac'
   input_dft        = 'PBE'
   ntyp             = 1
   nat              = 64
   ibrav            = 0
/
&ELECTRONS
   electron_maxstep = 100
   mixing_beta      = 0.5
/
&IONS
/
&CELL
/

ATOMIC_SPECIES
Si 28.085 Si_ONCV_PBE_sr.upf

K_POINTS gamma

CELL_PARAMETERS angstrom
10.87545438027437 0.00000000000000 0.00000000000000
0.00000000000000 10.87545438027437 0.00000000000000
0.00000000000000 0.00000000000000 10.87545438027437

ATOMIC_POSITIONS angstrom
Si 1.9460429314 2.2552864767 7.0384744449 
Si 2.0606267187 0.7755688910 3.0663452380 
Si 9.6627542132 1.1338966246 6.9039668251 
Si 3.9713679251 9.1960014621 10.7504627831 
Si 6.8568652322 0.3294751531 8.6547627240 
Si 4.6369674841 3.3707927079 3.5895307218 
Si 2.6172215984 10.8036546305 10.0060814326 
Si 4.9290495624 1.2160498070 0.9360090318 
Si 6.2669370848 8.4680964250 9.4703130480 
Si 2.3210612247 3.6867246576 4.6070926109 
Si 3.7657022074 7.7666513684 6.2860126318 
Si 8.6576120931 5.1890599257 2.0318176400 
Si 6.5237935664 5.7593035007 8.4056386905 
Si 6.5795737719 1.5569735509 2.6715662440 
Si 1.1304382301 10.7502670249 7.1659021439 
Si 5.2690271418 9.4278987759 7.2925250592 
Si 6.2952458926 6.2726575738 0.8299439878 
Si 2.3333722391 3.0624735762 9.1626464436 
Si 7.9775590552 6.6099924178 6.2875786972 
Si 1.3206173009 2.7615388781 2.0301863219 
Si 6.7935809632 9.5529338749 5.3654054185 
Si 0.4339784818 0.1140498025 9.2462569368 
Si 6.4708301035 9.6464192808 0.5411191081 
Si 7.9745574298 7.8441824827 0.6766261822 
Si 10.6287338222 3.4679648928 4.6183160799 
Si 0.4021329763 5.1024695580 2.7337847185 
Si 7.9219528570 7.3984193585 3.1791780772 
Si 3.7623525674 3.3608634180 1.3952881706 
Si 3.2124243412 0.3413424489 5.3313652463 
Si 0.8916600164 5.5047199891 5.9808256310 
Si 6.0546264644 3.5945878081 10.5115290503 
Si 9.9040152932 5.4962262592 9.2918903434 
Si 2.4020289826 7.4938405953 8.6738165201 
Si 9.9026667369 6.1403794222 5.2664061573 
Si 9.4759465333 1.6017042948 4.4866469537 
Si 2.1718717416 8.7903361383 5.1789566286 
Si 10.3593379417 7.8191906885 3.2120001985 
Si 8.7324134683 1.0584960118 9.6192958975 
Si 5.4974334347 4.7024703458 6.7475995421 
Si 10.4914529616 9.3180566867 5.9582699386 
Si 8.3671939593 9.6924768301 7.3643900618 
Si 5.6214571164 7.4756350846 4.9373692850 
Si 6.1570732447 5.0796746056 4.2133794115 
Si 0.0174765289 2.0325136691 10.8482548689 
Si 0.2293024303 10.3465375319 3.8822435765 
Si 5.9695912866 10.0940747340 2.9974709854 
Si 2.0240090638 6.6909928020 3.7887690461 
Si 5.1528446626 7.6701969635 2.4737961061 
Si 3.1567528902 5.4292769621 5.8703418899 
Si 9.5206990281 4.7333675117 7.1470658569 
Si 6.1679051972 2.8261608280 8.4079442868 
Si 8.1644972405 2.8353614624 6.6775833668 
Si 10.5826327711 9.5205793981 1.3162127418 
Si 4.3174466344 1.5962556921 9.6178712130 
Si 4.1100734703 7.1279794345 10.1259941926 
Si 3.5155558811 4.8134434823 10.3105615289 
Si 9.0957080219 9.7737708516 10.1720408664 
Si 10.7043073547 7.7848786299 9.5677027420 
Si 3.5462355380 10.1547380185 3.3879324240 
Si 0.2843246167 3.5440386962 8.2880315268 
Si 2.2054225183 10.0241455623 1.3663268356 
Si 8.3720987892 3.8672354494 3.9269525694 
Si 8.3840291627 7.7235628181 8.3987001506 
Si 8.4428109936 4.3030149065 10.5471244125 

