&CONTROL
   calculation      = 'scf'
   tstress          = .true.
   tprnfor          = .true.
   outdir           = './'
   disk_io          = 'none'
   pseudo_dir       = '/home/ppiaggi/pseudos'
/
&SYSTEM
   ecutwfc          = 30
   occupations      = 'smearing'
   degauss          = 0.01
   smearing         = 'fermi-dirac'
   input_dft        = 'PBE'
   ntyp             = 1
   nat              = 64
   ibrav            = 0
/
&ELECTRONS
   electron_maxstep = 100
   mixing_beta      = 0.5
/
&IONS
/
&CELL
/

ATOMIC_SPECIES
Si 28.085 Si_ONCV_PBE_sr.upf

K_POINTS gamma

CELL_PARAMETERS angstrom
11.46365194819149 0.00000000000000 0.00000000000000
0.00000000000000 11.46365194819149 0.00000000000000
0.00000000000000 0.00000000000000 11.46365194819149

ATOMIC_POSITIONS angstrom
Si 3.5016183422 1.2738066135 9.8670518231 
Si 0.9762640881 1.3905180540 3.2551612889 
Si 9.5253662131 0.7780208622 7.8966220080 
Si 5.2411472798 7.0899362840 0.5773404640 
Si 6.7940594273 10.3785829003 5.6161577259 
Si 4.1830751322 2.9627923097 5.1534618060 
Si 5.2286289718 10.8932206272 10.0529005485 
Si 8.9326610165 4.6805288449 1.7246835083 
Si 7.3746360802 11.3899406662 10.9592627261 
Si 3.2766671000 3.7726420015 7.1178273492 
Si 3.0895573729 6.0838059435 7.5031780095 
Si 10.8017750757 4.8069729259 3.2780198109 
Si 7.3342725617 4.9990693416 7.6621788620 
Si 7.1999873428 8.3113769355 4.1503005513 
Si 0.8269018742 0.1583451316 7.6572724190 
Si 5.7374546272 8.5871924014 6.0217646592 
Si 6.4172491877 8.6800594458 1.9154730677 
Si 4.0741589751 0.6047500558 7.6580978019 
Si 7.3949725987 6.7573413501 6.1744605031 
Si 2.4843567956 2.2684389112 1.7343817578 
Si 8.2360263512 10.3404089394 3.6396636389 
Si 1.1498730723 0.5453041422 0.7881249251 
Si 7.5933281684 2.8174561303 2.2377621785 
Si 6.4823856581 2.5743235361 0.0364838748 
Si 2.3925787981 1.8099157605 6.1218423407 
Si 0.6158927255 6.8229363665 2.8520075772 
Si 11.2270536356 8.4025932140 4.8837679303 
Si 4.4090122485 3.0016655534 2.8236579660 
Si 0.7213606161 0.2816263910 5.2720188945 
Si 0.7922197415 5.6889977704 4.6782017235 
Si 4.8710891312 4.7163412936 0.9000938527 
Si 10.3396752656 6.8577514775 10.4691572144 
Si 2.1403096733 4.1895177046 8.9427719575 
Si 9.8271927053 6.4137871648 5.8391716109 
Si 0.4756005529 3.2089513079 4.8156853014 
Si 1.7043928444 9.3961937830 4.8979026131 
Si 8.4431516146 10.1894326432 1.2029956354 
Si 10.4103142889 4.4602662364 11.3189233423 
Si 5.3697121364 6.6024215576 7.4268759421 
Si 10.4464706472 10.8813557475 6.4247464161 
Si 8.5228354593 0.5300918761 5.7604048584 
Si 3.6398699847 8.1724604012 4.7253975786 
Si 5.7542603410 4.6819044831 5.9908127989 
Si 10.2352299327 11.0351062474 0.5173293924 
Si 11.2065680896 8.6831087772 11.3171006217 
Si 6.2821385859 1.0426489502 2.9789789862 
Si 1.9582439531 7.7236698910 11.4520507324 
Si 3.7047313274 8.9031306490 0.6979277652 
Si 1.8447194079 7.3239667386 5.9698801705 
Si 8.9793295435 5.1233582560 9.5445334392 
Si 6.8614083825 0.7201569327 8.8486439113 
Si 7.9637990084 2.2623746393 7.6319262845 
Si 0.7220094588 11.0630890218 10.1670670582 
Si 5.9459555288 10.4011319037 7.6278222971 
Si 3.0840089654 5.6162379715 11.0064585812 
Si 4.6312809961 1.7385315999 0.7209869011 
Si 8.9646789964 1.8083681675 0.3220105441 
Si 1.4483980327 6.9176719862 9.4727939053 
Si 2.6710652949 7.8615776240 2.4240923773 
Si 11.3449114413 5.1162507918 9.2405747078 
Si 3.1780796932 10.9976086419 11.1545575007 
Si 6.2002537200 3.7477085586 3.9380854265 
Si 9.7093463633 7.3937918426 1.2358848529 
Si 7.4325275225 6.7015133651 1.2855797841 

