&CONTROL
   calculation      = 'scf'
   tstress          = .true.
   tprnfor          = .true.
   outdir           = './'
   disk_io          = 'none'
   pseudo_dir       = '/home/ppiaggi/pseudos'
/
&SYSTEM
   ecutwfc          = 30
   occupations      = 'smearing'
   degauss          = 0.01
   smearing         = 'fermi-dirac'
   input_dft        = 'PBE'
   ntyp             = 1
   nat              = 64
   ibrav            = 0
/
&ELECTRONS
   electron_maxstep = 100
   mixing_beta      = 0.5
/
&IONS
/
&CELL
/

ATOMIC_SPECIES
Si 28.085 Si_ONCV_PBE_sr.upf

K_POINTS gamma

CELL_PARAMETERS angstrom
11.44146825254590 0.00000000000000 0.00000000000000
0.00000000000000 11.44146825254590 0.00000000000000
0.00000000000000 0.00000000000000 11.44146825254590

ATOMIC_POSITIONS angstrom
Si 2.4316438062 2.6970629868 7.7513887947 
Si 0.7484425016 0.8619933533 3.7105024787 
Si 10.1929637954 1.7808530920 6.3872568593 
Si 4.9533662920 7.2747257858 0.6061541141 
Si 7.5466666032 9.8865612756 7.3835684733 
Si 5.3350536729 3.1038529490 4.1458045798 
Si 4.6737940153 11.1393677248 10.6322246445 
Si 8.0363500030 5.2241171968 11.2753266921 
Si 7.0292490844 11.4320633656 10.2618757586 
Si 3.1437951147 3.8003637704 5.7426216550 
Si 3.0882239034 7.9338344474 7.7080942788 
Si 9.4079646586 5.7907330290 2.4244814471 
Si 7.0944425705 5.7042584120 7.2086169822 
Si 8.0377000962 7.6696395040 3.8558091255 
Si 0.7111067024 1.0472318684 7.6662070635 
Si 5.3726961035 9.1660348124 6.8839653206 
Si 7.7925780804 8.1309709454 1.0245251305 
Si 4.1238369608 1.5507537240 8.9488185376 
Si 7.0919025646 7.3695869991 5.8514529011 
Si 1.9883555603 1.9995338748 1.3588345355 
Si 7.3752962917 9.8717216912 5.0777808178 
Si 1.4569794502 11.0334082873 1.7793657012 
Si 6.3959409337 1.7913334770 2.9182952169 
Si 7.3114300160 2.2181803331 0.5862757072 
Si 1.0282424636 2.8487997387 5.7598410648 
Si 0.3528937819 5.8896330806 1.9902205196 
Si 10.8038695512 6.9207038751 3.9170324221 
Si 4.5764728863 2.5893644461 1.9017550871 
Si 1.7046300305 11.4355415720 6.1206592076 
Si 0.2334494299 6.7539902412 6.5584326659 
Si 5.6245685856 4.8635507663 10.8816829768 
Si 10.5847311098 5.2653293654 10.8275419491 
Si 2.1411106029 6.9708060646 9.6109935127 
Si 9.5020478520 7.2995194475 5.8284441084 
Si 11.0152049113 2.5227751009 4.1054047554 
Si 1.3144645217 9.3006665693 4.7660808982 
Si 7.5818720010 10.3587621118 1.3907333490 
Si 9.6008334889 3.0017378449 11.2770200294 
Si 4.9052663595 5.9099073624 7.8771534137 
Si 10.9042684352 10.7476232933 6.4796810399 
Si 8.7338447906 0.0333628638 6.1206477661 
Si 3.1724102268 8.3966761626 5.5349361233 
Si 5.8482950558 5.2521831184 5.1899072067 
Si 0.2989220879 0.9576852171 0.4249178246 
Si 0.0425119194 8.2665866686 1.4121517776 
Si 5.9654328078 11.0198615889 2.8359166455 
Si 2.7954710552 6.3358617839 2.9453314064 
Si 6.2301082929 8.7263849533 10.8323244828 
Si 2.4586914372 6.2667095498 6.2540438445 
Si 11.0518290512 3.1780851950 8.3400981021 
Si 6.3735843048 1.7415974145 8.2635890039 
Si 8.3150527281 3.0165431048 7.8072689256 
Si 0.9622755342 9.7719749710 11.4184709014 
Si 5.3116901948 11.0988992516 7.9851837569 
Si 3.4412732893 5.7711566769 10.9914867476 
Si 3.6775167257 2.7959515969 10.7511243826 
Si 9.0840338094 0.7527685207 0.0804827201 
Si 11.4050958250 7.6495597272 10.3281333013 
Si 2.6787795205 9.3578853520 2.8983641792 
Si 0.1464256224 5.8504460519 8.5614333055 
Si 3.1332003151 9.8479005543 0.6664151833 
Si 7.6507954058 3.3578649857 4.0385865808 
Si 9.3874844304 7.1592356053 11.2117807774 
Si 6.8109344287 5.0570374359 2.3987038191 

