&CONTROL
   calculation      = 'scf'
   tstress          = .true.
   tprnfor          = .true.
   outdir           = './'
   disk_io          = 'none'
   pseudo_dir       = '/home/ppiaggi/pseudos'
/
&SYSTEM
   ecutwfc          = 30
   occupations      = 'smearing'
   degauss          = 0.01
   smearing         = 'fermi-dirac'
   input_dft        = 'PBE'
   ntyp             = 1
   nat              = 64
   ibrav            = 0
/
&ELECTRONS
   electron_maxstep = 100
   mixing_beta      = 0.5
/
&IONS
/
&CELL
/

ATOMIC_SPECIES
Si 28.085 Si_ONCV_PBE_sr.upf

K_POINTS gamma

CELL_PARAMETERS angstrom
10.60347218927853 0.00000000000000 0.00000000000000
0.00000000000000 10.60347218927853 0.00000000000000
0.00000000000000 0.00000000000000 10.60347218927853

ATOMIC_POSITIONS angstrom
Si 1.3732238728 2.3736614739 6.9485401534 
Si 1.6702695427 1.0716293133 3.0154790420 
Si 9.4596332303 1.1985528754 6.7765412310 
Si 4.3298006268 8.9268405632 0.2157509693 
Si 7.2571436080 0.0287003121 9.1882479631 
Si 3.9509597724 3.9537696926 3.5277327835 
Si 2.3749975114 10.5154951805 9.7701877238 
Si 4.5376498887 0.9931519553 0.6902340825 
Si 5.5622315959 8.0908840228 8.8441971010 
Si 2.0415713284 3.2162027706 4.7507796797 
Si 4.4681865424 7.6662679790 6.6660212404 
Si 7.9939046661 5.3087555932 1.8140950395 
Si 7.0242065310 5.4887071198 9.2219670047 
Si 5.9957969703 1.5647331840 2.4709271243 
Si 1.5137092759 10.2274412550 7.0272073136 
Si 5.1790539214 9.9188271970 7.0743715579 
Si 6.0131654577 5.7757219050 1.0319087065 
Si 2.7978215684 3.4544097733 8.3477001192 
Si 7.7946548202 6.4322040752 6.5587883262 
Si 0.8115367440 3.3036283988 1.5803308916 
Si 6.1396542775 9.8409659007 5.0894439779 
Si 0.0401575759 10.4906194348 8.7316624506 
Si 6.5248678186 9.3069750412 0.2459210287 
Si 7.6911649317 7.4353879755 0.2349877886 
Si 9.9771462940 4.3542522337 5.0153363108 
Si 0.1505173481 5.0764017071 3.0670225203 
Si 7.6207896867 7.8246520431 2.7700616782 
Si 3.0417120322 2.6994531569 1.8074148520 
Si 2.6063334641 0.9698444631 5.5087370787 
Si 1.6265196165 5.0880125092 6.0352100764 
Si 6.0801475915 3.4123139887 9.8322922604 
Si 10.4058128642 5.3043657557 9.1895946041 
Si 2.2037090216 8.3043637284 7.7629928523 
Si 9.2266431359 6.5761886240 4.6298576828 
Si 8.8177520414 1.7053246218 4.6432922821 
Si 2.2830972179 8.6592937530 5.4122454818 
Si 0.5812865868 7.4063768756 2.5396270206 
Si 7.9985065731 2.0194842958 10.0759494479 
Si 5.4120758262 3.5086359301 6.0641575555 
Si 10.3388307304 8.5505445422 4.6464309099 
Si 8.1867076010 9.4452761290 6.4394144362 
Si 6.1412447983 7.3247725536 5.0348679066 
Si 5.8324398777 5.0760093787 4.2991990061 
Si 0.1089994527 1.6000745568 10.5610583005 
Si 10.1760674323 0.0234618788 3.4248897067 
Si 6.5823386379 9.9703070544 2.6377833626 
Si 2.3454456344 6.3573223546 4.0010187647 
Si 5.3648691681 7.3750542188 2.6128652030 
Si 4.1278362920 5.2981415176 6.5830914844 
Si 8.6198806468 3.9968091862 7.6612949505 
Si 5.6815206580 1.2376160670 7.5236724850 
Si 7.4270960603 2.2970513873 6.3944875246 
Si 0.0544836091 9.4784756004 1.4432279962 
Si 4.0242403687 1.6810108601 9.2652291712 
Si 3.2887517273 7.0589965232 9.9675607551 
Si 3.7339385071 4.5247878769 10.3643638914 
Si 9.5795797077 8.7504624068 9.8848112582 
Si 10.4338590481 7.2507285073 8.0944043755 
Si 3.2983266627 9.3470455626 3.5383892730 
Si 0.3870468815 3.2025561019 8.7683398610 
Si 2.3444383045 10.0259328695 1.5128822050 
Si 7.8359871548 3.1205276410 3.2741719530 
Si 8.1091325984 7.9184503580 8.1338068782 
Si 8.6902770987 4.3767740086 10.4636972189 

