&CONTROL
   calculation      = 'scf'
   tstress          = .true.
   tprnfor          = .true.
   outdir           = './'
   disk_io          = 'none'
   pseudo_dir       = '/home/ppiaggi/pseudos'
/
&SYSTEM
   ecutwfc          = 30
   occupations      = 'smearing'
   degauss          = 0.01
   smearing         = 'fermi-dirac'
   input_dft        = 'PBE'
   ntyp             = 1
   nat              = 64
   ibrav            = 0
/
&ELECTRONS
   electron_maxstep = 100
   mixing_beta      = 0.5
/
&IONS
/
&CELL
/

ATOMIC_SPECIES
Si 28.085 Si_ONCV_PBE_sr.upf

K_POINTS gamma

CELL_PARAMETERS angstrom
11.56802231655565 0.00000000000000 0.00000000000000
0.00000000000000 11.56802231655565 0.00000000000000
0.00000000000000 0.00000000000000 11.56802231655565

ATOMIC_POSITIONS angstrom
Si 6.9606872523 1.2549800371 8.2474793507 
Si 8.9311957417 10.1679445756 5.3653065905 
Si 11.3823208543 10.2810682658 4.3466034093 
Si 10.7835831552 6.6630767421 5.3536691601 
Si 2.6738558143 0.8832161903 3.0046549805 
Si 5.5394168944 9.3806249767 0.7626704569 
Si 4.0008120862 9.1468121097 4.4162081996 
Si 4.2890177942 3.9084414280 11.4257009380 
Si 3.8800072292 11.0004025975 10.6076335358 
Si 0.1404496725 10.5589090258 7.9715010423 
Si 10.4713390969 8.1963833961 6.8777098282 
Si 9.8067562148 7.6082998456 3.3727494506 
Si 8.3634950465 1.4703303405 1.2120626743 
Si 9.1268457031 2.6206429116 7.1732612304 
Si 9.8443869914 4.3406343098 8.6563626675 
Si 3.5508738582 0.5756687490 6.5280547857 
Si 5.3829131205 0.2526097465 3.5567157095 
Si 7.7606506995 5.6236899370 1.7248036954 
Si 6.2128724496 9.2023848889 7.4326047227 
Si 5.8056780641 6.5751250685 0.5486088312 
Si 5.8710258221 11.5297552987 6.3077302326 
Si 0.7934321419 0.3314608570 10.1166635327 
Si 4.1378700146 8.4820672753 2.2159125148 
Si 2.4253399909 2.5054138413 7.1106897977 
Si 3.7672768517 3.9546903812 2.3741977642 
Si 0.9237944989 6.7780281799 7.1771249498 
Si 1.0094499202 11.3959595526 0.9216949029 
Si 6.5162091308 9.7130320980 4.0822278273 
Si 6.1863007024 0.1577403955 1.2867805304 
Si 9.3090998947 11.4518909405 7.4025278647 
Si 5.8452175644 2.9761860775 9.7292041932 
Si 2.4142115534 2.7672328904 4.5303151717 
Si 4.3621392633 10.8584513957 8.1729581509 
Si 7.6446465717 0.6832421021 10.5666596008 
Si 11.0752361339 5.8079106924 10.7845664371 
Si 6.2910722805 5.3526511741 10.2258309593 
Si 5.4980959187 0.5781605010 9.5941822367 
Si 7.4431547590 9.7173932424 10.8644551993 
Si 9.6434273077 4.6486907441 6.5132245810 
Si 11.5368002243 3.1670584458 3.4931262908 
Si 2.1870618672 10.9498156359 4.6685530384 
Si 8.9792261704 3.7081873937 0.8061349872 
Si 2.0840949006 3.5508507222 0.1034133766 
Si 1.2509890694 5.4457853218 0.7873103444 
Si 3.2523379063 6.1223873791 1.8162257758 
Si 2.9632761646 7.7990681016 6.5332719637 
Si 8.4842073594 5.3946893672 10.9926520226 
Si 1.5166718379 4.5819663913 8.0342691314 
Si 9.7048535062 1.7020146915 3.1571677867 
Si 7.3080865305 7.1457409053 3.4640905548 
Si 1.3299292536 6.4572816251 9.6196550218 
Si 11.4067178134 3.6587340983 1.0921612798 
Si 4.4482400534 2.2326051711 3.8728813274 
Si 2.8597423649 9.9134249486 0.8197089045 
Si 9.3478296335 3.0018902231 4.9331252768 
Si 1.4070879625 2.4373591661 9.2219695506 
Si 8.4008481906 9.4040617899 2.3992888046 
Si 8.4682319206 9.4967100807 8.3996798203 
Si 4.3806018269 8.1732126474 8.3938611051 
Si 8.0611879193 8.2495500267 6.4388884696 
Si 3.3131394316 8.3908071472 10.7414061459 
Si 0.8379886934 9.0950452098 6.2599774365 
Si 10.2198849958 0.2142328325 1.5445739077 
Si 5.3635366831 5.7917848693 2.6610268775 

