&CONTROL
   calculation      = 'scf'
   tstress          = .true.
   tprnfor          = .true.
   outdir           = './'
   disk_io          = 'none'
   pseudo_dir       = '/home/ppiaggi/pseudos'
/
&SYSTEM
   ecutwfc          = 30
   occupations      = 'smearing'
   degauss          = 0.01
   smearing         = 'fermi-dirac'
   input_dft        = 'PBE'
   ntyp             = 1
   nat              = 64
   ibrav            = 0
/
&ELECTRONS
   electron_maxstep = 100
   mixing_beta      = 0.5
/
&IONS
/
&CELL
/

ATOMIC_SPECIES
Si 28.085 Si_ONCV_PBE_sr.upf

K_POINTS gamma

CELL_PARAMETERS angstrom
11.88413520016333 0.00000000000000 0.00000000000000
0.00000000000000 11.88413520016333 0.00000000000000
0.00000000000000 0.00000000000000 11.88413520016333

ATOMIC_POSITIONS angstrom
Si 9.1722349682 1.2438173583 9.1319477498 
Si 10.6754235772 9.7475340691 3.7674610046 
Si 0.3950845095 10.9844110924 4.9864167521 
Si 10.8202198805 5.4275439666 4.4232038167 
Si 2.2419539896 11.5078002908 3.2066843169 
Si 8.2690644612 11.1884854621 0.9058634520 
Si 4.9155873063 8.0848603656 2.6132381416 
Si 5.1033091059 4.0335586759 9.9848959014 
Si 0.2500279436 9.7389774917 10.2590629005 
Si 10.4060577688 11.1493510049 9.7837450290 
Si 11.1041794070 7.7611246386 7.0558368669 
Si 8.6695954699 6.1111550757 4.0088753271 
Si 9.6997123090 1.2699149192 4.4755772005 
Si 8.9725339603 3.2416474427 10.1870925777 
Si 9.2535818736 5.6425279724 8.8227463202 
Si 4.3040178248 1.7986995150 5.8799967619 
Si 5.5224744386 0.0387920753 4.9227059033 
Si 7.6929810074 5.5990082693 2.0266253440 
Si 3.4112815885 0.5199107120 8.9932123555 
Si 5.4014582898 9.2269019901 11.7868279011 
Si 6.5619084397 1.1516653972 6.8281368365 
Si 2.1960931119 10.9674643156 10.7455043225 
Si 3.5745101855 8.0390470244 0.7602007952 
Si 2.0986432033 2.6041111257 5.5111013212 
Si 3.5813910998 2.3358861943 1.5166771025 
Si 11.4277368719 6.5969072179 9.1380799636 
Si 1.7635462430 0.5582501205 0.9831875777 
Si 7.0044974028 8.9701214808 1.8390580381 
Si 8.2974437761 11.1590959957 4.5671444622 
Si 8.0856922551 10.8549572077 10.5077621978 
Si 6.9560220154 3.7053188617 11.4706267159 
Si 3.4313895453 3.0257602426 3.7272926276 
Si 5.0676210479 2.1672978523 8.2848228245 
Si 9.8411335179 11.5071941999 2.5443933464 
Si 10.7568180192 4.8451262687 10.8935212264 
Si 6.5648557052 5.8280868594 11.2846281159 
Si 9.7501129264 0.6594577927 11.3467108381 
Si 5.7290325925 10.8841208755 10.0617624879 
Si 10.7572101957 5.4794182167 6.9788633232 
Si 11.6268317889 3.6910341311 2.9728283045 
Si 4.3715315968 10.6238820829 3.1084619395 
Si 8.9273742465 2.8545098544 2.9651630373 
Si 2.7538155769 4.1474086911 9.3943494551 
Si 3.1324203561 4.1090229344 11.6719439662 
Si 3.6549301284 4.6653074190 2.0220974884 
Si 0.2929712662 9.7722768386 6.8317377294 
Si 8.8195494878 6.1834462701 11.7969056478 
Si 1.4017693993 4.1705708706 7.0823979091 
Si 0.2903234809 1.2974742287 3.9268747942 
Si 6.5247110965 7.1500424066 3.7613050226 
Si 1.1987527176 5.5558213219 10.5288208854 
Si 9.9635995311 4.4540193793 1.2749419084 
Si 4.3772954024 0.8802460101 3.3539525203 
Si 3.3698059567 9.0078179577 10.3745410422 
Si 11.7074299939 3.8177071282 5.3659603780 
Si 2.6440774724 2.2491557756 7.6950844993 
Si 8.2451060447 8.9216223251 3.7789410792 
Si 7.1776136003 0.3200219347 8.7789413978 
Si 1.9252299024 9.9826141475 8.7952107789 
Si 9.8615742304 7.6516836376 5.0990664697 
Si 1.3993212674 7.7752786437 9.5830338696 
Si 10.1532822131 10.1857972070 5.9632688973 
Si 8.6963941947 2.5203755091 0.7106047338 
Si 5.0709842582 6.2195859253 1.2253256439 

