&CONTROL
   calculation      = 'scf'
   tstress          = .true.
   tprnfor          = .true.
   outdir           = './'
   disk_io          = 'none'
   pseudo_dir       = '/home/ppiaggi/pseudos'
/
&SYSTEM
   ecutwfc          = 30
   occupations      = 'smearing'
   degauss          = 0.01
   smearing         = 'fermi-dirac'
   input_dft        = 'PBE'
   ntyp             = 1
   nat              = 64
   ibrav            = 0
/
&ELECTRONS
   electron_maxstep = 100
   mixing_beta      = 0.5
/
&IONS
/
&CELL
/

ATOMIC_SPECIES
Si 28.085 Si_ONCV_PBE_sr.upf

K_POINTS gamma

CELL_PARAMETERS angstrom
11.88711974248829 0.00000000000000 0.00000000000000
0.00000000000000 11.88711974248829 0.00000000000000
0.00000000000000 0.00000000000000 11.88711974248829

ATOMIC_POSITIONS angstrom
Si 8.5273561056 0.8468895251 8.9079935669 
Si 10.0850561638 10.4078271261 4.2051637059 
Si 0.9407312032 10.2397313659 4.1392615140 
Si 10.4466623463 6.1222946037 5.4403899797 
Si 1.8171483337 0.1252296178 2.8025786732 
Si 7.5626806771 10.2244564170 0.4241146017 
Si 4.6709367187 8.3108084452 3.6292921899 
Si 4.8772971175 3.3143786137 10.7564287997 
Si 0.8251360959 10.3451106824 10.1199091989 
Si 10.7535045682 10.5540743603 8.8574733080 
Si 11.5604022564 8.8559993051 7.1065600055 
Si 8.1748554567 7.1235466996 5.2596938725 
Si 10.0447707150 1.5370521312 2.6548812104 
Si 10.1401529638 2.7476482929 9.1310078204 
Si 9.8427134536 4.9072645463 9.8423211786 
Si 4.4522612640 2.0504924942 5.5608778254 
Si 5.6763017581 0.2613787437 4.7906162403 
Si 6.6772566760 5.0174105979 1.9446495800 
Si 4.9546703799 11.0632710216 8.2379404012 
Si 5.0951761352 9.2436501670 0.2172264149 
Si 6.2752461734 0.5818257742 6.9459769049 
Si 2.4170199444 0.1251321434 9.5948075713 
Si 3.4017251696 8.5904172758 1.7594720287 
Si 2.1016784318 3.1459143527 5.6503402886 
Si 3.4480611623 2.7744180865 1.3602787735 
Si 0.0368957177 6.9696560474 8.5528183161 
Si 2.6421501052 11.4443007578 0.5086106263 
Si 6.5676930933 8.6224292893 2.1262372212 
Si 8.2193132846 0.0259934459 3.6253932147 
Si 8.3923659738 11.0732680893 10.3397495914 
Si 7.0060544081 2.3079675078 9.8070758686 
Si 3.5442398482 3.4493806326 3.6393605804 
Si 4.3249620986 1.4425138679 7.7752342652 
Si 9.0133491091 11.6348869487 1.5440893061 
Si 11.4457153251 5.2600029376 11.7127951315 
Si 6.9590527366 3.7379285773 11.7848073029 
Si 7.9080252799 1.1652147047 11.5192133865 
Si 6.1090166909 10.9200668901 10.5536107627 
Si 10.8692970017 5.1063381407 7.9722513879 
Si 9.9974480913 3.7624279311 4.1616092991 
Si 3.3857726549 10.3918151758 3.5651374047 
Si 8.6450742524 3.4236093570 2.3163241530 
Si 3.2696830435 4.6533437815 9.2255579708 
Si 2.6578648775 3.9251982617 11.5056026344 
Si 3.3155910999 4.9232764966 1.8578617188 
Si 1.7869550495 9.9400570771 6.3799835855 
Si 8.9751795676 5.0732087379 0.2207652104 
Si 1.0855519830 4.0837843262 7.7527913832 
Si 0.1246887538 2.1121034358 4.0514513605 
Si 6.5712948906 6.9351952873 3.8262023285 
Si 1.0849457399 4.8665511612 9.9669457420 
Si 10.3985195114 4.7842685184 1.9299452129 
Si 3.8137565141 1.2350836284 3.2650946153 
Si 2.5092639936 9.2854215058 11.5747737841 
Si 11.3342379161 3.8060536605 5.8762549993 
Si 2.1302312935 1.9853986265 8.0489589716 
Si 8.3942560258 8.8852178454 3.7616314940 
Si 7.1631426955 10.7946577768 8.3015127176 
Si 2.6460134191 10.1174129037 8.5441882671 
Si 10.2315411404 8.3274860742 4.9089049689 
Si 1.8365481131 8.3068738086 9.7946062800 
Si 11.5464467778 11.1094643689 6.0864311634 
Si 10.2454371833 3.0270788167 0.5008839985 
Si 4.5693969419 6.5247330426 2.3766631728 

