&CONTROL
   calculation      = 'scf'
   tstress          = .true.
   tprnfor          = .true.
   outdir           = './'
   disk_io          = 'none'
   pseudo_dir       = '/home/ppiaggi/pseudos'
/
&SYSTEM
   ecutwfc          = 30
   occupations      = 'smearing'
   degauss          = 0.01
   smearing         = 'fermi-dirac'
   input_dft        = 'PBE'
   ntyp             = 1
   nat              = 64
   ibrav            = 0
/
&ELECTRONS
   electron_maxstep = 100
   mixing_beta      = 0.5
/
&IONS
/
&CELL
/

ATOMIC_SPECIES
Si 28.085 Si_ONCV_PBE_sr.upf

K_POINTS gamma

CELL_PARAMETERS angstrom
11.90121044016855 0.00000000000000 0.00000000000000
0.00000000000000 11.90121044016855 0.00000000000000
0.00000000000000 0.00000000000000 11.90121044016855

ATOMIC_POSITIONS angstrom
Si 8.6068125758 0.8621343954 9.0802784307 
Si 10.4582719828 10.3848772180 4.1957836419 
Si 0.9350983363 10.3227648007 4.2362834610 
Si 10.6248175217 5.9291473377 5.3800254880 
Si 1.8236462782 0.1012809670 2.8418662386 
Si 7.4459447070 10.1179211666 0.5526612697 
Si 4.6109335657 8.5380711843 3.6426867879 
Si 4.7486424717 3.1260314403 10.5634429794 
Si 0.8127336610 10.3264184723 10.1544935863 
Si 10.7348799158 10.5332615098 9.0139529850 
Si 11.5403776408 8.9238965256 6.9913541719 
Si 8.4381843251 7.1661710520 5.2201684293 
Si 10.1194683240 1.5245212550 2.9204261287 
Si 10.2153563765 2.8934341834 9.2898944502 
Si 9.8543450590 4.9530576622 9.9243598800 
Si 4.6973601559 1.8325959884 5.6190255960 
Si 5.8033039385 11.8389671096 4.8610494043 
Si 6.6327945037 5.0040900526 1.9744822193 
Si 4.8029119913 11.1990033206 8.3791781237 
Si 5.0846850497 9.3239676157 0.0917768984 
Si 6.3898312926 0.9757742934 6.8397922569 
Si 2.3838362536 0.1150497154 9.7093526122 
Si 3.4389261639 8.4927870786 1.5272228297 
Si 2.3439314950 3.2601461807 5.4019356164 
Si 3.3339217842 2.7486916621 1.3840274657 
Si 0.0885467909 7.0057665377 8.6527988529 
Si 2.5176891674 11.4499522439 0.5658728034 
Si 6.7947223730 8.7188505709 2.0596710836 
Si 8.2582023196 0.1032027745 3.7231508717 
Si 8.4681158693 10.8181764877 10.3141602256 
Si 7.1693129716 2.4210870423 9.7913757545 
Si 3.4036628774 3.4144929789 3.4283221854 
Si 4.3728617520 1.4022601201 7.7812375088 
Si 9.1293352202 11.6055724716 1.5757559659 
Si 11.3575631473 5.5747292908 11.7659769859 
Si 6.9184116531 3.9695535326 11.7301781449 
Si 8.3294905701 1.0820556730 11.5108388365 
Si 5.8044345535 10.8760282716 10.4001226686 
Si 10.6678880023 5.1011087201 7.6075988485 
Si 10.0730774057 3.7895239223 4.3316478603 
Si 3.2906608843 10.6171055373 3.8556232451 
Si 8.5787733240 3.4308928469 2.5687572614 
Si 3.0488520906 4.4346647378 9.4163210087 
Si 2.6403192398 3.9451679524 11.4372298499 
Si 3.3150107608 4.8995855237 1.7143098579 
Si 1.4420220642 10.0204621543 6.4800067641 
Si 9.1994928557 5.1415847368 0.0501413467 
Si 1.0267495579 4.0823056003 7.5572210247 
Si 0.1388371408 2.0737383144 4.2604548194 
Si 6.5498668694 6.9318600209 3.6248111698 
Si 0.7546117195 4.8299872450 9.9592304266 
Si 10.3725237615 4.8527066558 2.0225274058 
Si 3.8176583838 1.1755979969 2.9926188712 
Si 2.4854011835 9.3966721103 11.5558135108 
Si 11.4214250425 3.7344689228 6.1439046801 
Si 2.2624201047 2.1242827551 8.2098596028 
Si 8.3322635522 8.8700197459 3.7059774250 
Si 7.1476765710 10.9647636967 8.2278066281 
Si 2.7822530755 9.9904949064 8.5136737029 
Si 10.2440620961 8.2157745044 5.2368658276 
Si 1.8039735773 8.1205886233 9.8116197135 
Si 11.3372953859 11.0746594739 6.0250829950 
Si 10.0595695318 2.8735829644 0.3602936745 
Si 4.6967174905 6.6730086938 2.2873174369 

