&CONTROL
   calculation      = 'scf'
   tstress          = .true.
   tprnfor          = .true.
   outdir           = './'
   disk_io          = 'none'
   pseudo_dir       = '/home/ppiaggi/pseudos'
/
&SYSTEM
   ecutwfc          = 30
   occupations      = 'smearing'
   degauss          = 0.01
   smearing         = 'fermi-dirac'
   input_dft        = 'PBE'
   ntyp             = 1
   nat              = 64
   ibrav            = 0
/
&ELECTRONS
   electron_maxstep = 100
   mixing_beta      = 0.5
/
&IONS
/
&CELL
/

ATOMIC_SPECIES
Si 28.085 Si_ONCV_PBE_sr.upf

K_POINTS gamma

CELL_PARAMETERS angstrom
11.72753375011346 0.00000000000000 0.00000000000000
0.00000000000000 11.72753375011346 0.00000000000000
0.00000000000000 0.00000000000000 11.72753375011346

ATOMIC_POSITIONS angstrom
Si 7.3291456722 1.7553186140 8.1212233017 
Si 9.7061056677 9.7834956630 4.4301110567 
Si 0.3736873082 10.7536793475 4.7256097246 
Si 9.5234610571 5.5081294141 5.4814844574 
Si 1.8320166848 0.1797737104 2.9908377497 
Si 7.5125525725 9.7500370092 1.2915650194 
Si 3.7938102580 8.7620743835 3.9586759275 
Si 4.4551610688 3.1416655613 11.4992103955 
Si 1.7404129187 10.5169121686 10.0187265349 
Si 10.3170398109 10.1516112198 9.1614555453 
Si 11.2254663027 8.5305728672 7.8516776660 
Si 7.4740745343 7.1223071595 5.8444047168 
Si 9.4577047754 1.3648738329 1.9758548862 
Si 9.2357611992 2.5244454600 7.3473350770 
Si 9.4764219192 4.4212567687 9.0283363097 
Si 4.3301690141 1.7817172925 5.4088206583 
Si 6.5293982356 0.7049162531 4.5049444496 
Si 7.4272699471 5.6641173405 1.2130491810 
Si 5.6793983170 10.0137188780 7.9444893681 
Si 5.4454809288 9.1400410687 0.6566457242 
Si 6.9335290487 11.5166140556 6.6540619194 
Si 1.0748378502 1.0264641190 10.3051011816 
Si 4.0020678024 7.6280101423 1.8158678708 
Si 2.0251808932 3.5931990657 5.9768554830 
Si 4.9197942284 3.5688175230 1.9858232899 
Si 0.8340821371 6.4672774894 7.8219600954 
Si 1.8838758390 11.5503541702 0.5273731197 
Si 6.0582093846 8.6766041175 2.8510690025 
Si 7.5938243814 11.6936646326 2.4819566052 
Si 9.3621253753 0.2350021851 8.6567494028 
Si 5.3782235227 2.1526122749 9.2682230126 
Si 3.0369855950 3.0650026731 3.7878643984 
Si 4.8838962476 0.4841430848 7.8655044283 
Si 7.6376501750 0.5113028802 0.3329270919 
Si 11.0855802802 5.0202288275 10.7330506156 
Si 6.6814691658 3.6113063778 11.3487930477 
Si 6.0358215227 11.7220569919 10.4504522349 
Si 6.5335732377 9.4577399580 10.0017333385 
Si 10.9622183526 4.4987757668 7.3797499803 
Si 10.0502853282 4.8527010079 3.3658608240 
Si 2.6134926237 10.8135014972 4.7510232902 
Si 9.1034277083 3.7627440211 1.3988015880 
Si 3.1544368455 4.3365957026 9.9327754401 
Si 2.3183105993 4.8781028460 0.3777626261 
Si 2.8589264501 5.3337409872 2.5808783524 
Si 1.8949231758 9.3913034793 6.0552305911 
Si 9.0098888991 4.6800482560 11.2158614526 
Si 1.4031994132 4.1526962458 8.2699284296 
Si 10.6324752862 2.4828478978 3.8286762159 
Si 7.1139219728 6.6654493547 3.5746578348 
Si 1.4540382720 6.0576581905 10.2324960201 
Si 11.3133407131 4.8722508066 1.4556332166 
Si 4.2766093675 1.3665274152 2.6976611335 
Si 2.7796131393 9.3898375376 0.2858152433 
Si 11.5209649706 4.3088600853 5.1064144730 
Si 1.3815386584 1.9253443984 7.9585272260 
Si 7.7589011465 8.7711514946 4.2849241889 
Si 8.1207659279 10.1403762425 8.2706789918 
Si 3.2200406693 9.4840330886 8.0468355551 
Si 9.7185720361 7.8687998652 5.8343190378 
Si 2.2996990032 8.3437415271 9.9390613982 
Si 0.0906407011 10.4571017465 7.1431118043 
Si 11.0798806988 2.5726456237 1.3157589216 
Si 5.3947124352 5.7051871637 2.1411075643 

