&CONTROL
   calculation      = 'scf'
   tstress          = .true.
   tprnfor          = .true.
   outdir           = './'
   disk_io          = 'none'
   pseudo_dir       = '/home/ppiaggi/pseudos'
/
&SYSTEM
   ecutwfc          = 30
   input_dft        = 'PBE'
   ntyp             = 1
   nat              = 64
   ibrav            = 0
/
&ELECTRONS
   electron_maxstep = 1000
   mixing_beta      = 0.5
/
&IONS
/
&CELL
/

ATOMIC_SPECIES
Si 28.085 Si_ONCV_PBE_sr.upf

K_POINTS gamma

CELL_PARAMETERS angstrom
11.02148312099075 0.00000000000000 0.00000000000000
0.00000000000000 11.07570526250357 0.00000000000000
0.00000000000000 0.00000000000000 10.88273271557958

ATOMIC_POSITIONS angstrom
Si -0.0289482819 -0.0138033216 -0.0164658900 
Si -0.0379344106 2.7734408514 2.7388629329 
Si 2.7338735910 0.0097156110 2.7551081367 
Si 2.6844488557 2.8652309134 0.0417051107 
Si 1.3459574750 1.3629791849 1.3544604705 
Si 5.4790758388 -0.0441111455 -0.0491293793 
Si 5.4193775310 2.8146772468 2.7511109021 
Si 6.8392968421 1.4456920318 1.4007494306 
Si 8.1980143344 0.0369605464 2.7732124049 
Si 8.1463349632 2.8031354607 0.0214146229 
Si -0.0227545855 5.6872385596 0.0433531999 
Si 2.7060199636 5.6864507559 2.7395764644 
Si 1.3959639195 7.0234442063 1.4049766796 
Si 4.1087246624 4.2831726692 1.4051871123 
Si 5.4512542373 5.6886073967 0.0418898556 
Si 6.8034162008 7.0958584669 1.3926616304 
Si 9.5263232475 4.1925986581 1.3911072318 
Si 8.2116754811 5.5964746849 2.7869875431 
Si -0.0153959788 8.5104168025 2.7251724538 
Si 2.7204617742 8.4842863912 0.0015420289 
Si 4.0901830546 9.9275938988 1.3653166885 
Si 5.4923275545 8.4866244047 2.7988441575 
Si 8.1384194069 8.4600384234 -0.0267663322 
Si 9.5262676704 9.8616655079 1.4135295544 
Si 0.0210918709 0.0129733477 5.5436299050 
Si 2.7621814571 2.8723988891 5.5320190878 
Si 1.3478786909 1.4333848660 6.8837092242 
Si 4.0963222106 1.4543569539 4.1501418756 
Si 5.4797672940 0.0403477951 5.5478398020 
Si 6.8231567854 1.3824514770 6.9392216196 
Si 9.5287148892 1.4477445110 4.1567190459 
Si 8.1759172571 2.8028252069 5.5492063477 
Si 1.4091988522 4.2408254035 4.1378029333 
Si 0.0477863310 5.6275305000 5.4957637045 
Si 1.3344207323 7.0600970087 6.8871201712 
Si 6.8446132754 4.1994149075 4.1467106236 
Si 4.0788713882 7.0944814995 4.1355963482 
Si 4.1191775194 4.1921820514 6.9039842392 
Si 5.4079392394 5.6652129453 5.5420339954 
Si 6.8026580981 7.0728507494 6.9469261707 
Si 9.5115290621 7.0988255964 4.2051114173 
Si 9.5149942155 4.2808447956 6.9763328126 
Si 1.3678143510 9.8776230530 4.1315742297 
Si 2.6762394288 8.4731988743 5.5468621946 
Si 6.8362076563 9.8338738625 4.1932255725 
Si 4.0815690831 9.8420693558 6.8980788869 
Si 8.1387660657 8.4469779884 5.5149380318 
Si 9.5451798485 9.8853852116 6.9128891691 
Si -0.0376782715 2.8645997812 8.3329050888 
Si 2.7508229160 0.0380096312 8.2883901400 
Si 4.0529096281 1.4311324098 9.7105378196 
Si 5.4740175663 2.8720884574 8.3610052861 
Si 8.2197535438 0.0079106078 8.2813151021 
Si 9.5244501718 1.3880373639 9.6669021050 
Si 1.3785747659 4.1976308890 9.6813691748 
Si 2.7331654475 5.6069949452 8.3312251021 
Si 6.7789286679 4.2421180197 9.6999579266 
Si 4.1150156170 7.1021642551 9.6934935704 
Si 8.2127365891 5.6861996124 8.2794442101 
Si 9.5318260089 7.0984416022 9.6616496264 
Si 0.0196296977 8.4231719160 8.3581126531 
Si 1.3663866178 9.9144727692 9.6624441422 
Si 5.4947014292 8.4812862606 8.2847291911 
Si 6.8011443967 9.8460377524 9.6780332293 

