&CONTROL
   calculation      = 'scf'
   tstress          = .true.
   tprnfor          = .true.
   outdir           = './'
   disk_io          = 'none'
   pseudo_dir       = '/home/ppiaggi/pseudos'
/
&SYSTEM
   ecutwfc          = 30
   input_dft        = 'PBE'
   ntyp             = 1
   nat              = 64
   ibrav            = 0
/
&ELECTRONS
   electron_maxstep = 1000
   mixing_beta      = 0.5
/
&IONS
/
&CELL
/

ATOMIC_SPECIES
Si 28.085 Si_ONCV_PBE_sr.upf

K_POINTS gamma

CELL_PARAMETERS angstrom
10.78282039435679 0.00000000000000 0.00000000000000
0.00000000000000 11.17876670735067 0.00000000000000
0.00000000000000 0.00000000000000 11.08992819626839

ATOMIC_POSITIONS angstrom
Si -0.0026622190 0.0086562649 -0.0245813928 
Si -0.0479374164 2.8731934991 2.7252357023 
Si 2.6839631361 0.0208056994 2.7266219367 
Si 2.6812936395 2.8206092752 0.0273266047 
Si 1.3857076562 1.4700228558 1.3918528011 
Si 5.3254128496 -0.0027276342 0.0137765896 
Si 5.3226814672 2.8803778287 2.7191719856 
Si 6.6632567335 1.4094101762 1.3768850819 
Si 8.0020908197 0.0060546372 2.7015114826 
Si 8.0107208189 2.7967669846 0.0225785727 
Si -0.0237640620 5.6587064664 0.0195554472 
Si 2.6439300016 5.7407306269 2.7567824882 
Si 1.3643433871 7.1616241223 1.3385334478 
Si 4.0602239379 4.2517887934 1.4061152160 
Si 5.3636889878 5.7382139564 -0.0150316599 
Si 6.7315698125 7.1108545866 1.3970053400 
Si 9.3704519993 4.2317753181 1.4026239670 
Si 8.0812727280 5.6535747476 2.6800761909 
Si 0.0130977520 8.5306238117 2.7431434592 
Si 2.6447500178 8.5724864002 0.0274909932 
Si 3.9778499963 9.9640833416 1.3330252292 
Si 5.3863433746 8.5555902570 2.6767036497 
Si 8.0576102104 8.5187936387 0.0318378472 
Si 9.3653366970 10.0120212942 1.3564422985 
Si -0.0341992434 0.0139857260 5.4758531192 
Si 2.6576309226 2.8900023940 5.4333996865 
Si 1.3137709968 1.3804429870 6.7676738650 
Si 4.0084217055 1.4639126560 4.0399848297 
Si 5.3940971751 0.0377127916 5.4931676955 
Si 6.7498814351 1.4624389820 6.7867265203 
Si 9.4141293857 1.3779158655 4.1095955050 
Si 8.0357879605 2.8648126148 5.4545859103 
Si 1.3135779195 4.3006138437 4.1039245794 
Si 0.0258720140 5.7112546579 5.4391491395 
Si 1.3490128397 7.1022979237 6.8384000493 
Si 6.7266426586 4.2543122212 4.1060467329 
Si 3.9767682365 7.0727251192 4.0755877498 
Si 3.9947012771 4.2699344702 6.7898213144 
Si 5.3422531137 5.7258622444 5.4622954222 
Si 6.7135060971 7.1613575026 6.7917964187 
Si 9.3369879020 7.0784285823 4.0947279245 
Si 9.3422803259 4.2745135620 6.8537762140 
Si 1.3800133068 9.9764077780 4.1258079016 
Si 2.6570528598 8.5874961001 5.4540310894 
Si 6.6734323428 9.9996504595 4.0508483743 
Si 4.0178378093 9.9791365924 6.7821031569 
Si 8.0232838776 8.4998531670 5.4486360730 
Si 9.3908237549 9.9271650503 6.7738335364 
Si 0.0359743139 2.8867688907 8.1934568996 
Si 2.7287302716 -0.0345959211 8.1388143129 
Si 4.0151812645 1.3829352064 9.5177983847 
Si 5.3772417125 2.8028603519 8.1604936417 
Si 8.0149340204 -0.0440768129 8.2003553168 
Si 9.4119968495 1.4216865099 9.4940929695 
Si 1.3625272041 4.3091148916 9.4974731463 
Si 2.6833375881 5.6502107146 8.1247375415 
Si 6.7418728268 4.2561552738 9.4963127629 
Si 3.9773897901 7.0909699433 9.5171051830 
Si 8.0703896474 5.6460122743 8.1292297329 
Si 9.3632135383 7.1655889192 9.5041531704 
Si -0.0112085991 8.5224272434 8.1759579522 
Si 1.3348314424 9.9860608864 9.5055792355 
Si 5.4060659304 8.5824716344 8.1955644196 
Si 6.6569238586 9.9842934820 9.4812197363 

