&CONTROL
   calculation      = 'scf'
   tstress          = .true.
   tprnfor          = .true.
   outdir           = './'
   disk_io          = 'none'
   pseudo_dir       = '/home/ppiaggi/pseudos'
/
&SYSTEM
   ecutwfc          = 30
   input_dft        = 'PBE'
   ntyp             = 1
   nat              = 64
   ibrav            = 0
/
&ELECTRONS
   electron_maxstep = 1000
   mixing_beta      = 0.5
/
&IONS
/
&CELL
/

ATOMIC_SPECIES
Si 28.085 Si_ONCV_PBE_sr.upf

K_POINTS gamma

CELL_PARAMETERS angstrom
10.76349345863837 0.00000000000000 0.00000000000000
0.00000000000000 11.02106746879903 0.00000000000000
0.00000000000000 0.00000000000000 10.91703172800686

ATOMIC_POSITIONS angstrom
Si -0.0190345600 0.0415774305 -0.0269318075 
Si -0.0146489213 2.7486276508 2.7464640321 
Si 2.6810545241 -0.0182040459 2.7835879562 
Si 2.6582983348 2.8156203367 -0.0202444661 
Si 1.3080967544 1.3932681945 1.3815846259 
Si 5.3633031132 0.0290705228 0.0309916629 
Si 5.3790386678 2.8441309978 2.7362709583 
Si 6.6961369217 1.4390885611 1.4306130165 
Si 8.1036706768 0.0504913256 2.7729114254 
Si 8.0876069607 2.8216938503 0.0427437206 
Si -0.0144026662 5.6353114602 0.0229270160 
Si 2.6965089432 5.6400111147 2.7327026563 
Si 1.3007253019 6.9981341417 1.4101083513 
Si 4.0339370637 4.1710937855 1.3882031229 
Si 5.4127581507 5.6227023188 0.0427441815 
Si 6.7614464997 7.0188990081 1.3655221838 
Si 9.4455857610 4.1466913739 1.4243969779 
Si 8.1053161102 5.6289983062 2.8111176668 
Si -0.0366257356 8.3427225549 2.7157978266 
Si 2.6748512159 8.3840139334 0.0000625196 
Si 4.0718700237 9.7646414135 1.3613561193 
Si 5.4108674698 8.4033908806 2.7477199010 
Si 8.0599651129 8.4402096594 0.0260806385 
Si 9.4125247176 9.8044869755 1.4108202277 
Si -0.0127509586 -0.0373124296 5.5358432758 
Si 2.6867538394 2.8328703681 5.5603471057 
Si 1.3008218173 1.3477319575 6.9107344277 
Si 3.9925879366 1.4367785839 4.1054903383 
Si 5.3983964136 -0.0096022307 5.4935369932 
Si 6.6963299930 1.3644148905 6.8992954142 
Si 9.3798478308 1.3545734893 4.1651197131 
Si 8.0696304558 2.8341056597 5.5799237110 
Si 1.3318273018 4.1778174515 4.1297952122 
Si 0.0382174855 5.5491594985 5.4830961393 
Si 1.3551823660 7.0032849308 6.9225188473 
Si 6.7116610139 4.2361137535 4.1237777907 
Si 3.9974374503 7.0324201307 4.1769011887 
Si 4.0523979037 4.1707716237 6.9310808907 
Si 5.3433566309 5.6153043188 5.5561835026 
Si 6.6973599407 6.9684200437 6.8755469779 
Si 9.4645214934 7.0233394709 4.1523171863 
Si 9.4169408536 4.2203107959 6.9209105991 
Si 1.3202631428 9.8393058919 4.1266050102 
Si 2.7146087117 8.4125599491 5.5252298094 
Si 6.7067463860 9.8059834890 4.1851184549 
Si 4.0052043819 9.8241472943 6.9127526981 
Si 8.0343844257 8.3668501932 5.4853721160 
Si 9.4596254515 9.8334114200 6.9231047832 
Si -0.0246997479 2.7697180482 8.3199713236 
Si 2.6995386350 -0.0079091265 8.3290926529 
Si 4.0544466432 1.3802053134 9.6743452931 
Si 5.4137714734 2.8109162941 8.3198595925 
Si 8.0257706249 0.0159592146 8.2479237113 
Si 9.3777786291 1.4141741292 9.6955935689 
Si 1.3468036917 4.1506540385 9.6410618530 
Si 2.6832714715 5.6142396642 8.3106192146 
Si 6.7074764538 4.1818978150 9.7180799398 
Si 4.0529293834 6.9498184736 9.6793139925 
Si 8.0637695090 5.6158790749 8.2793096159 
Si 9.3893500768 6.9596245648 9.7054658763 
Si -0.0171242956 8.3587167772 8.3120775196 
Si 1.3624555655 9.7479246382 9.7287773651 
Si 5.4217191725 8.3543125640 8.3389320781 
Si 6.6893871529 9.8231520240 9.6487748832 

