&CONTROL
   calculation      = 'scf'
   tstress          = .true.
   tprnfor          = .true.
   outdir           = './'
   disk_io          = 'none'
   pseudo_dir       = '/home/ppiaggi/pseudos'
/
&SYSTEM
   ecutwfc          = 30
   occupations      = 'smearing'
   degauss          = 0.01
   smearing         = 'fermi-dirac'
   input_dft        = 'PBE'
   ntyp             = 1
   nat              = 64
   ibrav            = 0
/
&ELECTRONS
   electron_maxstep = 1000
   mixing_beta      = 0.5
/
&IONS
/
&CELL
/

ATOMIC_SPECIES
Si 28.085 Si_ONCV_PBE_sr.upf

K_POINTS gamma

CELL_PARAMETERS angstrom
11.30238262456685 0.00000000000000 0.00000000000000
0.00000000000000 11.05415945807466 0.00000000000000
0.00000000000000 0.00000000000000 10.53506761258152

ATOMIC_POSITIONS angstrom
Si 0.1869040670 -0.0787659899 -0.0182366486 
Si -0.0348625211 2.6503647658 2.8409855920 
Si 2.9644570523 -0.0470683389 2.9202419806 
Si 3.0780389388 2.7288132656 0.0210785525 
Si 1.5587169638 1.1920339546 1.3452959744 
Si 6.0552871375 -0.0776782882 -0.0688916826 
Si 5.9184824496 2.5993762158 2.7508214499 
Si 7.4223037718 1.2430418574 1.4662719147 
Si 8.8888074701 -0.1474852425 2.7566516358 
Si 9.0394219981 2.8502212266 -0.1967907995 
Si 0.0206340514 5.4762023940 0.1341455644 
Si 3.1457404828 5.4135160268 2.5581302724 
Si 1.3797101446 6.9333610835 1.5421622472 
Si 4.6227260023 4.0407264978 1.4897791483 
Si 5.7849456676 5.5157602549 0.1891113228 
Si 7.5019863131 6.8807900874 1.2981939239 
Si 10.3062766461 4.1720985231 1.5553629975 
Si 9.0603969683 5.4420347149 2.6916306293 
Si -0.1454092162 8.2814142683 2.9237644500 
Si 2.7623056878 8.2115740768 0.1779476385 
Si 4.3201284863 9.7144142148 1.5362362149 
Si 5.9965821189 8.1918144090 2.7507515338 
Si 9.0470646778 8.3728584334 0.0858713394 
Si 10.3571590678 9.6488886204 1.2612705079 
Si 0.0732761726 -0.0014143773 5.4565840410 
Si 2.8469415632 2.8561612179 5.4023430949 
Si 1.6417834878 1.5612000211 6.7562773227 
Si 4.6326505680 1.2508757219 4.2330451748 
Si 6.0968695543 0.1974569180 5.6005897870 
Si 7.5187776219 1.3502245066 6.9990999840 
Si 10.2534610873 1.4325507107 4.1201662165 
Si 8.8068555303 2.5535579738 5.6435432729 
Si 1.4021520627 4.2404007705 4.3041406630 
Si -0.2020871658 5.5417839436 5.6453816119 
Si 1.5731249073 6.7510445456 7.0153170209 
Si 7.5721440746 4.2022356965 4.0487119424 
Si 4.6003346501 6.8272713000 3.9868220080 
Si 4.4926402177 4.1572679412 6.9722472467 
Si 5.8192324369 5.4520181624 5.5158744788 
Si 7.5316572878 6.7162596045 6.8795448418 
Si 10.5220670680 6.7241394590 4.2716125846 
Si 10.4462605542 4.2154807549 6.9260285827 
Si 1.5102039021 9.5120915555 4.2103429759 
Si 2.8059372352 8.3573235486 5.3362304241 
Si 7.3171809883 9.4479058609 4.0884306980 
Si 4.5556775161 9.6510523131 7.0013873087 
Si 8.8893634949 8.1769722670 5.4418320982 
Si 10.2377060798 9.5890249150 6.8839380767 
Si -0.1988748876 2.7138424960 8.0156315380 
Si 3.0819145193 -0.0471538987 8.3439970185 
Si 4.6471142574 1.2803173146 9.6502832102 
Si 6.0710043015 2.5905519347 8.1601132324 
Si 8.9565920243 0.1702847228 8.1073712127 
Si 10.5161029626 1.2253876520 9.6151932727 
Si 1.3708887787 3.8934359917 9.7393067431 
Si 3.0791343523 5.6078458908 8.0714455545 
Si 7.4850250791 4.1940193295 9.4320874043 
Si 4.5156554172 6.9153512741 9.5708619147 
Si 8.7490701886 5.2994741202 8.2646896414 
Si 10.5005644958 6.9902201774 9.5985428245 
Si 0.0405873644 8.3148686364 8.2268702923 
Si 1.3648207114 9.5688200438 9.4818973496 
Si 5.7472667440 8.0521662280 8.0281047723 
Si 7.4340619693 9.3798903379 9.3885789984 

