&CONTROL
   calculation      = 'scf'
   tstress          = .true.
   tprnfor          = .true.
   outdir           = './'
   disk_io          = 'none'
   pseudo_dir       = '/home/ppiaggi/pseudos'
/
&SYSTEM
   ecutwfc          = 30
   occupations      = 'smearing'
   degauss          = 0.01
   smearing         = 'fermi-dirac'
   input_dft        = 'PBE'
   ntyp             = 1
   nat              = 64
   ibrav            = 0
/
&ELECTRONS
   electron_maxstep = 1000
   mixing_beta      = 0.5
/
&IONS
/
&CELL
/

ATOMIC_SPECIES
Si 28.085 Si_ONCV_PBE_sr.upf

K_POINTS gamma

CELL_PARAMETERS angstrom
11.04288399085613 0.00000000000000 0.00000000000000
0.00000000000000 10.44371317326734 0.00000000000000
0.00000000000000 0.00000000000000 11.24756176985187

ATOMIC_POSITIONS angstrom
Si 0.0914706620 -0.0506940260 -0.2001617323 
Si 0.0408133119 2.6223993851 2.7180802479 
Si 2.7777290480 -0.0025223455 2.9251350468 
Si 2.8778546878 2.6890648862 0.1705820240 
Si 1.4485886589 1.1634991867 1.2789134179 
Si 5.4883898145 -0.0526047918 0.0789910075 
Si 5.4737597374 2.4580525759 2.8326889790 
Si 6.9088376767 1.4496628357 1.4331247384 
Si 8.4820917225 -0.0204872722 3.0799395094 
Si 8.6229337983 2.7382627437 0.2047780217 
Si 0.0116562501 5.3085118399 0.0854557267 
Si 2.8393113995 5.1361396409 2.9927666565 
Si 1.4138962111 6.5591743024 1.5165226680 
Si 4.3372146214 3.9495191240 1.2725803674 
Si 5.7498538389 5.2458803724 -0.0446470431 
Si 7.1682701036 6.3679585282 1.5994683628 
Si 9.8910828285 4.0110550544 1.2972725398 
Si 8.6248104485 5.1174639624 3.0721359658 
Si -0.1163461113 7.7018404550 2.9553562099 
Si 2.8919359027 7.8246136677 -0.2049735660 
Si 4.3036285538 8.8563256185 1.4117542430 
Si 5.4266850022 7.8264272305 2.8163108291 
Si 8.4082757939 7.8713765841 -0.1365846140 
Si 9.8682084740 9.1836217825 1.5700097098 
Si 0.0367954979 -0.1240695422 5.8424135586 
Si 2.7794137107 2.4962847211 5.6280037731 
Si 1.3909383952 1.2466603608 7.1869062050 
Si 4.0554692854 1.3310617802 4.5097826179 
Si 5.6874650545 0.1244449708 5.8465972555 
Si 7.0552790455 1.2057545702 7.0516704077 
Si 9.9260345506 1.3770167264 4.2392482165 
Si 8.6009257709 2.4781096710 5.6160165410 
Si 1.5325637558 3.7562396412 4.1207460105 
Si -0.0929037909 5.2057175738 5.8195875231 
Si 1.5596212069 6.5969218881 7.3921545552 
Si 6.8464564042 4.0376738803 4.4907466804 
Si 4.3281436003 6.4155918279 4.5162377785 
Si 4.1846289756 3.8812771393 7.0700651780 
Si 5.7174607204 5.0571936928 5.6770178562 
Si 7.0264142475 6.2924650141 7.2666479312 
Si 9.7033015613 6.5365469513 4.4329628538 
Si 9.6799165532 3.8131710973 7.1722176255 
Si 1.3466147455 8.9368182151 4.4512939883 
Si 2.7884834140 7.6263644023 5.5996988912 
Si 6.9827342231 8.9010382281 4.3341016279 
Si 4.2515369281 9.2054487928 7.1344876372 
Si 8.5452757016 7.6663112048 5.7757280684 
Si 9.8993991463 9.0711280016 7.1742911963 
Si 0.1688684327 2.4276255669 8.7501115552 
Si 2.9108892048 0.1059400833 8.7047372839 
Si 4.1148014869 1.2168741315 9.9388159757 
Si 5.4746571606 2.4159699371 8.5914355221 
Si 8.2943200445 0.0552064960 8.5277882101 
Si 9.9571255778 1.3255227351 10.0994380832 
Si 1.2581605346 3.9213570767 10.0994219581 
Si 2.6676087225 5.2600517876 8.7536815051 
Si 7.0987806919 3.7454036544 10.1440555599 
Si 4.4144498639 6.3600316671 10.2659621188 
Si 8.3273986209 5.1497344588 8.7856481968 
Si 9.9365030228 6.4485407103 9.9978239272 
Si 0.0676557349 7.5837777021 8.5906685478 
Si 1.4179191184 8.9011375124 10.2416686287 
Si 5.7672865160 7.6545609140 8.7747763174 
Si 6.9125708698 9.1308490645 10.2092580531 

