&CONTROL
   calculation      = 'scf'
   tstress          = .true.
   tprnfor          = .true.
   outdir           = './'
   disk_io          = 'none'
   pseudo_dir       = '/home/ppiaggi/pseudos'
/
&SYSTEM
   ecutwfc          = 30
   occupations      = 'smearing'
   degauss          = 0.01
   smearing         = 'fermi-dirac'
   input_dft        = 'PBE'
   ntyp             = 1
   nat              = 64
   ibrav            = 0
/
&ELECTRONS
   electron_maxstep = 1000
   mixing_beta      = 0.5
/
&IONS
/
&CELL
/

ATOMIC_SPECIES
Si 28.085 Si_ONCV_PBE_sr.upf

K_POINTS gamma

CELL_PARAMETERS angstrom
11.20387487335426 0.00000000000000 0.00000000000000
0.00000000000000 11.24633429319550 0.00000000000000
0.00000000000000 0.00000000000000 11.27300202732711

ATOMIC_POSITIONS angstrom
Si -0.0930893985 0.0347777379 0.0814275592 
Si -0.0144462711 2.9494591659 2.6137677708 
Si 3.0236448206 -0.1917452200 2.6529000305 
Si 2.8971896974 2.8509811458 -0.0170672545 
Si 1.5037772376 1.5463755559 1.2571374145 
Si 5.8924149829 -0.0525741196 0.0652832568 
Si 5.7169414617 3.0528548945 2.7200787408 
Si 7.2840791261 1.3685956821 1.3126978587 
Si 8.6006950258 0.0933036456 2.7323610819 
Si 8.7685108390 2.7694201918 0.0722171856 
Si 0.0002582566 5.8497757570 -0.1486232035 
Si 3.0064712548 5.9521813320 2.6597267949 
Si 1.3885959227 7.3694186671 1.4396753947 
Si 4.2998985210 4.3694112940 1.2890201993 
Si 5.6352905416 6.0093198119 -0.0347211048 
Si 7.4294698588 7.3170284329 1.3347217715 
Si 10.2534253875 4.3817447780 1.4436119173 
Si 8.7734525404 5.7911137680 2.7140213256 
Si -0.0644407499 8.6049839868 2.5245533831 
Si 2.8633155800 8.6975239695 0.0066805619 
Si 4.2806193873 9.9941966140 1.2207761275 
Si 6.0193044213 8.5884001605 2.7241327880 
Si 8.7027669279 8.6150552334 -0.1400593999 
Si 10.0767163684 10.1886929322 1.3325652155 
Si -0.0147692316 -0.1900078594 5.2608150518 
Si 2.9176335105 3.0127544105 5.4850766930 
Si 1.6375032813 1.4689777313 6.7077358644 
Si 4.1584784959 1.5751085320 3.9093522946 
Si 5.9726570742 0.1421895791 5.3280324073 
Si 7.3842304421 1.5971777737 6.6527426000 
Si 10.0403034016 1.4422717763 4.1703005141 
Si 8.6874419458 2.9341167903 5.4346739543 
Si 1.4624536690 4.2571570676 4.1867476414 
Si -0.0531095348 5.7693730755 5.3546712574 
Si 1.6350753749 7.4534049534 6.6610056542 
Si 7.0827311512 4.5293066733 4.2126283022 
Si 4.3223927305 7.1980654989 4.0628030249 
Si 4.3677805246 4.3589692720 6.7858771816 
Si 5.6596191381 5.9987652601 5.2414471370 
Si 7.2617381241 7.3897318433 6.9596068731 
Si 9.9878427904 7.2387366715 3.9311579997 
Si 9.9947049888 4.4238683326 6.6849170197 
Si 1.6359969595 10.3895245521 4.0018594268 
Si 2.7308004093 8.8237772208 5.6103666120 
Si 7.3003957889 10.0747126268 4.0651268742 
Si 4.5551098497 10.1985534101 6.9334820260 
Si 8.6966078625 8.7462079163 5.3783200677 
Si 10.2512160727 10.1560288121 6.7735882036 
Si -0.0505935202 3.0340493766 8.0446065539 
Si 2.7420086701 0.1527753430 8.3103863636 
Si 4.3705162874 1.4971022805 9.4215865786 
Si 5.8432345002 2.9269557597 8.2786937392 
Si 8.7880945858 -0.0426505472 8.2129739648 
Si 10.0726131151 1.5164516442 9.4967105931 
Si 1.6222720838 4.4757275874 9.5075608967 
Si 2.7965376604 5.7848989928 8.1577825790 
Si 7.1630003255 4.2418609262 9.6804078150 
Si 4.3596092789 7.3728714168 9.3264613739 
Si 8.7543139822 5.9053148380 8.3072415833 
Si 10.0852221680 7.2832772097 9.6001161492 
Si 0.0628028338 8.9123288120 8.1583273090 
Si 1.6100587182 10.1975592147 9.4488771645 
Si 5.8589070635 8.6071834264 8.0397991843 
Si 7.0799765829 10.3716263746 9.5683519146 

