&CONTROL
   calculation      = 'scf'
   tstress          = .true.
   tprnfor          = .true.
   outdir           = './'
   disk_io          = 'none'
   pseudo_dir       = '/home/ppiaggi/pseudos'
/
&SYSTEM
   ecutwfc          = 30
   occupations      = 'smearing'
   degauss          = 0.01
   smearing         = 'fermi-dirac'
   input_dft        = 'PBE'
   ntyp             = 1
   nat              = 64
   ibrav            = 0
/
&ELECTRONS
   electron_maxstep = 1000
   mixing_beta      = 0.5
/
&IONS
/
&CELL
/

ATOMIC_SPECIES
Si 28.085 Si_ONCV_PBE_sr.upf

K_POINTS gamma

CELL_PARAMETERS angstrom
11.38341833873723 0.00000000000000 0.00000000000000
0.00000000000000 11.32314099792137 0.00000000000000
0.00000000000000 0.00000000000000 10.98457897747193

ATOMIC_POSITIONS angstrom
Si 0.0972287562 0.1079785647 0.0008711361 
Si -0.0320598937 3.0419081890 2.9880075976 
Si 2.9748343202 -0.1431131620 2.9432539336 
Si 2.6681334970 2.9167301748 -0.1440387604 
Si 1.4648068471 1.3709577485 1.5259593509 
Si 5.5252901721 -0.1847426894 -0.0335008394 
Si 5.7929098742 2.7380691587 2.8863373065 
Si 7.2643370211 1.3315098373 1.3330908552 
Si 8.5269306860 -0.1548889869 3.0062298315 
Si 8.6980947480 3.0230964841 0.1083063000 
Si -0.1335873299 5.6068705233 0.0017856948 
Si 3.0182111256 5.5293373005 2.9062479943 
Si 1.2804655564 7.1933006245 1.5185075203 
Si 4.2007797444 4.1372814149 1.2737450983 
Si 5.6474721746 5.5677107536 -0.1430301884 
Si 7.1457141372 7.3178576585 1.6032781342 
Si 10.0728973680 4.1832540375 1.2329581466 
Si 8.5461648599 5.8974923322 2.6567504110 
Si 0.0601872268 8.3964130171 2.6718070901 
Si 2.7596207039 8.5886804468 0.0594754400 
Si 4.4135540597 10.0675687593 1.5459415820 
Si 5.6830452220 8.3388338253 2.7189403196 
Si 8.3619316947 8.4871055475 0.2047143750 
Si 9.7130494454 9.8523317888 1.2778632945 
Si -0.1709380750 0.0449666547 5.5086798249 
Si 2.7327213997 2.7237490232 5.7154612825 
Si 1.5813984540 1.4516289319 6.9939807325 
Si 4.1391841349 1.3371443748 4.3423992887 
Si 5.5904556170 -0.1094190782 5.8495733568 
Si 7.1096767516 1.5323401273 6.9765863541 
Si 10.1099007219 1.4289324128 4.1597131057 
Si 8.5724471256 3.0468813132 5.6627324589 
Si 1.5039672959 4.1496183951 4.3603256870 
Si 0.0152872341 5.8121996036 5.9051811457 
Si 1.5170967544 7.3140278945 7.2363059188 
Si 7.2752263559 4.2189628937 4.2222112554 
Si 4.2192764898 7.0794187777 4.1693163295 
Si 4.3315867224 4.2255141443 7.0179847169 
Si 5.7604376064 5.5988334787 5.9043195551 
Si 6.8937721715 7.1222368091 7.1592745651 
Si 10.0733241753 7.1823193964 4.1161844065 
Si 9.7161477831 4.1420416268 7.2436447262 
Si 1.5941139931 9.7804947120 4.2577651549 
Si 2.9569553801 8.6703111527 5.6089425326 
Si 6.9688076968 9.8762409814 4.1883075748 
Si 4.3175396488 9.8131228143 7.3256051650 
Si 8.4738318992 8.4944322117 5.7424613238 
Si 9.7165728215 10.0301149840 7.0148195612 
Si 0.2038963326 2.9683000067 8.4056718916 
Si 2.6843458299 0.1694951792 8.7336701345 
Si 4.4006001050 1.5687341653 10.1046219979 
Si 5.5595258327 2.7716377129 8.6938247027 
Si 8.3127389984 0.0385125213 8.4845349058 
Si 9.7455552437 1.2261018623 10.0056243983 
Si 1.3071399876 4.2762971906 10.0579508907 
Si 2.6674806359 5.7284265658 8.6101282835 
Si 6.9700602469 4.3049761513 9.9148549420 
Si 4.2044346885 6.9937757078 10.0533215501 
Si 8.6328993685 5.5432816411 8.3489452662 
Si 10.0414802839 7.1016234766 9.8145416021 
Si -0.0232456604 8.6314956129 8.5240123999 
Si 1.4212825675 10.0501205098 10.0496125885 
Si 5.7289139902 8.6069057596 8.6554163841 
Si 7.2254470787 9.9225757878 10.0046314870 

