&CONTROL
   calculation      = 'scf'
   tstress          = .true.
   tprnfor          = .true.
   outdir           = './'
   disk_io          = 'none'
   pseudo_dir       = '/home/ppiaggi/pseudos'
/
&SYSTEM
   ecutwfc          = 30
   occupations      = 'smearing'
   degauss          = 0.01
   smearing         = 'fermi-dirac'
   input_dft        = 'PBE'
   ntyp             = 1
   nat              = 64
   ibrav            = 0
/
&ELECTRONS
   electron_maxstep = 1000
   mixing_beta      = 0.5
/
&IONS
/
&CELL
/

ATOMIC_SPECIES
Si 28.085 Si_ONCV_PBE_sr.upf

K_POINTS gamma

CELL_PARAMETERS angstrom
11.25252522572472 0.00000000000000 0.00000000000000
0.00000000000000 11.02644255407844 0.00000000000000
0.00000000000000 0.00000000000000 11.01181380100750

ATOMIC_POSITIONS angstrom
Si -0.1629776995 -0.0559866381 -0.0393189995 
Si -0.0534246609 2.9884831291 2.4898543727 
Si 2.7630535144 0.1357475524 2.6314326373 
Si 2.6401612038 2.9498539854 0.0914584527 
Si 1.5056684441 1.3719634179 1.1851391870 
Si 5.3557195452 -0.0055838452 0.1240495026 
Si 5.2147760377 2.7772676596 2.5839544102 
Si 6.6147221192 1.4870682337 1.3542201595 
Si 7.9328903007 0.1025626209 2.8221249198 
Si 8.0576919463 2.6540967734 0.1532964729 
Si -0.0388616168 5.6155998142 0.1106432393 
Si 2.7864168972 5.6489086321 2.5875408714 
Si 1.4167111457 6.8595771718 1.4127252154 
Si 3.8890157364 4.0701471216 1.5098108741 
Si 5.4281902619 5.7746131124 -0.1617852801 
Si 6.5804977549 7.1071367790 1.1953240047 
Si 9.5075885899 4.3111192009 1.1755097279 
Si 8.1868668687 5.6545663438 2.5942266076 
Si -0.0391978979 8.5617659393 2.7713991444 
Si 2.6467565630 8.5262978212 -0.0324725006 
Si 4.0184269100 9.8862357348 1.4451213106 
Si 5.1818958958 8.3580499794 2.6157695473 
Si 7.9759498052 8.4721923354 -0.0120833764 
Si 9.3637883694 9.8565139532 1.1968132463 
Si 0.0361795466 0.1972317797 5.5345676869 
Si 2.8377880135 2.6010162715 5.2892947988 
Si 1.2976961034 1.6017106045 6.5343286879 
Si 4.1245778549 1.5962561916 4.1813040661 
Si 5.3043304665 0.0628507133 5.4302099987 
Si 6.8523645514 1.2012818097 6.7933265562 
Si 9.5284776511 1.5564499982 4.0693769508 
Si 8.1380592437 2.6097406425 5.3218368887 
Si 1.3369495314 4.2101212565 4.1495311467 
Si -0.0989495453 5.5105252057 5.4368670137 
Si 1.4842969877 7.2057228080 6.7020124438 
Si 6.6884430756 4.3151353927 4.0828746281 
Si 4.1113846006 7.0902532686 4.0122050902 
Si 3.8754384033 4.0767869728 6.7653365196 
Si 5.3244102601 5.5774086860 5.2859506365 
Si 6.7167760502 6.8148549014 6.8316195202 
Si 9.4750838199 6.9465017356 4.1003171300 
Si 9.4419605090 4.1579718805 6.8912803084 
Si 1.1550576564 9.6406830367 3.8769757817 
Si 2.8732105582 8.3166151155 5.3402234628 
Si 6.7269881208 9.8019512260 4.1570509114 
Si 3.8378175393 9.7514821279 6.7633324867 
Si 7.8568534736 8.2641139849 5.2877298019 
Si 9.5660657833 9.7098895638 6.7210298847 
Si -0.1479531431 2.9980739006 7.9262623509 
Si 2.8466071241 0.0630508965 8.0381156344 
Si 3.9193201201 1.5653018646 9.2115660576 
Si 5.5285348223 2.7403483760 8.0725829025 
Si 8.1997373931 0.1332962480 7.9674316766 
Si 9.2636758914 1.5497825170 9.5388500240 
Si 1.5185018427 4.1607678444 9.5443516937 
Si 2.6922845120 5.4044567953 8.2200348967 
Si 6.8264422770 4.1094287372 9.4450162106 
Si 4.0852428368 7.0121680097 9.4005600486 
Si 7.9860449800 5.5735676110 7.9698629288 
Si 9.4555917472 6.8287152226 9.5901156787 
Si 0.1151192432 8.4335693869 8.1409458188 
Si 1.2308901116 10.0014285198 9.4070357688 
Si 5.2206974038 8.2214276676 7.9589735831 
Si 6.6404833865 9.8242468721 9.4610475838 

