&CONTROL
   calculation      = 'scf'
   tstress          = .true.
   tprnfor          = .true.
   outdir           = './'
   disk_io          = 'none'
   pseudo_dir       = '/home/ppiaggi/pseudos'
/
&SYSTEM
   ecutwfc          = 30
   occupations      = 'smearing'
   degauss          = 0.01
   smearing         = 'fermi-dirac'
   input_dft        = 'PBE'
   ntyp             = 1
   nat              = 64
   ibrav            = 0
/
&ELECTRONS
   electron_maxstep = 1000
   mixing_beta      = 0.5
/
&IONS
/
&CELL
/

ATOMIC_SPECIES
Si 28.085 Si_ONCV_PBE_sr.upf

K_POINTS gamma

CELL_PARAMETERS angstrom
11.38184268284925 0.00000000000000 0.00000000000000
0.00000000000000 11.18995067789344 0.00000000000000
0.00000000000000 0.00000000000000 11.52755334198242

ATOMIC_POSITIONS angstrom
Si -0.0874626130 0.0605514214 -0.0787494145 
Si -0.1829786135 3.0017460165 2.8706483061 
Si 2.8542892523 -0.0683257743 2.9630142964 
Si 2.9058835051 2.8566483059 -0.0834347277 
Si 1.3399633951 1.6172776421 1.3989949464 
Si 5.7557200107 -0.0406235509 0.1438283286 
Si 5.8270411350 2.9993120383 2.7042172111 
Si 7.2726882891 1.5117456673 1.4267237075 
Si 8.9145202234 0.1383463916 2.7182131450 
Si 8.7592564769 3.0262350553 0.1660461531 
Si -0.1526466467 5.7256336135 -0.0148560561 
Si 3.0336721554 5.8173334223 2.8236407712 
Si 1.2853263263 7.0248769275 1.6173609080 
Si 4.6092382448 4.0696646611 1.5505535588 
Si 6.0030624241 5.4629908701 0.1836726278 
Si 7.3077838018 7.0002449161 1.6323291111 
Si 10.4228228863 4.3315759592 1.5285781290 
Si 8.6333751237 5.5327869386 3.0535505309 
Si 0.0142919221 8.5948456603 3.0350481471 
Si 2.9614359133 8.5511885489 -0.2079731152 
Si 4.4073811008 10.0016752390 1.4289918795 
Si 5.7133688080 8.6806044798 2.8653467372 
Si 8.7587212925 8.4702225612 -0.1619930401 
Si 10.3488420419 9.7799952780 1.5307985066 
Si -0.1904177212 0.0494942308 5.9324757815 
Si 3.1076906583 2.7680753745 5.8781143249 
Si 1.3936259208 1.3151180607 7.3441800725 
Si 4.5340594903 1.5913704026 4.1351266458 
Si 5.9861754568 0.1896265576 5.9367575422 
Si 7.5534092708 1.5013881704 7.2944561553 
Si 10.2520729836 1.5085344980 4.3594707702 
Si 8.8629579821 2.9341933729 5.6534944257 
Si 1.6591670289 4.4215036185 4.1798620238 
Si -0.1386625752 5.6171246339 5.8519853266 
Si 1.6203852754 7.1855615936 7.4381278232 
Si 7.2174187444 4.3774406866 4.2862139596 
Si 4.5564128907 6.8766632843 4.2077151916 
Si 4.2850930723 4.1316290073 7.3612504861 
Si 5.8701991337 5.7214978332 5.9970268443 
Si 7.5507507848 7.0806841591 7.4013682127 
Si 10.4491777522 7.0483496776 4.3276834435 
Si 10.1710391688 4.2110971572 7.0934766053 
Si 1.3681704961 9.8400289469 4.4062044887 
Si 3.0414705929 8.6624912755 5.8890974061 
Si 7.5011568422 9.8643972588 4.5403007543 
Si 4.3073237914 9.8463624367 7.2624583200 
Si 8.6644927923 8.4103843565 5.8536423441 
Si 10.4446888911 9.8519890085 7.0986075777 
Si 0.0287035651 2.6526315152 8.5488798929 
Si 2.7724172571 0.1205648986 8.5661470135 
Si 4.5093646260 1.2957917250 10.0319564285 
Si 5.9073195445 2.7153736770 8.6657191518 
Si 8.6190423540 0.1629496305 8.8808850376 
Si 10.4606393885 1.3268366261 10.2111552942 
Si 1.5045467321 4.1763605122 10.1124115361 
Si 3.0580399811 5.4720536506 8.8672138036 
Si 7.1931284228 4.1387635628 9.9378672303 
Si 4.5610951114 7.0627294404 9.9636471712 
Si 8.7194287326 5.7989387894 8.8589126240 
Si 10.1759357963 6.9101589317 10.3451600446 
Si 0.1764212587 8.6553083220 8.6180191454 
Si 1.4618993002 9.9167718156 10.1689894867 
Si 5.6978857169 8.4025957834 8.5480692685 
Si 7.3372372328 9.7676316844 9.9598490641 

