&CONTROL
   calculation      = 'scf'
   tstress          = .true.
   tprnfor          = .true.
   outdir           = './'
   disk_io          = 'none'
   pseudo_dir       = '/home/ppiaggi/pseudos'
/
&SYSTEM
   ecutwfc          = 30
   occupations      = 'smearing'
   degauss          = 0.01
   smearing         = 'fermi-dirac'
   input_dft        = 'PBE'
   ntyp             = 1
   nat              = 64
   ibrav            = 0
/
&ELECTRONS
   electron_maxstep = 1000
   mixing_beta      = 0.5
/
&IONS
/
&CELL
/

ATOMIC_SPECIES
Si 28.085 Si_ONCV_PBE_sr.upf

K_POINTS gamma

CELL_PARAMETERS angstrom
10.55888994250418 0.00000000000000 0.00000000000000
0.00000000000000 11.36663265726820 0.00000000000000
0.00000000000000 0.00000000000000 11.21182000372554

ATOMIC_POSITIONS angstrom
Si -0.0229981320 0.1833473335 0.0869968084 
Si 0.0111319730 2.9532889087 2.9288063361 
Si 2.4273172354 -0.1730141758 2.8616444065 
Si 2.4235998978 2.9060265281 0.0889481502 
Si 1.3290592816 1.5292300154 1.6009823266 
Si 5.2402003629 -0.1679119813 -0.0202948278 
Si 5.1974016792 2.7221665108 2.8265268007 
Si 6.6128881163 1.4326075441 1.4559147832 
Si 7.5656451765 0.2007772502 2.8949573508 
Si 7.6869564236 2.6874298934 0.2056241488 
Si 0.1438453580 5.7077130973 0.1865885625 
Si 2.5214821089 5.7376030354 2.9528529768 
Si 1.4323559945 7.0557476905 1.4551199168 
Si 3.9267697850 4.3938328272 1.4249063198 
Si 5.0849331564 5.6515400321 0.1212955530 
Si 6.3671688925 6.9173397675 1.5995782086 
Si 8.9540891758 4.3102597704 1.4236718193 
Si 7.6856777745 5.8277981060 2.7845875523 
Si -0.1350018199 8.3377968979 3.0906926928 
Si 2.6933242829 8.3763529722 0.0992680343 
Si 3.7467289127 9.9862868941 1.3173716910 
Si 5.0134715884 8.4975553896 2.8553351444 
Si 7.8928922152 8.4116311665 -0.0208427267 
Si 9.0213714138 10.0747369318 1.2475154938 
Si 0.0143695562 -0.0145656877 5.6367089417 
Si 2.7075575776 2.9714135506 5.9083350214 
Si 1.4649574769 1.5008230983 7.0938047176 
Si 3.9335976005 1.5522261215 4.4651112620 
Si 5.0184305509 -0.0903890559 5.6608210659 
Si 6.3309494470 1.6153764307 7.1634617170 
Si 8.9883341491 1.6127296924 4.5273757756 
Si 7.5526550530 2.8852764084 5.9553505501 
Si 1.4732032564 4.3430926132 4.3230599499 
Si -0.0188242593 5.8446013399 5.9433278564 
Si 1.2855368532 7.1312127654 7.0420714499 
Si 6.4628524362 4.2353081454 4.1324913214 
Si 3.8481291763 7.2241617835 4.3188107665 
Si 3.9725853112 4.3184050450 7.3285608465 
Si 5.2481786431 5.6242844901 5.8772707460 
Si 6.4862812950 7.2462426333 7.3432328167 
Si 8.9091429820 7.1933800885 4.1886318543 
Si 8.9053897898 4.1736029117 7.1499603026 
Si 1.1946697256 9.6872297920 4.3343741227 
Si 2.5398016414 8.6197414180 5.6315458125 
Si 6.3295096855 9.8169180933 4.3172586145 
Si 3.8882759326 10.0021824834 7.1389098395 
Si 7.8527857538 8.3120767384 5.9700913697 
Si 9.0416471869 9.8291620136 7.3667700074 
Si 0.1264050965 2.7828469240 8.4763775278 
Si 2.6936340858 -0.1189782677 8.5576374525 
Si 3.9835652182 1.5537223641 9.9282428289 
Si 5.2043372746 2.6579464852 8.8655118608 
Si 7.5748136738 -0.1485509905 8.5469506586 
Si 8.9262429010 1.5746741592 9.9775361081 
Si 1.2687808057 4.0687890810 10.2903652030 
Si 2.6407963026 5.7607659705 8.4892805165 
Si 6.4394960907 4.4041954598 9.9977070877 
Si 4.0225645058 6.8873578636 10.2812881678 
Si 7.6493735551 5.4726593063 8.6251044801 
Si 9.1408079839 6.9852658504 10.0485842133 
Si -0.1565447114 8.5828050619 8.8635935057 
Si 1.4388900637 10.0504095621 10.2967870510 
Si 4.9601767473 8.3065783126 8.7904976725 
Si 6.4205541222 9.9785631469 10.2189076764 

