&CONTROL
   calculation      = 'scf'
   tstress          = .true.
   tprnfor          = .true.
   outdir           = './'
   disk_io          = 'none'
   pseudo_dir       = '/home/ppiaggi/pseudos'
/
&SYSTEM
   ecutwfc          = 30
   occupations      = 'smearing'
   degauss          = 0.01
   smearing         = 'fermi-dirac'
   input_dft        = 'PBE'
   ntyp             = 1
   nat              = 64
   ibrav            = 0
/
&ELECTRONS
   electron_maxstep = 1000
   mixing_beta      = 0.5
/
&IONS
/
&CELL
/

ATOMIC_SPECIES
Si 28.085 Si_ONCV_PBE_sr.upf

K_POINTS gamma

CELL_PARAMETERS angstrom
11.19326333869436 0.00000000000000 0.00000000000000
0.00000000000000 10.72684107156288 0.00000000000000
0.00000000000000 0.00000000000000 10.73883566891576

ATOMIC_POSITIONS angstrom
Si 0.1672582278 -0.0981015758 0.0671348333 
Si -0.1820977642 2.6046868722 2.3885340767 
Si 2.6256405172 -0.1575646027 2.6925199727 
Si 2.5978062771 2.9273203194 0.1457949884 
Si 1.3376609280 1.4018390972 1.2106277580 
Si 5.5039473960 0.1560259257 0.0641693522 
Si 5.4580727011 2.8646040398 2.7132571542 
Si 6.7883548427 1.3405860207 1.1806572026 
Si 8.1737849952 0.0140466471 2.6278058502 
Si 8.2543396475 2.9451146657 0.1512429712 
Si -0.0007176548 5.4994226608 -0.0545561629 
Si 2.8887109278 5.5542786461 2.3880639813 
Si 1.3582526068 6.9053161359 1.2652331768 
Si 4.0145735471 4.0302740969 1.2252644903 
Si 5.5165191417 5.3489134436 0.1374724673 
Si 7.1151555111 6.9649446362 1.0936904302 
Si 9.7065535825 4.2254716738 1.3825782622 
Si 8.2594239614 5.6244467080 2.7297504467 
Si 0.1804111843 8.3872522340 2.6543225251 
Si 2.8774114328 8.2614807993 -0.0037543570 
Si 4.0320993046 9.6859615599 1.4129442778 
Si 5.3650748861 8.1658124182 2.4432849811 
Si 8.5015556396 8.3812730197 0.1272388651 
Si 9.8783924615 9.6272281901 1.2271015778 
Si -0.1619096808 -0.0621796731 5.0770105811 
Si 2.6321289028 2.7494745722 5.1579545745 
Si 1.4941579266 1.3967283373 6.3891865757 
Si 3.9740171125 1.3020031620 3.8600311445 
Si 5.5638978861 -0.0792185074 5.1637434267 
Si 6.7447636494 1.1988545569 6.5125181699 
Si 9.7259769762 1.2491057454 3.7561149024 
Si 8.4635196274 2.6150424526 5.0186663392 
Si 1.4493978595 4.2706233578 3.7609874016 
Si 0.1193819121 5.5338311702 5.1902488952 
Si 1.3093086218 6.7679003033 6.5456986666 
Si 6.8560524540 3.9439561530 3.7043502290 
Si 4.1720124845 6.7265165739 3.9940998710 
Si 4.0546242641 4.1644680689 6.5416950200 
Si 5.6545807904 5.3544023186 5.0402335142 
Si 7.0183034348 6.8382294544 6.4604932968 
Si 9.7769338358 7.0701007828 3.8732901234 
Si 9.8356354109 4.1087402945 6.2568180808 
Si 1.2423894189 9.7686879635 3.8168491445 
Si 2.6486873654 8.3645144505 5.3047515184 
Si 7.0883411447 9.6160895402 3.8194192581 
Si 4.1575114295 9.5157161275 6.4113945319 
Si 8.2240882872 8.2085870819 4.9911358809 
Si 9.7217056989 9.6145878176 6.5401974516 
Si -0.1444783677 2.5986444245 7.8081244923 
Si 2.9541022532 -0.0176280025 7.6923766950 
Si 3.9953690527 1.3068339970 8.9089973380 
Si 5.4306158101 2.8262880599 7.5053741811 
Si 8.3628520586 0.0071331589 7.5810049283 
Si 9.7565294927 1.4340816596 9.0332907843 
Si 1.2074871662 3.9613632737 8.9750163867 
Si 2.8590871723 5.4373405223 7.6409761891 
Si 6.8196213033 4.1475773579 9.0231775877 
Si 4.2907362473 6.8000719537 9.0386556848 
Si 8.1815462337 5.5793848309 7.7392067395 
Si 9.8535217223 7.0915434071 8.7950994708 
Si 0.0567045552 8.2618879953 7.8242936541 
Si 1.3738919075 9.6547799192 8.8091398235 
Si 5.3755858874 8.1657740695 7.6538122170 
Si 6.7514089633 9.8039280342 9.1361250179 

