&CONTROL
   calculation      = 'scf'
   tstress          = .true.
   tprnfor          = .true.
   outdir           = './'
   disk_io          = 'none'
   pseudo_dir       = '/home/ppiaggi/pseudos'
/
&SYSTEM
   ecutwfc          = 30
   occupations      = 'smearing'
   degauss          = 0.01
   smearing         = 'fermi-dirac'
   input_dft        = 'PBE'
   ntyp             = 1
   nat              = 64
   ibrav            = 0
/
&ELECTRONS
   electron_maxstep = 1000
   mixing_beta      = 0.5
/
&IONS
/
&CELL
/

ATOMIC_SPECIES
Si 28.085 Si_ONCV_PBE_sr.upf

K_POINTS gamma

CELL_PARAMETERS angstrom
11.09251687731559 0.00000000000000 0.00000000000000
0.00000000000000 10.69577694101333 0.00000000000000
0.00000000000000 0.00000000000000 11.39379461887204

ATOMIC_POSITIONS angstrom
Si 0.0027075392 0.1689542911 0.1289359665 
Si 0.1891020589 2.4215375740 3.0195633517 
Si 2.9220265294 0.1309781211 2.8437966903 
Si 2.6853666016 2.5632551099 -0.1299258603 
Si 1.5757241144 1.3051280918 1.4519769066 
Si 5.3887547972 0.0048267117 -0.1436443513 
Si 5.6276374525 2.5116517134 3.0295441747 
Si 6.7897314162 1.1489583573 1.5732977789 
Si 8.5087440872 0.0160659340 2.8471638896 
Si 8.3980273003 2.5722360424 0.0827863861 
Si -0.1204770112 5.2876973387 -0.0483489826 
Si 2.7523656226 5.0983004400 2.7384429710 
Si 1.5514814632 6.2756843888 1.2233901181 
Si 4.1595537116 3.7027741234 1.4065511103 
Si 5.5526744341 5.2065342275 -0.0154275742 
Si 6.7862573482 6.4717238627 1.2866269694 
Si 9.8147734272 3.9664388196 1.4144982267 
Si 8.2663984100 5.0203357308 2.8409939659 
Si -0.0089500295 7.6610781915 3.0278181113 
Si 2.7534350888 7.7011500333 0.1254795504 
Si 4.0387212254 8.8212588988 1.5233882550 
Si 5.4977696523 7.8555253570 3.0427849458 
Si 8.4227266223 7.8024653615 -0.0086729454 
Si 9.9195684903 8.9507549521 1.4243152697 
Si 0.0321350346 0.1766949136 5.8358823135 
Si 2.9085070431 2.5176426173 5.7296664831 
Si 1.2428860214 1.3762624701 6.9466599247 
Si 4.2185348660 1.1847735940 4.4646053604 
Si 5.6431495739 0.0939898055 5.6142400263 
Si 6.8532102081 1.3214493231 6.9278635398 
Si 9.7216606656 1.4022220478 4.1055475342 
Si 8.2717411835 2.5347205504 5.7225543148 
Si 1.3429152783 4.0036032424 4.4750222241 
Si -0.0827511034 5.2922103998 5.5808103867 
Si 1.2534665780 6.4801454318 7.1417537037 
Si 6.7810088030 4.0238532598 4.2728406436 
Si 4.0681053465 6.2548111185 4.3385123882 
Si 4.2550995458 4.0277683711 7.3131774461 
Si 5.4478563691 5.2882517077 5.8427342476 
Si 6.9162605012 6.5722246092 7.0886915837 
Si 9.6678516462 6.4415105381 4.0857892640 
Si 9.7128354642 3.8717759327 7.2336881984 
Si 1.2645789537 8.8995809788 4.3253601218 
Si 2.6157911185 7.6565098162 5.5481426246 
Si 6.8585250009 9.0054292196 4.2238536004 
Si 4.2226199624 9.0440315891 7.1567690520 
Si 8.2860766284 7.8506278397 5.7066708713 
Si 9.5800893152 8.8340375012 7.0159757319 
Si 0.0557354615 2.5569953878 8.7218979280 
Si 2.7911690129 0.1473898066 8.4243976013 
Si 4.3202428455 1.3538769035 10.1137580042 
Si 5.4288339109 2.5043733085 8.6721758957 
Si 8.2782429936 -0.1746146512 8.5077727606 
Si 9.8016632124 1.3697914131 10.0342575561 
Si 1.5824537930 3.9133856883 10.1446117509 
Si 2.7607440119 5.0871386608 8.6386063632 
Si 6.9165162464 3.8242467360 9.7711630209 
Si 4.1660961056 6.4050841954 10.0402484492 
Si 8.3460111034 5.0800285002 8.3809338264 
Si 9.8771560584 6.5748500967 9.9561150823 
Si 0.1092658855 7.5906832417 8.4393099395 
Si 1.4113158605 8.9363037625 9.9385612066 
Si 5.7005161344 7.7912624044 8.3630365943 
Si 6.9976395872 9.1386947248 10.1087652758 

