&CONTROL
   calculation      = 'scf'
   tstress          = .true.
   tprnfor          = .true.
   outdir           = './'
   disk_io          = 'none'
   pseudo_dir       = '/home/ppiaggi/pseudos'
/
&SYSTEM
   ecutwfc          = 30
   occupations      = 'smearing'
   degauss          = 0.01
   smearing         = 'fermi-dirac'
   input_dft        = 'PBE'
   ntyp             = 1
   nat              = 64
   ibrav            = 0
/
&ELECTRONS
   electron_maxstep = 1000
   mixing_beta      = 0.5
/
&IONS
/
&CELL
/

ATOMIC_SPECIES
Si 28.085 Si_ONCV_PBE_sr.upf

K_POINTS gamma

CELL_PARAMETERS angstrom
11.09934147391779 0.00000000000000 0.00000000000000
0.00000000000000 11.49107913656810 0.00000000000000
0.00000000000000 0.00000000000000 11.30919498019024

ATOMIC_POSITIONS angstrom
Si 0.0665367703 -0.0811456334 0.1474879549 
Si -0.1778883983 2.9515188583 3.0905084438 
Si 2.9025420239 -0.1637275023 3.1504299750 
Si 2.8668301767 2.9573587129 0.0657936625 
Si 1.5818015357 1.2225030443 1.3936630022 
Si 5.5814572062 0.0395504204 0.0913892634 
Si 5.7287262825 2.9288005704 2.9368744547 
Si 7.0864114497 1.3625268156 1.3630949120 
Si 8.2731441505 -0.1840776534 3.0333577558 
Si 8.4203031463 2.9712310517 0.0168400727 
Si 0.0118939053 5.7129834567 0.1133967550 
Si 2.8921259842 5.5272208941 3.1458514491 
Si 1.5077080419 6.7903485840 1.6688680766 
Si 4.0941054389 4.2602426026 1.4219548956 
Si 5.6222939502 5.6709377589 -0.1929533602 
Si 7.1248153064 6.8092494168 1.5650397249 
Si 10.0148978188 4.0537223169 1.5196789463 
Si 8.5384828515 5.5206105649 2.8319814127 
Si 0.1625614554 8.3331308968 2.8565460604 
Si 2.9262643224 8.5173026363 0.0926394348 
Si 4.2329213659 9.6586626093 1.5338484339 
Si 5.6619357364 8.4530624091 2.8870483749 
Si 8.6050102807 8.4719423327 -0.1188889072 
Si 10.0463735484 9.5445290649 1.5194816268 
Si 0.0392002078 -0.1700752570 6.1316992166 
Si 2.8408853757 2.7815014328 6.1141840161 
Si 1.4369214815 1.3912759653 7.5817446089 
Si 4.2732274303 1.5046526949 4.3400859187 
Si 5.7107768773 -0.0554846394 5.9334704925 
Si 7.1199379454 1.4367581243 7.2188622298 
Si 10.0742823304 1.2665859167 4.3414725800 
Si 8.6258347888 2.8271947613 5.7441947222 
Si 1.3164804629 4.1993550607 4.6344550881 
Si 0.1187508609 5.4601273591 5.9549051362 
Si 1.5779307243 6.9637712876 7.4178805794 
Si 7.0898133558 4.1725500084 4.3738979697 
Si 4.2772105301 7.0264887681 4.5799778382 
Si 4.1641000949 3.9884093485 7.3132756044 
Si 5.7402779597 5.4473590042 5.9695092081 
Si 7.2145232383 6.8281912614 7.4505285778 
Si 10.0573456437 6.9481857846 4.5700139657 
Si 9.9601056773 4.1286699051 7.3781777857 
Si 1.5710712013 9.7253476940 4.2296188308 
Si 2.7717616999 8.4950513930 5.8116311216 
Si 7.2073611530 9.6158446074 4.3793879508 
Si 4.1438068540 9.8368865202 7.2374773906 
Si 8.5195231979 8.3016692536 6.0115239484 
Si 10.0354747109 9.6313353922 7.6022448189 
Si 0.1274866442 2.6238713628 9.0804132678 
Si 2.8377082610 -0.0867169309 8.6693214209 
Si 4.1566496201 1.4131344326 10.4861174571 
Si 5.4890805860 2.8379234600 8.9108019198 
Si 8.5668992894 0.0973172677 9.0835471273 
Si 10.0201290626 1.3225356807 10.4654679464 
Si 1.4867505724 4.0478458887 10.3435962506 
Si 2.8143027896 5.3764159235 8.9608155386 
Si 6.9716190088 4.1245000729 10.2000108152 
Si 4.2615624381 7.1381825401 10.5692907315 
Si 8.6305650120 5.5600876497 8.7250803058 
Si 9.9897550248 6.8000140417 10.3109658283 
Si -0.0245451096 8.4008403478 8.6777811609 
Si 1.3830823872 9.8217921591 10.3811703732 
Si 5.8198896138 8.1739275689 8.6983644463 
Si 7.0605851438 9.6244272501 10.3453831588 

