&CONTROL
   calculation      = 'scf'
   tstress          = .true.
   tprnfor          = .true.
   outdir           = './'
   disk_io          = 'none'
   pseudo_dir       = '/home/ppiaggi/pseudos'
/
&SYSTEM
   ecutwfc          = 30
   occupations      = 'smearing'
   degauss          = 0.01
   smearing         = 'fermi-dirac'
   input_dft        = 'PBE'
   ntyp             = 1
   nat              = 64
   ibrav            = 0
/
&ELECTRONS
   electron_maxstep = 1000
   mixing_beta      = 0.5
/
&IONS
/
&CELL
/

ATOMIC_SPECIES
Si 28.085 Si_ONCV_PBE_sr.upf

K_POINTS gamma

CELL_PARAMETERS angstrom
10.58546609766028 0.00000000000000 0.00000000000000
0.00000000000000 10.99624740730544 0.00000000000000
0.00000000000000 0.00000000000000 11.33542546270921

ATOMIC_POSITIONS angstrom
Si 0.1279224841 -0.0629169001 -0.1059949981 
Si 0.0016842894 2.8471863013 2.7534046737 
Si 2.8766856637 0.0811409282 2.9389452308 
Si 2.8089964979 2.7484754331 0.0339134780 
Si 1.5488877719 1.2901160472 1.5831272291 
Si 5.7137130113 0.0892185840 -0.0991058595 
Si 5.7144714455 2.6567090624 2.8526924984 
Si 6.9592326649 1.4554816318 1.2152210695 
Si 8.3177083091 0.1024752213 2.6490199654 
Si 8.4183941648 2.9339297036 0.1828401335 
Si -0.1543210426 5.4820885981 0.0185577140 
Si 2.9214172586 5.5474802366 2.8760325206 
Si 1.2834582211 6.9618498178 1.3315762752 
Si 4.3560347642 4.0612993956 1.6046169529 
Si 5.7650096053 5.6215143003 0.0410671831 
Si 6.9811695503 7.1957343031 1.2378128494 
Si 9.6837720186 4.0721403569 1.3017770381 
Si 8.4178743017 5.7093281387 2.7340320033 
Si 0.0516074901 8.4881499554 2.6576803370 
Si 2.7983898771 8.2481453588 -0.1011270226 
Si 4.2768437310 10.0358102945 1.2808347929 
Si 5.4304712187 8.5055605336 2.6798097602 
Si 8.3714721825 8.5526399539 0.0619143756 
Si 9.9324515207 9.6795790783 1.4402965528 
Si 0.1597078059 0.0047626595 5.7210473096 
Si 2.6812500343 2.7274741271 5.7780195682 
Si 1.3614496023 1.2764482449 6.9042997739 
Si 4.0914917921 1.3387080280 4.2664244948 
Si 5.7265268344 -0.0470163210 5.5745201135 
Si 7.0614513786 1.3176819652 7.2505003176 
Si 9.7297514258 1.3323923363 4.2045277210 
Si 8.3158552099 2.7327397728 5.6375451026 
Si 1.4192918027 4.1743281325 4.1742585671 
Si 0.1851620998 5.4965518180 5.6074228121 
Si 1.2612381283 7.1584251379 6.9428277565 
Si 7.0299058208 4.2407804629 4.2898474595 
Si 4.1167703981 6.8327823572 4.0569703079 
Si 4.2413687399 4.0817019143 6.9237537744 
Si 5.7652713902 5.7072466729 5.5583672533 
Si 6.9758957781 6.8782462918 6.9759862406 
Si 9.7985962386 7.0941234044 4.1080595531 
Si 9.6250920337 4.3768817484 6.9104836838 
Si 1.5814254729 9.8501473189 4.3581970836 
Si 2.9477591418 8.5462463670 5.7336050732 
Si 6.8406693264 9.7405162727 4.2308413125 
Si 4.1892339566 9.8885270858 6.9081830265 
Si 8.2773357437 8.5959178957 5.5076899675 
Si 9.6124606248 9.7742206902 7.2175620970 
Si -0.0898754081 2.9486011367 8.5819800032 
Si 2.6628911088 -0.1551120780 8.3238193522 
Si 4.1850228612 1.4934822279 9.9534328982 
Si 5.6757601227 2.9288419321 8.6001092553 
Si 8.4783568135 0.1932474148 8.5883422037 
Si 9.9418897341 1.4832178061 9.8995296513 
Si 1.2648797603 4.4125677365 10.1036760224 
Si 2.9586960004 5.6881997831 8.5245287157 
Si 6.8717983881 4.0297738477 10.1483662981 
Si 4.1899142678 6.8576560623 9.8852426081 
Si 8.5302180402 5.5929001663 8.4686869241 
Si 9.6820764852 7.1857018218 10.0953117865 
Si 0.1907062248 8.3820571430 8.6027632723 
Si 1.3955837671 9.6677842180 9.7461799150 
Si 5.3960852986 8.2926145626 8.4147971381 
Si 6.8707750258 9.8765828143 9.9722010421 

