&CONTROL
   calculation      = 'scf'
   tstress          = .true.
   tprnfor          = .true.
   outdir           = './'
   disk_io          = 'none'
   pseudo_dir       = '/home/ppiaggi/pseudos'
/
&SYSTEM
   ecutwfc          = 30
   occupations      = 'smearing'
   degauss          = 0.01
   smearing         = 'fermi-dirac'
   input_dft        = 'PBE'
   ntyp             = 1
   nat              = 64
   ibrav            = 0
/
&ELECTRONS
   electron_maxstep = 1000
   mixing_beta      = 0.5
/
&IONS
/
&CELL
/

ATOMIC_SPECIES
Si 28.085 Si_ONCV_PBE_sr.upf

K_POINTS gamma

CELL_PARAMETERS angstrom
11.50510654875975 0.00000000000000 0.00000000000000
0.00000000000000 10.85257262481454 0.00000000000000
0.00000000000000 0.00000000000000 11.47219140001980

ATOMIC_POSITIONS angstrom
Si 0.1705303904 -0.1260977876 0.0381247803 
Si -0.0634808779 2.6485278865 2.7147787132 
Si 2.8229024756 -0.1063640993 2.7773571070 
Si 2.9884585724 2.7764786448 -0.0234283249 
Si 1.6890986723 1.1801300705 1.4208228402 
Si 6.0679903573 0.1047904062 -0.0158319874 
Si 6.1085918813 2.7365342657 2.7316458211 
Si 7.3427495011 1.2477914927 1.4960501960 
Si 8.8179837997 0.1060222106 2.8246796118 
Si 9.0046084420 2.7204680435 0.0660093010 
Si -0.0713251894 5.1749281290 0.1992900770 
Si 3.2093019860 5.0625915236 2.8696355006 
Si 1.4008186956 6.2943303340 1.4501883521 
Si 4.4842063818 3.8283239677 1.6171518799 
Si 5.9350608142 5.0140320832 -0.1775770707 
Si 7.3125474894 6.3753377182 1.6063569435 
Si 10.6248566231 3.9318644068 1.4484253707 
Si 8.8163356510 5.0852003660 3.0714659372 
Si 0.1539520254 7.7101074273 2.9637023138 
Si 2.9693602801 7.7754349778 0.1759898027 
Si 4.5558959731 8.9754547912 1.3839659691 
Si 6.0533123876 7.6908075635 3.0713225641 
Si 9.0423904578 7.8627703779 -0.0701756123 
Si 10.6222209364 8.9871172832 1.3099785995 
Si -0.1341517457 0.0039284327 5.9718082555 
Si 3.2179781303 2.4283931678 5.7742146737 
Si 1.5555691669 1.3503262094 7.4606950003 
Si 4.6947773463 1.1748910818 4.1860336499 
Si 5.8128668369 -0.1531500823 5.8772880374 
Si 7.2981504315 1.4738012308 7.2230721413 
Si 10.4434481533 1.2757919606 4.3331461595 
Si 8.9535208096 2.6085911343 5.8162979176 
Si 1.6849756172 4.0466521377 4.5604456589 
Si 0.1266512142 5.0440237261 5.7179050276 
Si 1.4547505783 6.5830231715 7.1633357094 
Si 7.4799977914 3.9746673953 4.2474847194 
Si 4.6046841256 6.3316628543 4.3475178684 
Si 4.5753453310 3.8954885604 7.1938373235 
Si 6.2026660638 5.1776084680 5.8616003937 
Si 7.6867831167 6.3933584316 7.4534735221 
Si 10.4158208072 6.5031124492 4.2547979271 
Si 10.7151115182 3.9131063161 7.3895760903 
Si 1.5322856048 9.0396637293 4.3245701336 
Si 3.1208943655 7.7337034809 5.8172782862 
Si 7.4811895027 9.1304326569 4.1998370354 
Si 4.5020995525 9.0443930941 7.0570255525 
Si 8.8274143994 7.8069961331 5.7143334350 
Si 10.3764863903 9.1150337691 7.1515493886 
Si 0.1732584979 2.5347784918 8.8270453988 
Si 2.8084557896 -0.0348683000 8.6716274427 
Si 4.7008410171 1.3548492282 10.2716592707 
Si 6.0431022578 2.6422518342 8.5172802269 
Si 8.8980544520 0.0684294822 8.7336601135 
Si 10.5929357405 1.2655900560 10.2156386632 
Si 1.3631667169 4.0135092310 10.0103693449 
Si 2.9836657690 5.1895542838 8.7818298724 
Si 7.5769661113 3.9576998419 10.2422368235 
Si 4.4989629499 6.3465973058 10.3382475062 
Si 9.0554998790 5.2148564138 8.7677301994 
Si 10.5912482015 6.3740198140 10.2855791892 
Si 0.0435794559 7.8723252791 8.5573088904 
Si 1.3009463337 8.9268372837 10.3691146947 
Si 5.8825117997 7.5977557905 8.6916982171 
Si 7.3430613672 9.0845765777 10.2642752882 

