&CONTROL
   calculation      = 'scf'
   tstress          = .true.
   tprnfor          = .true.
   outdir           = './'
   disk_io          = 'none'
   pseudo_dir       = '/home/ppiaggi/pseudos'
/
&SYSTEM
   ecutwfc          = 30
   occupations      = 'smearing'
   degauss          = 0.01
   smearing         = 'fermi-dirac'
   input_dft        = 'PBE'
   ntyp             = 1
   nat              = 64
   ibrav            = 0
/
&ELECTRONS
   electron_maxstep = 1000
   mixing_beta      = 0.5
/
&IONS
/
&CELL
/

ATOMIC_SPECIES
Si 28.085 Si_ONCV_PBE_sr.upf

K_POINTS gamma

CELL_PARAMETERS angstrom
11.11317099080948 0.00000000000000 0.00000000000000
0.00000000000000 11.00143070568418 0.00000000000000
0.00000000000000 0.00000000000000 11.02755618306666

ATOMIC_POSITIONS angstrom
Si -0.0087833025 -0.0286015956 -0.0000954591 
Si 0.0239947777 2.7880545809 2.7847700098 
Si 2.6985710673 -0.0185379698 2.8370223777 
Si 2.7630077077 2.7505478846 0.0413516344 
Si 1.3817847320 1.3456450255 1.4481885301 
Si 5.4916765660 -0.0176976363 0.0368505235 
Si 5.4531677292 2.7626989903 2.8407148545 
Si 6.8787638115 1.3422240466 1.3795475542 
Si 8.2557113190 0.0461011708 2.7633133651 
Si 8.1809316399 2.7429696219 0.0368991070 
Si 0.0121647316 5.6149447750 0.0255148979 
Si 2.7484329587 5.6158098735 2.8038801164 
Si 1.3471412011 6.9107351288 1.4245566550 
Si 4.1192758669 4.1879574928 1.4527467793 
Si 5.5135205523 5.5877568163 0.0408110326 
Si 6.9015623333 6.9567959707 1.4158105478 
Si 9.6447214921 4.1728312918 1.3670298132 
Si 8.2233834455 5.5274916440 2.7845868394 
Si 0.0382612927 8.3446954180 2.7722987088 
Si 2.7312339380 8.3457024301 0.0358723324 
Si 4.1512905611 9.7231857998 1.4253756794 
Si 5.4460498194 8.3824087825 2.8398278928 
Si 8.2300204362 8.3473486677 -0.0151090676 
Si 9.5700180066 9.6966081585 1.4369160520 
Si 0.0194066952 0.0202470463 5.6214452136 
Si 2.7105927773 2.7476690489 5.5839403550 
Si 1.3859749600 1.3775668705 6.9937113680 
Si 4.1002000209 1.4322027590 4.1683128637 
Si 5.4922124567 0.0271071472 5.5909617665 
Si 6.8537380767 1.3933541153 6.9896910236 
Si 9.6402886629 1.4239512186 4.2448234154 
Si 8.1853312599 2.8303481769 5.6339089336 
Si 1.3340667902 4.2204438213 4.2554523849 
Si -0.0130593357 5.5841623626 5.5856032037 
Si 1.4015031940 6.9838499068 7.0354823030 
Si 6.8824653121 4.1499653436 4.1999652208 
Si 4.0685669109 6.9758653293 4.2136960522 
Si 4.1095529971 4.1394310153 6.9669654302 
Si 5.4584967466 5.5242922425 5.5703553576 
Si 6.8964297102 6.9444641625 6.9845261241 
Si 9.5930875866 6.9767670555 4.2479802491 
Si 9.5789119177 4.1302515383 7.0413172588 
Si 1.3395287474 9.7069632172 4.2588858253 
Si 2.7840730808 8.3733406765 5.6295299732 
Si 6.8867025224 9.6916549670 4.1840110955 
Si 4.1043493056 9.7838690690 6.9708306508 
Si 8.2671589875 8.3487006286 5.5866610031 
Si 9.6148901088 9.7588825372 7.0102433953 
Si 0.0268092412 2.7335002552 8.3881739872 
Si 2.7194079124 -0.0406692768 8.4002408462 
Si 4.1077088807 1.3741818143 9.8452565509 
Si 5.5239228357 2.7995327184 8.4330646120 
Si 8.2622076381 0.0054695311 8.4310105472 
Si 9.6355862974 1.4030236806 9.8352059707 
Si 1.3964359121 4.2050973862 9.7967575564 
Si 2.7140523605 5.5226972535 8.4156024951 
Si 6.8707919307 4.1334963479 9.7896815091 
Si 4.1189545657 6.9797935669 9.8239269308 
Si 8.2217969767 5.6107939034 8.4146398108 
Si 9.6031658221 6.9303128119 9.7825354065 
Si -0.0322994353 8.3458431009 8.4239269091 
Si 1.3269230823 9.7836837270 9.7859919725 
Si 5.5240444638 8.3626864264 8.4604801208 
Si 6.8504596836 9.7657852090 9.8062006445 

