&CONTROL
   calculation      = 'scf'
   tstress          = .true.
   tprnfor          = .true.
   outdir           = './'
   disk_io          = 'none'
   pseudo_dir       = '/home/ppiaggi/pseudos'
/
&SYSTEM
   ecutwfc          = 30
   occupations      = 'smearing'
   degauss          = 0.01
   smearing         = 'fermi-dirac'
   input_dft        = 'PBE'
   ntyp             = 1
   nat              = 64
   ibrav            = 0
/
&ELECTRONS
   electron_maxstep = 1000
   mixing_beta      = 0.5
/
&IONS
/
&CELL
/

ATOMIC_SPECIES
Si 28.085 Si_ONCV_PBE_sr.upf

K_POINTS gamma

CELL_PARAMETERS angstrom
11.17369427468511 0.00000000000000 0.00000000000000
0.00000000000000 10.77369760562247 0.00000000000000
0.00000000000000 0.00000000000000 10.94821164678221

ATOMIC_POSITIONS angstrom
Si 0.0094208664 0.0064425869 0.0114741334 
Si -0.0331249590 2.6581214901 2.7497616491 
Si 2.7152314993 0.0216153715 2.7050652565 
Si 2.7542017327 2.7129060605 -0.0193106409 
Si 1.3315455497 1.3853286530 1.3769579544 
Si 5.4652200129 0.0204138873 -0.0096332180 
Si 5.4657314674 2.6733114205 2.7546684874 
Si 6.8204726937 1.3474287801 1.4043794658 
Si 8.1954187822 0.0012280517 2.7186907801 
Si 8.2814070262 2.6903405594 0.0409722951 
Si -0.0204132956 5.3750031196 0.0381394041 
Si 2.7294852739 5.4274179639 2.6767435483 
Si 1.3555575052 6.7642031832 1.3838999062 
Si 4.0758450975 4.0754500131 1.3427524164 
Si 5.5174977764 5.4116637421 0.0139104115 
Si 6.9085068968 6.7749946695 1.3992337584 
Si 9.6131640879 4.0119400419 1.3319269188 
Si 8.2627253161 5.3493561645 2.7268306671 
Si -0.0216546455 8.1142328344 2.7681433941 
Si 2.7256063684 8.0432319314 -0.0318168856 
Si 4.1517325137 9.3944496920 1.3701340147 
Si 5.5287838909 8.0710287574 2.7530371909 
Si 8.2602038713 8.0644583828 -0.0382220601 
Si 9.6141080773 9.4461309235 1.3432027465 
Si 0.0067739460 -0.0098390267 5.4770639827 
Si 2.7138280238 2.6782888808 5.4784557508 
Si 1.3646531200 1.3279887227 6.8152566981 
Si 4.1210378840 1.3335399665 4.0422267719 
Si 5.5304239456 0.0450965417 5.4745248619 
Si 6.8231624402 1.3592652908 6.8257531186 
Si 9.6598050146 1.3129996814 4.1330797913 
Si 8.2485296322 2.6696660135 5.4625529069 
Si 1.4213859122 4.0713718402 4.0836624364 
Si 0.0006360349 5.3464028465 5.4403467377 
Si 1.3350200827 6.6939560517 6.8596377227 
Si 6.9033791124 4.0396264275 4.1055840098 
Si 4.1176846525 6.7805836123 4.1155482275 
Si 4.0749421047 4.0565878846 6.8109105544 
Si 5.5008466094 5.4058338491 5.4597178522 
Si 6.8937455342 6.7109460396 6.8213412777 
Si 9.6521287020 6.7078007000 4.0605440288 
Si 9.5843575972 4.0266838171 6.8028412269 
Si 1.3796067849 9.4770651292 4.0738724012 
Si 2.7701646146 8.0964644347 5.4647926053 
Si 6.9046930851 9.3928127415 4.0589937491 
Si 4.1587930413 9.4267892894 6.8106060750 
Si 8.2795740388 8.1322890428 5.4730801834 
Si 9.6023922029 9.4137673435 6.8261003664 
Si 0.0382940522 2.7019193778 8.1504370821 
Si 2.7544187885 -0.0028531864 8.2249723610 
Si 4.1373626876 1.3297822907 9.5126545578 
Si 5.5156975328 2.7433671719 8.1949368532 
Si 8.2366858438 0.0227432446 8.1530061567 
Si 9.6044814508 1.3895916109 9.5045034756 
Si 1.3229498293 4.0780144294 9.4926871836 
Si 2.7051432959 5.3750000383 8.1847467594 
Si 6.9054773981 4.0066203189 9.5615195405 
Si 4.1563961005 6.7227549313 9.5211015080 
Si 8.2090598027 5.3948828030 8.1911754367 
Si 9.6499634102 6.7831441589 9.5245371597 
Si 0.0421346798 8.1147843277 8.1649441269 
Si 1.4043554429 9.4149642004 9.5862873007 
Si 5.4599980957 8.0840877965 8.1335184784 
Si 6.8849930930 9.4062843932 9.5863398914 

