&CONTROL
   calculation      = 'scf'
   tstress          = .true.
   tprnfor          = .true.
   outdir           = './'
   disk_io          = 'none'
   pseudo_dir       = '/home/ppiaggi/pseudos'
/
&SYSTEM
   ecutwfc          = 30
   occupations      = 'smearing'
   degauss          = 0.01
   smearing         = 'fermi-dirac'
   input_dft        = 'PBE'
   ntyp             = 1
   nat              = 64
   ibrav            = 0
/
&ELECTRONS
   electron_maxstep = 1000
   mixing_beta      = 0.5
/
&IONS
/
&CELL
/

ATOMIC_SPECIES
Si 28.085 Si_ONCV_PBE_sr.upf

K_POINTS gamma

CELL_PARAMETERS angstrom
10.85922114510017 0.00000000000000 0.00000000000000
0.00000000000000 11.12375280697365 0.00000000000000
0.00000000000000 0.00000000000000 11.08451706261232

ATOMIC_POSITIONS angstrom
Si 0.0034986444 0.0095941044 -0.0154728975 
Si -0.0193182829 2.8029981926 2.7950730441 
Si 2.8002518508 -0.0208760875 2.8431233505 
Si 2.7552889942 2.7224924526 0.0463053152 
Si 1.3908547748 1.3319096239 1.4505047199 
Si 5.4900092340 -0.0399765080 0.0058859531 
Si 5.5514040707 2.7444535176 2.8260751472 
Si 6.9133916615 1.3494445742 1.3645271482 
Si 8.2376170453 0.0111484083 2.8095718816 
Si 8.2301923695 2.7069322908 -0.0061566896 
Si 0.0076226825 5.4818580352 0.0173582660 
Si 2.7945664708 5.4813622557 2.8127347342 
Si 1.3913599746 6.9409977831 1.3975186119 
Si 4.1659078346 4.1624558416 1.4142066439 
Si 5.5171998222 5.4802131338 0.0058218615 
Si 6.8746501924 6.8758429997 1.3898487572 
Si 9.6570463497 4.1048171821 1.3829151240 
Si 8.2232889918 5.5533476332 2.7909347049 
Si 0.0432093929 8.2351532608 2.7588164551 
Si 2.7787574603 8.2976457444 -0.0164896430 
Si 4.1066602042 9.6478879210 1.3957471126 
Si 5.5515738247 8.2571864001 2.8415790509 
Si 8.2187855838 8.2399525937 0.0132608062 
Si 9.5958310769 9.6956227484 1.3999878063 
Si -0.0029356235 -0.0104241618 5.6203416735 
Si 2.7321334921 2.7336579563 5.6152411174 
Si 1.3681236875 1.4123087359 7.0105679423 
Si 4.1788178113 1.3290833844 4.2540248434 
Si 5.5132630649 0.0129665081 5.6044531816 
Si 6.8735446019 1.3607579834 7.0551417695 
Si 9.6016308297 1.3540953499 4.2435638244 
Si 8.2645672623 2.7873943433 5.6205713773 
Si 1.3359742631 4.1509097661 4.2341651256 
Si 0.0054061028 5.5475020625 5.6162059764 
Si 1.3974369925 6.8501860657 6.9903684193 
Si 6.8653507582 4.1031256094 4.2288245350 
Si 4.0846442161 6.9269715418 4.2205323661 
Si 4.1554610245 4.1281445878 6.9974305444 
Si 5.4891302502 5.4638309079 5.6296021566 
Si 6.9106934715 6.8938682515 7.0556906173 
Si 9.6416906857 6.8687214976 4.1957591758 
Si 9.6860922946 4.1522912716 7.0017490107 
Si 1.3426818433 9.6151857376 4.2303084722 
Si 2.7561139805 8.2923833602 5.5712585734 
Si 6.8574486247 9.6163367567 4.1859957739 
Si 4.0845646581 9.6637532816 7.0475999652 
Si 8.2996782989 8.2564986735 5.6264845734 
Si 9.6013061935 9.6273269191 7.0692203480 
Si 0.0219261467 2.7285123154 8.3926947230 
Si 2.7830095447 0.0412982553 8.4327084228 
Si 4.1267329331 1.3694266083 9.8649033700 
Si 5.5466223148 2.7523008255 8.4679519966 
Si 8.2695808480 0.0160139916 8.3937138055 
Si 9.6642479713 1.3367089754 9.7861444900 
Si 1.4203907365 4.1021599748 9.8434087278 
Si 2.7637987501 5.5530479654 8.4716085270 
Si 6.8946090338 4.1379142128 9.8002692012 
Si 4.1393733146 6.9342140582 9.8057433476 
Si 8.3120340219 5.4990821147 8.4149121492 
Si 9.6826163393 6.8767378475 9.8586319859 
Si 0.0332773800 8.2300215275 8.4125503649 
Si 1.3352178386 9.6869393993 9.7895384412 
Si 5.4633178923 8.2657690320 8.4552081108 
Si 6.8990417924 9.6146744571 9.7878373627 

