&CONTROL
   calculation      = 'scf'
   tstress          = .true.
   tprnfor          = .true.
   outdir           = './'
   disk_io          = 'none'
   pseudo_dir       = '/home/ppiaggi/pseudos'
/
&SYSTEM
   ecutwfc          = 30
   occupations      = 'smearing'
   degauss          = 0.01
   smearing         = 'fermi-dirac'
   input_dft        = 'PBE'
   ntyp             = 1
   nat              = 64
   ibrav            = 0
/
&ELECTRONS
   electron_maxstep = 1000
   mixing_beta      = 0.5
/
&IONS
/
&CELL
/

ATOMIC_SPECIES
Si 28.085 Si_ONCV_PBE_sr.upf

K_POINTS gamma

CELL_PARAMETERS angstrom
11.09005101777942 0.00000000000000 0.00000000000000
0.00000000000000 10.93365911990556 0.00000000000000
0.00000000000000 0.00000000000000 10.90358301489826

ATOMIC_POSITIONS angstrom
Si -0.0294638837 -0.0268089454 -0.0349175834 
Si -0.0455576366 2.7788180166 2.6883718784 
Si 2.8115320928 0.0145928953 2.6975578230 
Si 2.7895456487 2.7929854176 -0.0067345049 
Si 1.4085621700 1.3781448598 1.3179417128 
Si 5.4840753547 0.0041197773 0.0185567242 
Si 5.5108516524 2.7540545341 2.7522591352 
Si 6.9126138611 1.3863270431 1.3514906993 
Si 8.3504408904 -0.0113270790 2.7240691072 
Si 8.3500806390 2.7562469602 -0.0438862876 
Si 0.0462077803 5.5374709777 -0.0071274995 
Si 2.7824740349 5.5358382061 2.7325839612 
Si 1.3754572182 6.9751400436 1.3773814991 
Si 4.1323193591 4.2030234089 1.3584115161 
Si 5.5371360123 5.5286207653 0.0045971315 
Si 6.9368242091 6.9534989908 1.3438497506 
Si 9.7109884486 4.1211078874 1.3940321972 
Si 8.2533616526 5.5806006260 2.6864965290 
Si 0.0488749051 8.3009560037 2.6764975930 
Si 2.8155141454 8.3791675584 -0.0151454455 
Si 4.1780812721 9.7028579830 1.3360441020 
Si 5.5278516412 8.3484906005 2.6799227947 
Si 8.3139216072 8.3602526845 -0.0493178691 
Si 9.6844735188 9.6824360703 1.3124081061 
Si 0.0033774894 -0.0080597546 5.4021813210 
Si 2.7698548255 2.7488287579 5.4224082937 
Si 1.3750546317 1.4055033526 6.7442807724 
Si 4.1775742053 1.4157567678 4.0253332934 
Si 5.5738895537 -0.0046002302 5.4282583228 
Si 6.8707746029 1.4012526513 6.7982844512 
Si 9.7285111624 1.3885003648 4.0434084649 
Si 8.3302823824 2.7286433095 5.4012651607 
Si 1.4165686383 4.1943122868 4.0735247198 
Si -0.0196777011 5.5085108912 5.4285725982 
Si 1.3659600849 6.9336335783 6.7658561555 
Si 6.9121706527 4.2029484280 4.1129303373 
Si 4.1644227801 6.9442483701 4.0323553272 
Si 4.1946216506 4.1756196997 6.7959721210 
Si 5.5596374587 5.5646997770 5.3874568160 
Si 6.9218191755 6.9810825555 6.7640432594 
Si 9.7222664540 6.9703199408 4.0428528189 
Si 9.7071461616 4.1963382055 6.8035067943 
Si 1.3526018480 9.6779691962 4.1025679210 
Si 2.7312362189 8.2905965503 5.4161626625 
Si 6.9530897066 9.7650665381 4.0967343542 
Si 4.1242395599 9.7057766920 6.7891496711 
Si 8.2770512743 8.3430773912 5.4308813224 
Si 9.6920301916 9.7143268722 6.7851432980 
Si 0.0278305757 2.7993051128 8.1636665631 
Si 2.7865367020 0.0205995636 8.1552160453 
Si 4.1609630719 1.3783359416 9.5495082445 
Si 5.5297675137 2.7467722198 8.1120983019 
Si 8.2762943636 0.0123581386 8.1874587209 
Si 9.6522302734 1.4324532749 9.5055025011 
Si 1.3668173380 4.1688665048 9.5261708192 
Si 2.7392295511 5.5329263838 8.1337245782 
Si 6.9393297221 4.1486198732 9.4862214278 
Si 4.2003933924 6.9266221704 9.5170635895 
Si 8.3006085753 5.5547324726 8.1677444683 
Si 9.6874893803 6.9872305329 9.4955362870 
Si 0.0424287942 8.3285720361 8.1658101509 
Si 1.3439944180 9.7697482907 9.4981224929 
Si 5.4886495101 8.3621614195 8.0956979491 
Si 6.9625041720 9.7256950526 9.5354483827 

