&CONTROL
   calculation      = 'scf'
   tstress          = .true.
   tprnfor          = .true.
   outdir           = './'
   disk_io          = 'none'
   pseudo_dir       = '/home/ppiaggi/pseudos'
/
&SYSTEM
   ecutwfc          = 30
   occupations      = 'smearing'
   degauss          = 0.01
   smearing         = 'fermi-dirac'
   input_dft        = 'PBE'
   ntyp             = 1
   nat              = 64
   ibrav            = 0
/
&ELECTRONS
   electron_maxstep = 1000
   mixing_beta      = 0.5
/
&IONS
/
&CELL
/

ATOMIC_SPECIES
Si 28.085 Si_ONCV_PBE_sr.upf

K_POINTS gamma

CELL_PARAMETERS angstrom
11.01844994031218 0.00000000000000 0.00000000000000
0.00000000000000 11.05220357608983 0.00000000000000
0.00000000000000 0.00000000000000 11.08553666985070

ATOMIC_POSITIONS angstrom
Si 0.0486783659 0.0151749108 -0.0239032505 
Si 0.0282461610 2.8202010549 2.7893702983 
Si 2.7489500293 0.0407867389 2.8295622489 
Si 2.6868252216 2.7347471947 -0.0470772726 
Si 1.3744538393 1.3647876150 1.3756875003 
Si 5.4414889727 0.0252081101 -0.0312335208 
Si 5.4779136574 2.7552772571 2.8025479273 
Si 6.8150553105 1.3468289294 1.4389412671 
Si 8.1307617963 -0.0125510297 2.8122493260 
Si 8.1277494600 2.7541102919 -0.0067372027 
Si -0.0030411811 5.5516738821 0.0234163578 
Si 2.7647488940 5.6072560923 2.7493627404 
Si 1.3658191301 6.9703094623 1.3477345196 
Si 4.0773164850 4.1928610809 1.3739010300 
Si 5.4523194226 5.5952072308 -0.0151227449 
Si 6.8203896617 6.9486587643 1.4431193736 
Si 9.5022520950 4.1914331669 1.3530674295 
Si 8.1852403040 5.5243996283 2.7830168673 
Si 0.0057277172 8.3995312450 2.7654232804 
Si 2.6970617033 8.3404348265 -0.0012268032 
Si 4.1058236726 9.7700810404 1.3632829852 
Si 5.4420122818 8.3786583416 2.7830447177 
Si 8.1591111898 8.3869987696 -0.0385077751 
Si 9.4889683955 9.7765369254 1.4208336729 
Si 0.0118219029 -0.0191604603 5.5330207572 
Si 2.6978548457 2.8293413179 5.6090995587 
Si 1.3608205099 1.3770963633 7.0138915715 
Si 4.1314893548 1.3971608256 4.1310312567 
Si 5.4575515760 -0.0047836825 5.5330306455 
Si 6.8359968121 1.4306058571 6.9157027690 
Si 9.5650722622 1.3719815397 4.1951893091 
Si 8.1575598907 2.7953180007 5.5795561647 
Si 1.3589094677 4.1354760839 4.2143130936 
Si -0.0468403523 5.5596358079 5.5937188020 
Si 1.3489671668 6.9951937546 6.9509742191 
Si 6.8594485409 4.2223271341 4.2276785887 
Si 4.0820764675 6.9122399107 4.1468538394 
Si 4.1086991100 4.1497926341 7.0009176759 
Si 5.4860735965 5.5978780050 5.5882860002 
Si 6.8477482513 7.0011621873 6.9912007526 
Si 9.5234172396 6.9128240923 4.2012379924 
Si 9.5610736583 4.1956853221 6.9741208887 
Si 1.3848266682 9.7191303933 4.2096844323 
Si 2.7137815301 8.3241050746 5.5438028649 
Si 6.7679453296 9.7833843067 4.2247557435 
Si 4.1252424580 9.7651413171 6.9742280238 
Si 8.1297043369 8.3993209645 5.6102577293 
Si 9.5232687750 9.7599087634 6.9817723485 
Si 0.0285317303 2.7536628019 8.3492695537 
Si 2.7415228277 -0.0195024688 8.3189285915 
Si 4.0494800056 1.3676976266 9.7599325508 
Si 5.4810542631 2.7425358788 8.3143495298 
Si 8.1720966388 0.0262414123 8.3268206530 
Si 9.5447757593 1.4055286646 9.7356674860 
Si 1.4081669848 4.2189883333 9.7302819414 
Si 2.6871357279 5.5573968912 8.3506179963 
Si 6.8162837168 4.1340389823 9.7893730683 
Si 4.0495887510 6.9439920743 9.7867983823 
Si 8.2041152796 5.5952603983 8.3587942315 
Si 9.5124059165 6.9719706229 9.7249194669 
Si -0.0414392518 8.3603818784 8.3874705822 
Si 1.3442624714 9.7337860295 9.7071120070 
Si 5.4907435511 8.3732387762 8.3235582600 
Si 6.7834765640 9.6978048115 9.7344462895 

