&CONTROL
   calculation      = 'scf'
   tstress          = .true.
   tprnfor          = .true.
   outdir           = './'
   disk_io          = 'none'
   pseudo_dir       = '/home/ppiaggi/pseudos'
/
&SYSTEM
   ecutwfc          = 30
   occupations      = 'smearing'
   degauss          = 0.01
   smearing         = 'fermi-dirac'
   input_dft        = 'PBE'
   ntyp             = 1
   nat              = 64
   ibrav            = 0
/
&ELECTRONS
   electron_maxstep = 1000
   mixing_beta      = 0.5
/
&IONS
/
&CELL
/

ATOMIC_SPECIES
Si 28.085 Si_ONCV_PBE_sr.upf

K_POINTS gamma

CELL_PARAMETERS angstrom
11.16220231079554 0.00000000000000 0.00000000000000
0.00000000000000 11.08404623053972 0.00000000000000
0.00000000000000 0.00000000000000 10.93087172351706

ATOMIC_POSITIONS angstrom
Si -0.0433409831 -0.0418991110 0.0199824906 
Si 0.0257500244 2.7972581551 2.6756643246 
Si 2.7224094359 -0.0178788443 2.6596983416 
Si 2.7810612129 2.7817376845 0.0009598998 
Si 1.4027960397 1.4333880330 1.3240153302 
Si 5.4750190117 -0.0203378421 -0.0025673572 
Si 5.5657820213 2.7706777067 2.7211325117 
Si 6.8726616940 1.4480479718 1.3688480055 
Si 8.2315934176 -0.0210517120 2.7327908167 
Si 8.2769642772 2.7846764812 0.0063995882 
Si -0.0266401550 5.6422912675 -0.0016236268 
Si 2.7812478947 5.6099220080 2.7330259129 
Si 1.3333351624 7.0243883182 1.3437771518 
Si 4.1520779278 4.2652561124 1.3865815920 
Si 5.5314589250 5.6523542937 0.0030983405 
Si 6.8967654927 7.0802966987 1.3646530711 
Si 9.6213633309 4.2723617468 1.3243797987 
Si 8.2574752271 5.6012737561 2.6963672134 
Si -0.0331095188 8.4035054861 2.7228373125 
Si 2.7931782549 8.4399441956 0.0482686428 
Si 4.1587066599 9.8226340978 1.3047228436 
Si 5.5422184055 8.4394800090 2.6897003413 
Si 8.2641985176 8.4528267326 0.0150684688 
Si 9.6258196105 9.8945871080 1.3639460768 
Si -0.0284114395 -0.0444762368 5.3939579557 
Si 2.7759625860 2.8111948874 5.3987777143 
Si 1.4098455715 1.3840525191 6.8095462547 
Si 4.0982406275 1.4584483446 4.0216214822 
Si 5.5403593067 -0.0351965067 5.3993590710 
Si 6.8701953013 1.4004262718 6.7592763948 
Si 9.6755190135 1.3813252344 4.0191617867 
Si 8.3168697354 2.7894251022 5.3669194915 
Si 1.3982738156 4.2581370804 4.0447569458 
Si 0.0478439999 5.6567410041 5.4252798786 
Si 1.4258916859 7.0121825503 6.7621974818 
Si 6.9346908145 4.2040322805 4.1080193142 
Si 4.1274276457 7.0259043361 4.0186145189 
Si 4.1827167916 4.2453102013 6.7715944055 
Si 5.5158021902 5.6045048023 5.3680923291 
Si 6.9191927260 7.0659965288 6.7478847990 
Si 9.6350362208 7.0525395735 4.1042509911 
Si 9.6608835367 4.2337911951 6.7355132171 
Si 1.3595299953 9.8860175721 4.0295088576 
Si 2.7638016348 8.4304073829 5.3995906583 
Si 6.9297967903 9.8912167690 4.0916623280 
Si 4.1265796425 9.8610039932 6.7946078571 
Si 8.2686684657 8.4309654392 5.3699779612 
Si 9.6354049202 9.8518990789 6.7219126219 
Si 0.0218375198 2.8603564430 8.1604408156 
Si 2.7446392987 -0.0325163838 8.1553817563 
Si 4.1601817052 1.4047668938 9.5218461533 
Si 5.4999468887 2.7987907931 8.1577947768 
Si 8.2802718594 -0.0134903846 8.0726704134 
Si 9.6650477772 1.4074976183 9.5036551345 
Si 1.3613325939 4.1893775061 9.5171348171 
Si 2.7806634668 5.6772058626 8.0877093279 
Si 6.8677395499 4.1916088174 9.4579141639 
Si 4.0916673407 7.0073916369 9.4830228444 
Si 8.2662995349 5.6599889727 8.1608612325 
Si 9.6587188620 7.0501243190 9.4952619248 
Si 0.0449230253 8.4296797596 8.1550308208 
Si 1.3829711520 9.8840940673 9.4345695297 
Si 5.4720405733 8.4912886929 8.1155770157 
Si 6.8899069546 9.8539353799 9.4504414128 

