&CONTROL
   calculation      = 'scf'
   tstress          = .true.
   tprnfor          = .true.
   outdir           = './'
   disk_io          = 'none'
   pseudo_dir       = '/home/ppiaggi/pseudos'
/
&SYSTEM
   ecutwfc          = 30
   input_dft        = 'PBE'
   ntyp             = 1
   nat              = 64
   ibrav            = 0
/
&ELECTRONS
   electron_maxstep = 1000
   mixing_beta      = 0.5
/
&IONS
/
&CELL
/

ATOMIC_SPECIES
Si 28.085 Si_ONCV_PBE_sr.upf

K_POINTS gamma

CELL_PARAMETERS angstrom
10.50671229576701 0.00000000000000 0.00000000000000
0.00000000000000 11.44760548097944 0.00000000000000
0.00000000000000 0.00000000000000 10.74665293594208

ATOMIC_POSITIONS angstrom
Si 0.0530902215 0.0980790721 -0.1262332761 
Si -0.0354321502 2.8107888105 2.4016994445 
Si 2.7476543704 0.2100611392 2.7238840062 
Si 2.5243971455 2.8890744023 0.0672318054 
Si 1.2063200146 1.5003230917 1.1191233252 
Si 5.2557078332 -0.0831532457 0.0078239296 
Si 5.0642555554 2.8748023851 2.6343814627 
Si 6.5132962768 1.3375030274 1.3304792231 
Si 7.8619191228 -0.0437530061 2.5439575423 
Si 7.7904142948 3.0523413680 -0.1822500722 
Si 0.0555271072 5.8212831863 -0.0317975178 
Si 2.4050431549 5.9127866657 2.7006501153 
Si 1.2536041367 7.4411937747 1.3173387727 
Si 3.7169082933 4.2579731565 1.1275756326 
Si 5.0671133883 5.9426804616 -0.1043838290 
Si 6.6214603769 7.4718050025 1.3257119450 
Si 9.1985041726 4.2283303929 1.1197218503 
Si 7.6067518287 5.7081881338 2.6959989504 
Si -0.1038802252 8.6921629207 2.5077856889 
Si 2.6702712238 8.6994765004 0.1813201471 
Si 3.8176676666 10.0734247623 1.2741570407 
Si 5.1445270662 8.7666495271 2.5267513640 
Si 7.7152324207 8.7217510116 0.0539278944 
Si 9.0664528687 10.1229699108 1.4451338349 
Si -0.0933373593 0.1978805181 5.1161967973 
Si 2.6842322495 2.8405347406 5.0206616128 
Si 1.1308124583 1.3876284515 6.4120736082 
Si 3.7572652419 1.3671069744 3.9500442332 
Si 4.9743565495 -0.1719907928 5.1040231468 
Si 6.3470214144 1.4233568950 6.2945904251 
Si 9.2109353474 1.3942542331 3.9435178398 
Si 7.7458645855 2.7598959343 5.2173132194 
Si 1.3032464713 4.3772231638 3.9054389474 
Si 0.0026931440 5.8287408690 5.3053627239 
Si 1.3606318328 7.1550430114 6.2769108679 
Si 6.4444306994 4.2257673567 3.8897958137 
Si 3.7339772257 7.1622447095 3.9696261987 
Si 3.7343203525 4.1725031586 6.3777682192 
Si 5.2371427952 5.7083729724 5.0279381063 
Si 6.4291208722 7.0736169331 6.3144980572 
Si 9.2006918630 7.4757934841 3.8923610824 
Si 8.8466778852 4.4691112246 6.4876151174 
Si 1.2543940403 10.3672970257 4.0282199864 
Si 2.7596235044 8.6199203564 5.2774782195 
Si 6.4974009130 10.2736858415 3.9256678685 
Si 3.9231707365 9.9834972043 6.2982911390 
Si 7.5955542686 8.8472597505 5.3084605608 
Si 8.8920949572 10.2003845752 6.3699934562 
Si -0.1414657115 2.9586218402 7.7486233289 
Si 2.6899251968 -0.1584545757 7.7654743584 
Si 3.7880403003 1.5719491186 9.1856891023 
Si 5.1091723763 2.7789871446 7.8197930302 
Si 7.7937955507 -0.1041795815 7.6983359403 
Si 8.8565388317 1.4010909472 8.8758856199 
Si 1.3047983123 4.2824226543 8.8928630769 
Si 2.6272675299 5.8449218065 7.5989878864 
Si 6.5760396981 4.3800344877 8.9249997306 
Si 3.8428676558 7.1552599709 8.8530297901 
Si 7.7295725768 5.8086568156 7.8900229689 
Si 9.0609096479 7.3705063556 9.0885673168 
Si -0.1468328028 8.6199138904 7.5642641581 
Si 1.4069452654 10.0902261782 9.0279781425 
Si 5.1342250463 8.7134007070 7.7861804326 
Si 6.6254232342 10.2165470443 9.1647399541 

