&CONTROL
   calculation      = 'scf'
   tstress          = .true.
   tprnfor          = .true.
   outdir           = './'
   disk_io          = 'none'
   pseudo_dir       = '/home/ppiaggi/pseudos'
/
&SYSTEM
   ecutwfc          = 30
   input_dft        = 'PBE'
   ntyp             = 1
   nat              = 64
   ibrav            = 0
/
&ELECTRONS
   electron_maxstep = 1000
   mixing_beta      = 0.5
/
&IONS
/
&CELL
/

ATOMIC_SPECIES
Si 28.085 Si_ONCV_PBE_sr.upf

K_POINTS gamma

CELL_PARAMETERS angstrom
11.36907852220643 0.00000000000000 0.00000000000000
0.00000000000000 11.24432970142376 0.00000000000000
0.00000000000000 0.00000000000000 10.43525599869243

ATOMIC_POSITIONS angstrom
Si -0.1735123280 0.1299221092 0.0756379271 
Si 0.0934749592 2.6903762631 2.7757244303 
Si 2.9070435575 0.1450337917 2.7146857391 
Si 2.8203373411 2.8577561786 0.0104706911 
Si 1.4534480881 1.3392923418 1.2660258956 
Si 5.9638168529 0.0387008884 0.1073227579 
Si 6.1097816904 2.9843097959 2.7339483960 
Si 7.3307587795 1.2873632377 1.3368710324 
Si 8.7607062131 -0.1873897014 2.6752215474 
Si 9.0453558519 2.9759910629 -0.0964587257 
Si -0.0483876702 5.5731747988 0.1948631298 
Si 2.9603430985 5.7316263435 2.7789716113 
Si 1.5962084264 7.0154583244 1.1839757054 
Si 4.5377294419 4.1025942705 1.1912144412 
Si 5.7298178051 5.7509177739 -0.0608443570 
Si 7.4859214351 7.0230192572 1.4230706328 
Si 10.2763793695 4.4077683768 1.4995091778 
Si 8.8269079745 5.7829672294 2.8850176139 
Si 0.1313334490 8.3203657183 2.8174688954 
Si 2.9655200199 8.3370174194 0.0133258374 
Si 4.3011459430 9.6800856842 1.2769945036 
Si 5.8808743339 8.3143217856 2.7151854496 
Si 9.0420212844 8.4570515511 0.0187458006 
Si 10.3915672469 9.7794667225 1.3316557684 
Si -0.0861737320 -0.1692207936 5.5716699753 
Si 3.0515400007 2.7785199337 5.3224545694 
Si 1.4095845861 1.5644739672 6.7626614822 
Si 4.4335670589 1.2550706394 4.0804231055 
Si 5.8535080279 0.1085957262 5.4478034890 
Si 7.2872365510 1.5363068449 6.5797666486 
Si 10.4626216371 1.2625434739 4.0960916160 
Si 9.0570279851 2.7489015398 5.5598335395 
Si 1.5299309783 4.2280388424 3.9672448007 
Si -0.1840066931 5.6521477258 5.4647051958 
Si 1.4223357395 7.0906182181 6.8893171583 
Si 7.5501918376 4.3653525809 4.0607641178 
Si 4.2731354238 7.0563805698 4.0273703536 
Si 4.4254466244 4.0642574349 6.7044703824 
Si 5.9668761932 5.7662071748 5.2513259331 
Si 7.3232954015 7.0735410960 6.9207888272 
Si 10.4969621129 7.1941811258 3.8974984818 
Si 10.5908935341 4.0573604538 6.7754810315 
Si 1.3975245834 9.8205026416 3.8919502109 
Si 3.0292884723 8.2299983347 5.5521126746 
Si 7.2783028525 9.9917453605 4.1714256783 
Si 4.6479196383 9.9084751425 6.8024786131 
Si 8.6981284003 8.5103058897 5.4975780818 
Si 10.2694805256 9.8846199488 6.7053171181 
Si 0.1804536000 3.0055895989 8.0001651563 
Si 3.1336405514 0.1799969183 8.1981497323 
Si 4.4684272950 1.2917560258 9.5817214033 
Si 6.1392595897 2.9677648004 7.9475451782 
Si 9.0844935798 -0.0095473092 8.0423591418 
Si 10.2312559778 1.4013257430 9.3831722777 
Si 1.4673534016 4.0764522892 9.6398123097 
Si 2.7536643095 5.7092817834 8.0279674493 
Si 7.3001705070 4.1293439649 9.3607656402 
Si 4.2692401092 7.1326145243 9.6375111717 
Si 8.9148278901 5.4992705312 8.0481308443 
Si 10.5011898357 6.9551771934 9.4287886140 
Si 0.2079232289 8.2767194907 8.0421756498 
Si 1.3433457597 9.6288072376 9.6100847580 
Si 5.8799896798 8.3853767179 8.0718239890 
Si 7.4676164558 9.9265605725 9.4358285189 

