&CONTROL
   calculation      = 'scf'
   tstress          = .true.
   tprnfor          = .true.
   outdir           = './'
   disk_io          = 'none'
   pseudo_dir       = '/home/ppiaggi/pseudos'
/
&SYSTEM
   ecutwfc          = 30
   input_dft        = 'PBE'
   ntyp             = 1
   nat              = 64
   ibrav            = 0
/
&ELECTRONS
   electron_maxstep = 1000
   mixing_beta      = 0.5
/
&IONS
/
&CELL
/

ATOMIC_SPECIES
Si 28.085 Si_ONCV_PBE_sr.upf

K_POINTS gamma

CELL_PARAMETERS angstrom
11.22915876737366 0.00000000000000 0.00000000000000
0.00000000000000 10.58454162022350 0.00000000000000
0.00000000000000 0.00000000000000 11.12744117814475

ATOMIC_POSITIONS angstrom
Si 0.0334141643 0.0535739743 0.1377854676 
Si 0.1276974569 2.6852160739 2.7962987609 
Si 2.6395663064 -0.0625372950 2.6577274558 
Si 2.8117998713 2.8219457258 -0.1777349501 
Si 1.1617703851 1.5350278485 1.4867891684 
Si 5.4133527381 -0.1454263936 -0.2004456880 
Si 5.4605084947 2.7521654748 2.7562423804 
Si 6.7005324355 1.3883817843 1.4643472503 
Si 7.9599354245 0.1937482174 2.7898747151 
Si 8.0287319848 2.6800401588 -0.1374676215 
Si 0.0950226078 5.3901446343 -0.1645204378 
Si 2.5524776207 5.5821800037 2.7334095847 
Si 1.1660335776 6.9616118597 1.3031734981 
Si 3.9560577004 3.9297384023 1.4275510445 
Si 5.5532591930 5.2541575355 0.1766208954 
Si 6.7301027810 6.9317569773 1.4131453733 
Si 9.2719585383 4.0376342019 1.2179119140 
Si 7.9444037105 5.2466555555 2.7013450105 
Si -0.0533098014 8.2295464505 2.7987385969 
Si 2.6222764209 8.1226645626 0.1232386223 
Si 3.8368881821 9.3517927038 1.3398574200 
Si 5.3174558654 8.1356554602 2.9111081552 
Si 8.2193437113 8.2939340204 0.0092293583 
Si 9.5332450420 9.5432278806 1.3224003039 
Si 0.0704521557 -0.1089822143 5.8395394594 
Si 2.8280338144 2.8941780344 5.7194816280 
Si 1.4124248574 1.3451621228 7.1355420073 
Si 3.9941866829 1.3665300960 4.4292633883 
Si 5.2077979142 -0.1189347385 5.7791928113 
Si 6.5349688890 1.2637276062 7.0889913456 
Si 9.4220944412 1.4519792830 4.3749361508 
Si 8.0441461714 2.5180233190 5.6054971255 
Si 1.4357622132 3.9959886635 4.1267277367 
Si -0.0633164869 5.4926514942 5.6148919473 
Si 1.3623243668 6.9536377271 7.1559354158 
Si 6.7961681851 4.1435122159 4.1232722031 
Si 4.0987638994 6.7141860392 4.2195738213 
Si 4.0225197915 4.1358024346 7.2200658239 
Si 5.4639558841 5.2476216952 5.8388409605 
Si 6.7901384353 6.8570948479 6.9167228949 
Si 9.3928750921 6.8664892443 4.2175855420 
Si 9.4668597415 4.0411785292 6.9574800042 
Si 1.5133378740 9.6782446189 4.2862781425 
Si 2.6219313568 8.1035938412 5.7940654259 
Si 6.8187884423 9.3298545963 4.3742264581 
Si 3.9255684820 9.6889450840 6.9819262633 
Si 7.9638202446 8.2759849561 5.7291843251 
Si 9.5630816442 9.6486249969 6.9569653294 
Si 0.0493375098 2.8552328545 8.4444627268 
Si 2.7893522736 0.0219803803 8.5137746331 
Si 3.8453069707 1.4703046193 9.8983532367 
Si 5.4675002730 2.6638672153 8.4892665318 
Si 8.2236382950 -0.1473391515 8.3636086321 
Si 9.5292124382 1.1734024000 9.8690912308 
Si 1.3055436300 4.0713279623 9.8909555427 
Si 2.7118961669 5.3104487396 8.3742595128 
Si 6.8322534303 4.0689733734 9.7439577138 
Si 4.0826481083 6.8020172614 9.7432975202 
Si 7.8824179374 5.2859691777 8.5790529394 
Si 9.2160959573 6.6873306069 9.9786127847 
Si 0.0203743252 8.1985132663 8.3363636585 
Si 1.4663574047 9.3788984418 9.8175390358 
Si 5.4110710304 8.2851605153 8.5972359038 
Si 6.6110611018 9.4531247185 9.8256195283 

