&CONTROL
   calculation      = 'scf'
   tstress          = .true.
   tprnfor          = .true.
   outdir           = './'
   disk_io          = 'none'
   pseudo_dir       = '/home/ppiaggi/pseudos'
/
&SYSTEM
   ecutwfc          = 30
   input_dft        = 'PBE'
   ntyp             = 1
   nat              = 64
   ibrav            = 0
/
&ELECTRONS
   electron_maxstep = 1000
   mixing_beta      = 0.5
/
&IONS
/
&CELL
/

ATOMIC_SPECIES
Si 28.085 Si_ONCV_PBE_sr.upf

K_POINTS gamma

CELL_PARAMETERS angstrom
11.33900069545989 0.00000000000000 0.00000000000000
0.00000000000000 10.98129886513341 0.00000000000000
0.00000000000000 0.00000000000000 10.51897793469742

ATOMIC_POSITIONS angstrom
Si 0.1843292053 -0.0458799228 -0.1350426973 
Si -0.1418982189 2.8712675513 2.6427310988 
Si 2.8282639143 -0.0896033209 2.6034945717 
Si 2.7518015105 3.0081246437 0.0466231286 
Si 1.5503802818 1.5577602660 1.3914994309 
Si 5.6082680243 -0.1361770925 -0.0974167428 
Si 5.4403964431 2.8580568854 2.4292594510 
Si 6.8686840241 1.3730234550 1.4580542931 
Si 8.4205610434 -0.1300698033 2.4432873182 
Si 8.5537421347 2.7945073921 -0.1760171555 
Si 0.0508384559 5.7663903836 0.0910599938 
Si 2.7036473320 5.5231618012 2.5268812849 
Si 1.4343055579 6.9573907015 1.2782769827 
Si 4.1970359702 4.4041849081 1.4103418685 
Si 5.6020753959 5.6263131500 -0.0387769837 
Si 7.0474802498 7.0202787381 1.1461306126 
Si 9.5730375629 4.1868151785 1.3189968801 
Si 8.2676560641 5.6438240919 2.6093829399 
Si -0.0092514344 8.6049765140 2.5995496928 
Si 2.9519609013 8.4210080302 -0.1185681613 
Si 4.1573797615 9.9687263239 1.2837293247 
Si 5.4758461875 8.4607270550 2.3990044550 
Si 8.2464240868 8.5701191647 0.1690413610 
Si 9.5900622803 9.8685796502 1.1612689713 
Si -0.0052448426 -0.1459032498 4.9865824451 
Si 2.5974831071 2.9550171428 5.0800032835 
Si 1.4299228241 1.4601512576 6.4570508230 
Si 4.3866915710 1.3331907532 3.8910904115 
Si 5.4270583656 0.0021639857 5.1013291721 
Si 6.8936817434 1.3259438545 6.4157630884 
Si 9.8867314364 1.3325360302 3.8324666131 
Si 8.3039874045 2.6943765493 5.2206501569 
Si 1.4484305862 4.2311893083 3.7114502175 
Si -0.0144358844 5.5830345539 5.1134946267 
Si 1.3210614322 7.2633605862 6.4351605299 
Si 6.8000003644 4.2530457532 3.8899547756 
Si 4.3515579584 6.9507291639 3.7272530677 
Si 4.3038102690 4.3884083761 6.2985290661 
Si 5.5161837363 5.6052621600 5.0045169903 
Si 7.0441075290 6.9443567138 6.4623441536 
Si 9.6383205363 7.0903509617 3.7898393329 
Si 9.6401783136 4.0423264998 6.4647786087 
Si 1.2212541548 9.9911424361 3.6904430762 
Si 2.8992562618 8.3960304021 4.9551693944 
Si 6.9453597726 9.9719926560 3.9631692123 
Si 4.1593171053 9.7652108030 6.3732050057 
Si 8.5495979412 8.6058013830 5.2117199028 
Si 9.8422060177 9.8193178908 6.4968485169 
Si -0.1225443127 2.9403348669 7.8119012505 
Si 2.9551887039 0.1813687417 7.7221815449 
Si 4.0046244500 1.4149135819 8.8955970020 
Si 5.4710088425 2.6860316350 7.7148760402 
Si 8.2088269836 0.0144108899 7.5783793773 
Si 9.7730435175 1.5246444405 9.0969786999 
Si 1.3921029041 4.1175460581 9.0675374723 
Si 2.6100908131 5.5183570085 7.6211062922 
Si 7.0716343768 4.3000407507 8.8598744370 
Si 4.0330918213 6.9683204329 9.0320324395 
Si 8.3606726047 5.8162353817 7.7876021250 
Si 9.6125858707 6.9042511340 9.0459087913 
Si -0.0918812544 8.5969942407 7.7123445514 
Si 1.2840838892 9.9564077379 8.9504354342 
Si 5.4095242948 8.4485742026 7.7594732811 
Si 7.1421090189 9.7725898135 8.8042909497 

