&CONTROL
   calculation      = 'scf'
   tstress          = .true.
   tprnfor          = .true.
   outdir           = './'
   disk_io          = 'none'
   pseudo_dir       = '/home/ppiaggi/pseudos'
/
&SYSTEM
   ecutwfc          = 30
   input_dft        = 'PBE'
   ntyp             = 1
   nat              = 64
   ibrav            = 0
/
&ELECTRONS
   electron_maxstep = 1000
   mixing_beta      = 0.5
/
&IONS
/
&CELL
/

ATOMIC_SPECIES
Si 28.085 Si_ONCV_PBE_sr.upf

K_POINTS gamma

CELL_PARAMETERS angstrom
11.43102850895315 0.00000000000000 0.00000000000000
0.00000000000000 11.02846054647579 0.00000000000000
0.00000000000000 0.00000000000000 11.26946124474411

ATOMIC_POSITIONS angstrom
Si -0.0271361224 -0.0155391007 0.1263304507 
Si -0.0985763880 2.7567127451 2.7661453103 
Si 2.8371703661 -0.0685854517 2.7121585623 
Si 2.8247858550 2.9625567690 -0.0508100271 
Si 1.4923043187 1.2368523458 1.2447847472 
Si 5.8888135890 0.1143686043 -0.1213350487 
Si 5.8001148225 2.7690949329 2.6419471279 
Si 7.2703343740 1.5963572264 1.5993080968 
Si 8.6753002568 0.1824729342 2.8610230741 
Si 8.7634394231 3.0372290975 0.1433554649 
Si -0.0813761825 5.9621010248 0.1562351767 
Si 3.0740036618 5.7913489267 2.5995044169 
Si 1.6275057375 7.2409194463 1.5342977021 
Si 4.3800303366 4.3195217292 1.3871670523 
Si 5.9143331918 5.9259571422 -0.1407189923 
Si 7.4637973517 7.2013188026 1.2065450707 
Si 10.3602959576 4.5287332410 1.3603913947 
Si 8.7469428420 5.8044470093 2.9975205141 
Si -0.1080352087 8.7774152131 2.8560428047 
Si 2.9901339496 8.5291270993 0.1688083330 
Si 4.2561724432 9.9004550753 1.2957120788 
Si 6.0074694002 8.6504918097 2.9881736454 
Si 8.9644057878 8.7592594292 -0.1661591499 
Si 10.3131927881 10.0357987832 1.2665327931 
Si 0.0759117282 0.1588917325 5.6386593953 
Si 2.7388660871 2.7335203943 5.3958463635 
Si 1.3923730939 1.4037648006 6.9745319029 
Si 4.2341762265 1.4867183220 4.3223260344 
Si 6.0183651786 -0.1585738367 5.7199591146 
Si 7.2140622010 1.5577639309 6.9017890337 
Si 10.3221185828 1.4608463862 4.1977780613 
Si 8.9223591009 2.7508714919 5.4684333538 
Si 1.4252918454 4.4524921136 4.3184272578 
Si 0.0240280596 5.9667353735 5.4227793548 
Si 1.5668988270 7.1018467692 6.9714746967 
Si 7.4768013906 4.2266192743 4.3851054395 
Si 4.3054020880 7.0712456266 4.3505951485 
Si 4.1992708449 4.3608052195 7.1255550875 
Si 5.9491414515 5.8909881577 5.7065335112 
Si 7.3398191830 7.0938824008 7.1007137995 
Si 10.1351508884 7.1185123311 4.3443825321 
Si 10.4013177558 4.4280865551 7.1407704201 
Si 1.3824245290 10.2722224124 4.1877846806 
Si 2.9529105571 8.6966819743 5.4248274737 
Si 7.1830980390 10.2821357781 4.0338774010 
Si 4.2664736332 9.9246776017 7.1902571971 
Si 8.9828705226 8.5965821635 5.5295883419 
Si 10.3010928180 10.1157517806 6.7991135072 
Si 0.0569981792 2.7048116373 8.5203113448 
Si 3.0839723448 -0.1633362189 8.5543551484 
Si 4.4820502608 1.5941806402 9.9579874173 
Si 5.7613087264 3.0880298512 8.3334373846 
Si 8.9621709577 -0.0307053058 8.4271366471 
Si 10.4404087644 1.4133493209 9.6665857551 
Si 1.5501241851 4.4523020191 9.8657020688 
Si 3.0646667803 5.7222173072 8.3555545079 
Si 7.1400451837 4.1262448906 9.8022347718 
Si 4.4838415921 7.2697759822 9.6127862542 
Si 8.8392895985 5.7524766543 8.3849565070 
Si 10.4072904293 7.0080465521 9.8460985851 
Si 0.1545505007 8.8111402804 8.2468367593 
Si 1.4879164319 9.9592318664 9.7369221114 
Si 5.7806165896 8.6241759452 8.5793970127 
Si 7.2139266941 9.9715487289 9.9358048852 

