&CONTROL
   calculation      = 'scf'
   tstress          = .true.
   tprnfor          = .true.
   outdir           = './'
   disk_io          = 'none'
   pseudo_dir       = '/home/ppiaggi/pseudos'
/
&SYSTEM
   ecutwfc          = 30
   input_dft        = 'PBE'
   ntyp             = 1
   nat              = 64
   ibrav            = 0
/
&ELECTRONS
   electron_maxstep = 1000
   mixing_beta      = 0.5
/
&IONS
/
&CELL
/

ATOMIC_SPECIES
Si 28.085 Si_ONCV_PBE_sr.upf

K_POINTS gamma

CELL_PARAMETERS angstrom
11.04558739485467 0.00000000000000 0.00000000000000
0.00000000000000 10.46712099503420 0.00000000000000
0.00000000000000 0.00000000000000 11.50399283441346

ATOMIC_POSITIONS angstrom
Si 0.1724160747 0.0274895048 0.0047618888 
Si 0.1284470761 2.4224485023 3.0039728692 
Si 3.0058284473 0.1063878049 3.0596714671 
Si 2.9870361090 2.6542775030 0.1196312995 
Si 1.4793101535 1.3927861348 1.6944908795 
Si 5.8338878604 0.0513824161 -0.1269571476 
Si 5.7201567487 2.6233565904 2.8915031222 
Si 6.9572692990 1.1565336199 1.3609573894 
Si 8.5716730187 -0.0811380951 2.8906370169 
Si 8.6435261709 2.5157317530 -0.1860536622 
Si 0.1995392646 5.0147988776 0.1246664522 
Si 3.0291137810 4.8769596591 2.8541456411 
Si 1.2753865281 6.2902159168 1.6329166299 
Si 4.4038811893 3.7051388613 1.2965349222 
Si 5.5937553021 4.8488769871 0.1663516863 
Si 7.2676866160 6.2594881995 1.6517319273 
Si 9.9550060112 3.8602612248 1.6621974601 
Si 8.7159079297 5.1694030096 2.9928394024 
Si -0.1313939174 7.6715227561 2.9899620890 
Si 2.7398294485 7.4594972312 -0.2030673947 
Si 4.3560011315 8.6476568101 1.6503242143 
Si 5.5674405756 7.3552394084 2.8568081191 
Si 8.7020355501 7.5661234935 -0.0311364769 
Si 9.8458133867 8.8620750401 1.6787245168 
Si -0.0932686662 0.1029067785 5.7949548899 
Si 2.6981655888 2.5675193386 5.8404307414 
Si 1.4082886893 1.2312786109 7.6155884110 
Si 4.4421840324 1.2017637156 4.6407446711 
Si 5.6182989205 0.0547823066 6.0843433839 
Si 7.1607953729 1.4293220117 7.3754150891 
Si 10.1085041018 1.4132611081 4.3968087352 
Si 8.7661952580 2.4287780207 5.9852574642 
Si 1.2784450020 3.8808354175 4.6047029224 
Si -0.1319469826 5.1516587447 5.9501187693 
Si 1.5259088953 6.1209182590 7.5424995597 
Si 7.0416722152 3.6235810388 4.5236728646 
Si 4.3039007399 6.2700172268 4.3427989090 
Si 4.1115537507 3.8775213509 7.5310179303 
Si 5.6555219208 4.9155911196 5.8379708231 
Si 7.0209788883 6.3429036821 7.2363606693 
Si 9.9315771366 6.1670550335 4.6765152494 
Si 10.1552537758 3.9242129139 7.2545869622 
Si 1.2724638042 8.6335551805 4.5618855102 
Si 2.8430956120 7.4792624055 5.9515432761 
Si 7.0447360757 8.7429967569 4.2866727213 
Si 4.3322174851 8.5991911944 7.5901291763 
Si 8.3877144628 7.6767944593 6.0131421749 
Si 9.8352805618 8.6422308204 7.3592469853 
Si 0.1305303761 2.6678950413 9.1011132061 
Si 2.9945863474 0.0360659301 8.9965091293 
Si 4.2813870666 1.3470935586 10.4396162120 
Si 5.7740309633 2.6369946073 8.8613253534 
Si 8.7580507901 -0.1724128748 9.0136524008 
Si 9.8747880450 1.1781091194 10.3399250853 
Si 1.5080394321 3.7695328758 10.3537767080 
Si 2.7454828284 4.9693950217 8.9996578101 
Si 6.9384603145 3.7804062383 10.4286912903 
Si 4.4230337800 6.3175573052 10.4253878859 
Si 8.7120859214 4.9631295580 8.8749481265 
Si 9.8345771824 6.0855398970 10.2438307379 
Si 0.0880507854 7.4770444219 8.8797361795 
Si 1.4647160510 8.8943130218 10.5885989256 
Si 5.5176158606 7.3778169051 9.1311042075 
Si 7.2586269298 8.8628867669 10.2875963371 

