&CONTROL
   calculation      = 'scf'
   tstress          = .true.
   tprnfor          = .true.
   outdir           = './'
   disk_io          = 'none'
   pseudo_dir       = '/home/ppiaggi/pseudos'
/
&SYSTEM
   ecutwfc          = 30
   input_dft        = 'PBE'
   ntyp             = 1
   nat              = 64
   ibrav            = 0
/
&ELECTRONS
   electron_maxstep = 1000
   mixing_beta      = 0.5
/
&IONS
/
&CELL
/

ATOMIC_SPECIES
Si 28.085 Si_ONCV_PBE_sr.upf

K_POINTS gamma

CELL_PARAMETERS angstrom
11.09662944436686 0.00000000000000 0.00000000000000
0.00000000000000 11.13069231162543 0.00000000000000
0.00000000000000 0.00000000000000 11.49276747146626

ATOMIC_POSITIONS angstrom
Si -0.1543470845 -0.1927776321 0.0286804299 
Si -0.0607834262 2.6512243531 2.8693314105 
Si 2.5950574786 0.1239588949 2.8689589809 
Si 2.4788455969 2.8123350585 0.1406525826 
Si 1.3106076899 1.5788987196 1.5789327571 
Si 5.2727464831 -0.1424985823 0.2046365422 
Si 5.3215312406 2.8647994483 2.7811200447 
Si 6.4560011023 1.5793985083 1.5954060446 
Si 7.8464059590 0.0959779749 2.9671658283 
Si 8.0500870779 2.6916690884 -0.0145260744 
Si 0.1246070124 5.5983005323 0.1938835078 
Si 2.7699815539 5.5206552046 2.8412355289 
Si 1.5067796920 6.9501952078 1.5119208815 
Si 3.9950410359 4.0683700880 1.2550758658 
Si 5.3347704811 5.4080478196 -0.1971309413 
Si 6.8110521268 7.0668123591 1.5670399207 
Si 9.3579356717 3.9862146598 1.3840298025 
Si 7.9747704216 5.4798593232 2.8674691981 
Si 0.0180831907 8.4053361804 2.8110417032 
Si 2.8173563859 8.2386564992 -0.1500335728 
Si 4.0851911008 9.7604484108 1.3409256447 
Si 5.3896706026 8.4800450342 2.9012965278 
Si 7.9735596095 8.3420451726 -0.0293287985 
Si 9.4287429204 9.8803112995 1.4955269590 
Si -0.0107305927 -0.0860733446 5.9250310681 
Si 2.8352020210 2.6039798477 5.7259606819 
Si 1.3512606406 1.5110445164 7.3466797353 
Si 4.1379034526 1.4225289557 4.1685137550 
Si 5.4199371856 0.1948690739 5.8393295145 
Si 6.5888816444 1.3178941055 7.3063540772 
Si 9.4024703406 1.4190991139 4.3857469981 
Si 8.0742411891 2.8929594736 5.9167091267 
Si 1.4724435173 4.1683428043 4.2581108861 
Si -0.0267055248 5.3987782377 5.9924419241 
Si 1.4445988004 7.1205636562 7.3889257983 
Si 6.6002276280 4.1283771254 4.2142763930 
Si 3.8977036398 7.0807025082 4.2305353867 
Si 4.0691387573 4.3457290662 7.3237962970 
Si 5.3360879501 5.7043435701 6.0100610687 
Si 6.5391083078 6.7823165428 7.0824117714 
Si 9.0932889844 6.9292992224 4.3592259254 
Si 9.1991089776 4.2403421767 7.2283096338 
Si 1.3357244524 9.8187504486 4.2917085069 
Si 2.6339462871 8.4132009227 5.6373918797 
Si 6.7940093275 9.8350894408 4.3134172839 
Si 4.0619758733 9.7688794377 7.3585432010 
Si 8.1213687817 8.4743763356 5.8578937250 
Si 9.1437841060 9.8182517585 7.3347660783 
Si 0.0937244384 2.7283685763 8.5028640193 
Si 2.5688804181 0.1716538178 8.7981493756 
Si 3.9884951703 1.4424422397 10.3122208311 
Si 5.2302648042 2.6516710480 8.7365359323 
Si 7.8379535902 -0.0051636051 8.7856110085 
Si 9.2658875807 1.2267205050 9.9981080019 
Si 1.3171919796 4.0365386139 10.0340839568 
Si 2.4993495527 5.6097606598 8.5607822388 
Si 6.7462851042 4.0396738631 10.1843494328 
Si 3.8187270192 7.0182007974 10.1889657493 
Si 8.0148338486 5.4436303456 8.7122128349 
Si 9.2984174807 6.9132740722 10.2502938009 
Si 0.0112774665 8.1804146905 8.8476965227 
Si 1.3166986922 9.8691444878 10.0208473420 
Si 5.1775672050 8.3809627430 8.6179277310 
Si 6.5137115410 9.8257330204 9.9852607838 

