&CONTROL
   calculation      = 'scf'
   tstress          = .true.
   tprnfor          = .true.
   outdir           = './'
   disk_io          = 'none'
   pseudo_dir       = '/home/ppiaggi/pseudos'
/
&SYSTEM
   ecutwfc          = 30
   occupations      = 'smearing'
   degauss          = 0.01
   smearing         = 'fermi-dirac'
   input_dft        = 'PBE'
   ntyp             = 1
   nat              = 64
   ibrav            = 0
/
&ELECTRONS
   electron_maxstep = 1000
   mixing_beta      = 0.5
/
&IONS
/
&CELL
/

ATOMIC_SPECIES
Si 28.085 Si_ONCV_PBE_sr.upf

K_POINTS gamma

CELL_PARAMETERS angstrom
11.13660311238301 0.00000000000000 0.00000000000000
0.00000000000000 10.70305739780071 0.00000000000000
0.00000000000000 0.00000000000000 10.78367748218592

ATOMIC_POSITIONS angstrom
Si -0.0273604806 0.0782339240 -0.0430782758 
Si 0.0627332201 2.6410329768 2.6539230063 
Si 2.6337325143 0.0383513111 2.6668092591 
Si 2.6864433924 2.6912782919 -0.0504754875 
Si 1.3917108850 1.3820521805 1.4364822298 
Si 5.4270241634 -0.0386425207 -0.0353793312 
Si 5.4875432867 2.6218844752 2.6505238896 
Si 6.7117981862 1.2724776027 1.3994240694 
Si 8.1035010289 -0.0106865695 2.8170567349 
Si 8.0531565581 2.6032332140 -0.0201008106 
Si -0.0007378224 5.2232438269 -0.0025134120 
Si 2.6696360890 5.2583017272 2.7288383820 
Si 1.2912834304 6.4679853270 1.2723543209 
Si 4.0874922935 3.9838345044 1.4363109873 
Si 5.4844909879 5.3250836459 -0.0036194965 
Si 6.7242396414 6.6026735965 1.2740684436 
Si 9.4456400951 3.9961358595 1.4403308267 
Si 8.1800467478 5.2638508340 2.6775299252 
Si 0.0643120737 7.9374496230 2.6555573819 
Si 2.7003522538 7.9033703389 0.0174427200 
Si 4.0560157040 9.1880468021 1.4558963968 
Si 5.5038259926 7.8170639892 2.6285470523 
Si 8.2230057823 7.9579227022 0.0377819384 
Si 9.4877555310 9.2378634988 1.4408867273 
Si 0.0262670607 -0.0103827972 5.4846142669 
Si 2.7333948772 2.6572790338 5.4056155597 
Si 1.2593397159 1.3311068636 6.6992027175 
Si 3.9727387155 1.3428681941 3.9876573142 
Si 5.3540764540 0.0714375394 5.4319161107 
Si 6.8679191456 1.2163111693 6.6988626017 
Si 9.4885449516 1.2945428918 4.1478753887 
Si 8.0734373158 2.5802035531 5.5259681678 
Si 1.3560779886 3.9255866196 4.0466657578 
Si -0.0008081370 5.1694139915 5.3963322563 
Si 1.3789050541 6.6110256919 6.8177243651 
Si 6.8426035802 3.9198286568 4.0310825337 
Si 4.0847029260 6.5706817711 3.9807569466 
Si 4.1296315303 4.0026136907 6.7756083177 
Si 5.3434044560 5.3288384831 5.3846640489 
Si 6.8448214269 6.5833583574 6.8644545646 
Si 9.4807396805 6.5212054947 4.0989546459 
Si 9.5048922911 3.9836672977 6.8091709798 
Si 1.2683107045 9.2695606323 4.0829520991 
Si 2.7066792308 7.7779129708 5.4947716742 
Si 6.7630874266 9.2492172800 4.0750967349 
Si 4.0374725063 9.1905143284 6.7896056773 
Si 8.0457237984 7.9147583041 5.3913203387 
Si 9.5132492773 9.1322747890 6.7650732934 
Si 0.0081430094 2.5428505574 8.0577909055 
Si 2.6752661433 0.0553855452 8.2157019762 
Si 4.0824598680 1.3188269331 9.4430154393 
Si 5.4776728954 2.5299594150 8.1345465827 
Si 8.0769900371 -0.0230294053 8.0568145108 
Si 9.4990404294 1.4030232749 9.5341438732 
Si 1.4396855656 3.8839527069 9.4408187184 
Si 2.7146904035 5.1713583930 8.0558454327 
Si 6.7123735052 4.0070747287 9.5706142090 
Si 4.0048862099 6.5348680017 9.5330022764 
Si 8.1965592237 5.1511367888 8.1503916477 
Si 9.4743275069 6.5052889367 9.4339971510 
Si -0.0441813591 7.8556835547 8.1923678525 
Si 1.3406252587 9.1841384725 9.4301243041 
Si 5.5063640069 7.8557244422 8.0808495055 
Si 6.8446315776 9.2581816942 9.4759919657 

