&CONTROL
   calculation      = 'scf'
   tstress          = .true.
   tprnfor          = .true.
   outdir           = './'
   disk_io          = 'none'
   pseudo_dir       = '/home/ppiaggi/pseudos'
/
&SYSTEM
   ecutwfc          = 30
   occupations      = 'smearing'
   degauss          = 0.01
   smearing         = 'fermi-dirac'
   input_dft        = 'PBE'
   ntyp             = 1
   nat              = 64
   ibrav            = 0
/
&ELECTRONS
   electron_maxstep = 1000
   mixing_beta      = 0.5
/
&IONS
/
&CELL
/

ATOMIC_SPECIES
Si 28.085 Si_ONCV_PBE_sr.upf

K_POINTS gamma

CELL_PARAMETERS angstrom
11.00675217954250 0.00000000000000 0.00000000000000
0.00000000000000 11.24068113850087 0.00000000000000
0.00000000000000 0.00000000000000 10.70024748382374

ATOMIC_POSITIONS angstrom
Si 0.0135271545 -0.0564481576 0.0191318839 
Si 0.0968997869 2.7389780100 2.5952762153 
Si 2.7432864200 -0.0001129384 2.6219944396 
Si 2.7214568759 2.8618051044 0.0677834967 
Si 1.3972424441 1.4904688483 1.3380250339 
Si 5.2946479581 0.0815651720 0.0498807882 
Si 5.3987919321 2.8792211265 2.6100208279 
Si 6.7632038729 1.3915240856 1.2478638167 
Si 7.9924944358 0.0236100812 2.7142117120 
Si 8.0624411707 2.8405229277 -0.0529144922 
Si -0.0378820391 5.6086130341 0.0156278220 
Si 2.7739553119 5.7516549535 2.7007747060 
Si 1.4168572056 7.0199033025 1.2943228152 
Si 4.0301463013 4.1943722955 1.3547711419 
Si 5.4269417290 5.6314239483 0.0843965951 
Si 6.6511092145 7.1444529394 1.2970123102 
Si 9.3849825949 4.3098403522 1.3029278128 
Si 8.1134653814 5.7076064551 2.6272888934 
Si 0.0234163517 8.5026562238 2.7160384626 
Si 2.6443038921 8.5761963792 0.0229417005 
Si 4.1271263809 9.8257476468 1.3059188518 
Si 5.3348404123 8.4962181856 2.6785548498 
Si 8.0263060689 8.4485196183 -0.0056697245 
Si 9.3843346869 9.8853619606 1.3664145374 
Si 0.0773425724 0.0501319650 5.2137110008 
Si 2.6832247786 2.7727188213 5.2521059379 
Si 1.3975312174 1.4641176800 6.6207152857 
Si 4.0897315130 1.4904170185 4.0304780668 
Si 5.3684783618 -0.0715322337 5.3111274349 
Si 6.8228832494 1.3460639768 6.5094034145 
Si 9.4034572975 1.3327333206 4.0066576175 
Si 8.1417276316 2.7978506973 5.3001322568 
Si 1.3450887750 4.2261174528 3.9089701781 
Si 0.0512527719 5.7480770508 5.2821940991 
Si 1.4433980283 7.1066091662 6.4968098568 
Si 6.8354703232 4.1934918124 3.9255451046 
Si 4.1112839241 7.0131800326 3.9700112302 
Si 3.9750238218 4.1660627990 6.6128197510 
Si 5.3825014225 5.7134726725 5.2545746814 
Si 6.7586069807 7.0835576775 6.6704871635 
Si 9.4250824327 7.1215264659 4.0315850892 
Si 9.3640238939 4.2930457242 6.5180226685 
Si 1.3692349589 9.9821106593 3.9058085605 
Si 2.7518701338 8.4124145142 5.3217484735 
Si 6.6755071765 9.9954744822 4.0094867007 
Si 3.9586120356 9.9021079176 6.6708791354 
Si 8.0115894422 8.3891945601 5.2043961130 
Si 9.4240897594 9.8530093501 6.5955179033 
Si -0.0305553731 2.8380255773 7.9314183070 
Si 2.6111339707 -0.0765957473 7.9265780008 
Si 3.9973374323 1.3817834323 9.3027955690 
Si 5.4606905383 2.9257309073 7.9156889121 
Si 8.0607271666 -0.0276959679 7.9845355553 
Si 9.5127609643 1.3385309465 9.1838805141 
Si 1.2880894760 4.2663108739 9.2074291432 
Si 2.6557800050 5.6516720221 7.9424146826 
Si 6.7694769871 4.1539364679 9.2777391103 
Si 4.1093471349 7.1447396427 9.1749666019 
Si 7.9911641193 5.5845411776 7.9337607175 
Si 9.3925401371 7.0983459822 9.2220862588 
Si -0.0801215161 8.3951610156 7.9871686570 
Si 1.3705511528 10.0039594673 9.1616994588 
Si 5.3967643809 8.5483605632 7.8865492048 
Si 6.7259540851 9.8716514318 9.3209184679 

