&CONTROL
   calculation      = 'scf'
   tstress          = .true.
   tprnfor          = .true.
   outdir           = './'
   disk_io          = 'none'
   pseudo_dir       = '/home/ppiaggi/pseudos'
/
&SYSTEM
   ecutwfc          = 30
   occupations      = 'smearing'
   degauss          = 0.01
   smearing         = 'fermi-dirac'
   input_dft        = 'PBE'
   ntyp             = 1
   nat              = 64
   ibrav            = 0
/
&ELECTRONS
   electron_maxstep = 1000
   mixing_beta      = 0.5
/
&IONS
/
&CELL
/

ATOMIC_SPECIES
Si 28.085 Si_ONCV_PBE_sr.upf

K_POINTS gamma

CELL_PARAMETERS angstrom
10.85028488308469 0.00000000000000 0.00000000000000
0.00000000000000 10.68948263776176 0.00000000000000
0.00000000000000 0.00000000000000 10.81578026766017

ATOMIC_POSITIONS angstrom
Si 0.0327183527 0.0429780762 -0.0128577671 
Si -0.0780098668 2.6329559499 2.6520149893 
Si 2.5870796793 -0.0190887159 2.5698158412 
Si 2.7055149580 2.6241536787 0.0630366983 
Si 1.3168940761 1.2554027007 1.2844625588 
Si 5.4023403859 0.0021813917 0.0476873478 
Si 5.3293930460 2.5789982947 2.5783967850 
Si 6.6926811249 1.2436934543 1.3474957402 
Si 7.8982801727 -0.0921523946 2.5839354635 
Si 7.8947725559 2.5765553005 0.0579524658 
Si 0.0928554987 5.2375991604 0.0453199302 
Si 2.7388417193 5.1743154854 2.5730338007 
Si 1.2373933988 6.4903018361 1.2729527119 
Si 4.0251948003 3.8640282632 1.3328890816 
Si 5.2634009652 5.2134358777 0.0418189876 
Si 6.5663649605 6.4156333028 1.2569201090 
Si 9.3267713376 3.8866707264 1.2601908013 
Si 7.9344801351 5.1202559634 2.6822100800 
Si -0.0736274634 7.7537585169 2.7063110241 
Si 2.6571848199 7.7287030221 0.0760711971 
Si 4.0553409466 9.1643322768 1.3577232251 
Si 5.3150660919 7.8043514402 2.7123920194 
Si 7.9782669371 7.7949875852 -0.0597739351 
Si 9.2427057046 9.0729639214 1.3819152324 
Si -0.0914364845 -0.0364239229 5.2775506453 
Si 2.6009520236 2.6191463615 5.2978000666 
Si 1.3748814455 1.3660336426 6.7264127159 
Si 3.8919049176 1.2548252940 3.9295931899 
Si 5.3158756633 -0.0807943322 5.2781109266 
Si 6.6006464937 1.2593257388 6.5817793343 
Si 9.3834163578 1.3259927631 4.0138731072 
Si 7.9535368344 2.6120575857 5.2310801029 
Si 1.2738122294 3.8957592329 4.0646855263 
Si 0.0834015526 5.2787508341 5.2868931654 
Si 1.3704453589 6.5117677530 6.5955731817 
Si 6.6789339533 3.9282187588 4.0490824205 
Si 4.0615429581 6.4059455452 3.9330877204 
Si 3.9364184540 3.8405317833 6.6200991500 
Si 5.3830158781 5.1477933655 5.3246575276 
Si 6.5582294239 6.5794081430 6.6229360777 
Si 9.2092957345 6.4852511735 4.0201938316 
Si 9.2655302054 3.9153345352 6.5544335025 
Si 1.2575898527 9.1506897241 3.9470127840 
Si 2.6590295240 7.7301632646 5.2163505291 
Si 6.6946161031 9.0055844387 4.0203960419 
Si 4.0628768839 9.1839934067 6.6617762513 
Si 7.9691345649 7.8307805836 5.3802806031 
Si 9.3211895275 9.0252762711 6.5493091514 
Si 0.0351423633 2.5819963346 8.0448347752 
Si 2.6755189106 -0.0277513839 7.9499614890 
Si 3.9594600055 1.2157755539 9.3364934216 
Si 5.2859522406 2.5203153564 7.8809025711 
Si 7.9912004160 0.0757121611 8.0575093407 
Si 9.2487660484 1.3371065876 9.2337362134 
Si 1.2755733159 3.8840561068 9.2806908443 
Si 2.6568628668 5.1067063241 7.9661138812 
Si 6.5468078725 3.8780163915 9.2693568670 
Si 3.8985677342 6.4515294140 9.3877944574 
Si 7.8818637675 5.1033483714 7.9477394736 
Si 9.3271424121 6.5702443826 9.3159872554 
Si -0.0445556093 7.8136365518 7.9624927276 
Si 1.3642035669 9.0819246415 9.3856509277 
Si 5.3370959688 7.8011984620 8.0544842463 
Si 6.5992607760 9.1506499060 9.3201639375 

