&CONTROL
   calculation      = 'scf'
   tstress          = .true.
   tprnfor          = .true.
   outdir           = './'
   disk_io          = 'none'
   pseudo_dir       = '/home/ppiaggi/pseudos'
/
&SYSTEM
   ecutwfc          = 30
   occupations      = 'smearing'
   degauss          = 0.01
   smearing         = 'fermi-dirac'
   input_dft        = 'PBE'
   ntyp             = 1
   nat              = 64
   ibrav            = 0
/
&ELECTRONS
   electron_maxstep = 1000
   mixing_beta      = 0.5
/
&IONS
/
&CELL
/

ATOMIC_SPECIES
Si 28.085 Si_ONCV_PBE_sr.upf

K_POINTS gamma

CELL_PARAMETERS angstrom
10.67298259485672 0.00000000000000 0.00000000000000
0.00000000000000 10.78176917072167 0.00000000000000
0.00000000000000 0.00000000000000 11.30896575647460

ATOMIC_POSITIONS angstrom
Si -0.0086615791 0.0502928240 -0.0788707234 
Si -0.0543380898 2.7353883288 2.9649183897 
Si 2.5963430103 -0.0181410129 2.8776908663 
Si 2.5564871726 2.7589952109 -0.0516683411 
Si 1.2852405323 1.4021667905 1.3778608398 
Si 5.3298684192 -0.0337459598 0.0991092076 
Si 5.3350438618 2.7220884053 2.9001985930 
Si 6.6494635574 1.2973749026 1.4014348150 
Si 7.8763735335 -0.1006206776 2.8733282291 
Si 7.8249351913 2.7645507626 0.1042897393 
Si 0.0317375667 5.4927003297 0.0235486409 
Si 2.6063995504 5.4783767473 2.7895213806 
Si 1.3427011081 6.9339920298 1.3385684150 
Si 3.9803094087 4.2423223321 1.3744333487 
Si 5.2143944679 5.5163033845 0.0401382401 
Si 6.5929359702 6.8793238451 1.3436579898 
Si 9.2312082604 4.1538556398 1.4104917537 
Si 7.8483146393 5.6089315717 2.8217044440 
Si -0.0515937554 8.3548140845 2.8820350047 
Si 2.6273120568 8.2317421025 0.0023999634 
Si 4.0364447388 9.7011901517 1.4400091345 
Si 5.2193755454 8.2370493574 2.8979361423 
Si 7.9076868306 8.3804659752 -0.0380822741 
Si 9.2531806852 9.7265737795 1.4448272502 
Si -0.0020487114 -0.0606789368 5.7207293050 
Si 2.5460765891 2.8297231198 5.8459965336 
Si 1.3912128953 1.3418225260 7.2980244488 
Si 3.9229798017 1.4216070814 4.3918557974 
Si 5.2988407266 0.0619441399 5.8506330083 
Si 6.5738586910 1.3340905255 7.1847707505 
Si 9.1776324950 1.3817123508 4.2371558199 
Si 7.8455696414 2.6903713976 5.7608478627 
Si 1.3197769016 4.0897476052 4.2452609060 
Si 0.0876425562 5.5929775679 5.8499932760 
Si 1.3393835791 6.9663372500 7.2825669695 
Si 6.4878231588 4.0779142799 4.4050958166 
Si 3.9676105605 6.8530816033 4.3548844637 
Si 3.8836433460 4.1842371854 7.2882208638 
Si 5.1938454622 5.4837988545 5.8617257361 
Si 6.6570540728 6.8481478285 7.2071257903 
Si 9.2892566153 6.9725731429 4.2726932822 
Si 9.2296600955 4.1522972323 7.2493612528 
Si 1.3928187552 9.6863379478 4.2144369370 
Si 2.5475332566 8.2411342174 5.8405106711 
Si 6.5883602822 9.5896618646 4.4135611652 
Si 4.0105762786 9.7702706230 7.2871714031 
Si 7.8861092371 8.3922088492 5.8147848009 
Si 9.1973201386 9.6636271352 7.1168666205 
Si -0.0111224502 2.6943880719 8.6992434623 
Si 2.6412988777 -0.0922766818 8.5618397072 
Si 3.9850462503 1.2854748232 10.0430609914 
Si 5.2482199524 2.8406171462 8.6925996017 
Si 7.8313420347 -0.0947438211 8.5418844267 
Si 9.2711149476 1.3132592027 9.9750679767 
Si 1.2237058580 4.0948891758 10.0650210414 
Si 2.6416880605 5.6287048372 8.6598161533 
Si 6.6243976048 4.1722827295 10.1322230962 
Si 3.9622924403 6.9050416554 10.0123985296 
Si 7.8560451476 5.4901962654 8.6066392721 
Si 9.2623165686 6.8635633070 10.1468350518 
Si 0.0868539044 8.2890855453 8.6609095292 
Si 1.2718242682 9.6424415926 10.0208176615 
Si 5.3005478790 8.2980496893 8.6528590203 
Si 6.6086858995 9.6129680753 10.1579217793 

