&CONTROL
   calculation      = 'scf'
   tstress          = .true.
   tprnfor          = .true.
   outdir           = './'
   disk_io          = 'none'
   pseudo_dir       = '/home/ppiaggi/pseudos'
/
&SYSTEM
   ecutwfc          = 30
   occupations      = 'smearing'
   degauss          = 0.01
   smearing         = 'fermi-dirac'
   input_dft        = 'PBE'
   ntyp             = 1
   nat              = 64
   ibrav            = 0
/
&ELECTRONS
   electron_maxstep = 1000
   mixing_beta      = 0.5
/
&IONS
/
&CELL
/

ATOMIC_SPECIES
Si 28.085 Si_ONCV_PBE_sr.upf

K_POINTS gamma

CELL_PARAMETERS angstrom
11.14337927004536 0.00000000000000 0.00000000000000
0.00000000000000 10.74146070052011 0.00000000000000
0.00000000000000 0.00000000000000 11.29021635939592

ATOMIC_POSITIONS angstrom
Si 0.0996292527 0.0764460193 -0.0407574328 
Si -0.0503839558 2.7010026095 2.9598128507 
Si 2.7304979871 0.0345452201 2.9679853210 
Si 2.8635889456 2.6138749113 0.0644617075 
Si 1.3571195568 1.2522119992 1.3627715057 
Si 5.6712810336 0.0742604519 -0.0058709501 
Si 5.6743341112 2.6241388381 2.7981911896 
Si 7.0191854762 1.2621923718 1.5342392833 
Si 8.4247476380 -0.0384132213 2.9649382054 
Si 8.4061671428 2.5735735721 -0.0788633803 
Si -0.0932954052 5.2474872706 -0.0974827013 
Si 2.7309858231 5.3225437212 2.8465718432 
Si 1.4737743568 6.6184594310 1.4207804517 
Si 4.2191572299 3.9849666293 1.3436784545 
Si 5.5355826054 5.3121175001 -0.0191458215 
Si 7.0486495014 6.6175929856 1.3491561046 
Si 9.8743038011 4.0199686464 1.4205735448 
Si 8.3792029657 5.3481532364 2.8362988334 
Si 0.0713082270 7.8529439957 2.8823514902 
Si 2.7381366816 7.9948910130 -0.0179618967 
Si 4.1886880929 9.3116287173 1.3748710661 
Si 5.5702747401 7.8525275709 2.8425148187 
Si 8.3465932519 7.9756940661 0.0432487426 
Si 9.8706794649 9.3680970926 1.3324868090 
Si 0.0443174560 -0.0161531480 5.8298223247 
Si 2.8501439050 2.6114619961 5.6345415974 
Si 1.3970872165 1.4082801025 7.0711366916 
Si 4.1510028941 1.3171057392 4.3227136741 
Si 5.5816162038 -0.0569942516 5.6815118021 
Si 7.0543544760 1.3837678331 7.1241860874 
Si 9.8735122493 1.2912359348 4.2351524047 
Si 8.3308435207 2.6518489927 5.7225718441 
Si 1.3188498603 3.9511455416 4.2436062329 
Si 0.0555944501 5.3872416145 5.7284758617 
Si 1.4813809695 6.7120200789 7.1720777809 
Si 7.0737698968 4.0244235536 4.3025618515 
Si 4.2571384518 6.5611610252 4.2976972158 
Si 4.2664399336 3.8796730820 7.2627881658 
Si 5.6364793226 5.2816094234 5.7579727193 
Si 6.9149955295 6.5713659755 7.2275163819 
Si 9.7236661696 6.5840524812 4.2409004358 
Si 9.7139452582 3.9211643269 7.0638978828 
Si 1.4797477913 9.2396748515 4.2541395157 
Si 2.7391815991 8.0040666243 5.6840827601 
Si 6.9798258497 9.1938581055 4.2625084165 
Si 4.1982022116 9.2060922694 7.2577251903 
Si 8.4734320929 7.9374474332 5.6497153261 
Si 9.8401617411 9.2479310666 7.2485460242 
Si -0.0683872873 2.6046105245 8.4924539141 
Si 2.8561265844 -0.0660907734 8.6947246205 
Si 4.1956526521 1.2418199657 10.0459236783 
Si 5.5760617643 2.5963492505 8.5530118693 
Si 8.3742025330 -0.0313450280 8.6255492216 
Si 9.8365335021 1.3609608550 10.1088020030 
Si 1.3340995186 4.0609086130 10.0486193218 
Si 2.8788657543 5.2872312272 8.4944619566 
Si 6.9958875535 3.9402417279 10.0063704642 
Si 4.2514471511 6.5373242180 9.9347775482 
Si 8.2963818364 5.2655719474 8.5950304500 
Si 9.7859144603 6.6719280376 9.9489415920 
Si -0.0332531046 7.8645230487 8.5193086238 
Si 1.3974070265 9.3364078503 10.1085538259 
Si 5.6511670791 7.8656591744 8.4991864459 
Si 7.0363672848 9.3286471772 10.0346452118 

