&CONTROL
   calculation      = 'scf'
   tstress          = .true.
   tprnfor          = .true.
   outdir           = './'
   disk_io          = 'none'
   pseudo_dir       = '/home/ppiaggi/pseudos'
/
&SYSTEM
   ecutwfc          = 30
   occupations      = 'smearing'
   degauss          = 0.01
   smearing         = 'fermi-dirac'
   input_dft        = 'PBE'
   ntyp             = 1
   nat              = 64
   ibrav            = 0
/
&ELECTRONS
   electron_maxstep = 1000
   mixing_beta      = 0.5
/
&IONS
/
&CELL
/

ATOMIC_SPECIES
Si 28.085 Si_ONCV_PBE_sr.upf

K_POINTS gamma

CELL_PARAMETERS angstrom
11.08643131761540 0.00000000000000 0.00000000000000
0.00000000000000 11.29252084867790 0.00000000000000
0.00000000000000 0.00000000000000 11.28594253643842

ATOMIC_POSITIONS angstrom
Si -0.0786692291 -0.0022197580 0.0054189690 
Si 0.0116655014 2.8690432863 2.7688719881 
Si 2.9194659500 0.0899464421 2.8768442234 
Si 2.9253970035 2.8593431022 -0.0836020729 
Si 1.5057698122 1.4015343245 1.4961358645 
Si 5.6759870893 0.0947488062 -0.0736312843 
Si 5.6685959650 2.9589952117 2.8152163787 
Si 7.1145211464 1.5485996476 1.3361499185 
Si 8.5865378314 0.0381834134 2.9175688263 
Si 8.6101721008 2.8175644912 0.0228746275 
Si -0.0497918689 5.8051666409 0.0421776509 
Si 2.8399137903 5.8670495884 2.8224561181 
Si 1.3431908679 7.1565527345 1.5007143678 
Si 4.2593091320 4.2921228574 1.4837274968 
Si 5.7158356917 5.8158903089 -0.0083920126 
Si 7.1294412857 7.1970000331 1.3479546434 
Si 9.9445695528 4.2543647066 1.4269554074 
Si 8.4612920086 5.7476143659 2.8474913174 
Si 0.1030317413 8.6420266698 2.9175612903 
Si 2.9446306248 8.7464059588 0.0158395431 
Si 4.2081615670 10.1324696761 1.5098702047 
Si 5.6146612826 8.6586979036 2.9335546543 
Si 8.5164353989 8.7868633574 0.0777489712 
Si 10.0034971769 10.2609982607 1.3982316001 
Si -0.0200417523 -0.0345878760 5.7289959267 
Si 2.9253955067 2.9860810155 5.7943236046 
Si 1.3824835447 1.3958171221 7.0705398812 
Si 4.3289089683 1.5330210042 4.3237958190 
Si 5.5835699321 -0.0024531593 5.6400355524 
Si 7.1490071207 1.3561299832 7.0828172165 
Si 9.9195288798 1.4397888362 4.3950985791 
Si 8.5972259921 2.9420690154 5.7443002218 
Si 1.4294621678 4.4347970629 4.2487374650 
Si -0.0243554121 5.7900030975 5.6404123320 
Si 1.3958794467 7.2169170087 7.0963893359 
Si 7.0068792586 4.4516206010 4.3577753185 
Si 4.3370290279 7.1551595707 4.2802030626 
Si 4.1641744869 4.3963972998 7.1628595797 
Si 5.5853574419 5.7874823693 5.6979457603 
Si 7.0806344704 7.2525537110 7.1193805599 
Si 9.9028256795 7.2005446045 4.3159745735 
Si 9.9700044139 4.3436067120 7.1509103362 
Si 1.3965865697 10.1543012926 4.2219561056 
Si 2.9350397024 8.7865786356 5.7186145115 
Si 7.1581477311 10.1456439352 4.3432488678 
Si 4.2914618612 10.1690874872 7.0871180660 
Si 8.5140813666 8.7370520092 5.7094815059 
Si 10.0467043675 10.0581193500 7.1740670987 
Si -0.0385353762 2.8461044703 8.6500682700 
Si 2.7393567875 0.0430203808 8.6854298961 
Si 4.3498898395 1.5351038888 10.1344784729 
Si 5.7212399921 2.8784657376 8.6563272923 
Si 8.5834590634 -0.0859019689 8.5516778895 
Si 9.9652213248 1.4098033575 10.0651136601 
Si 1.3619329183 4.3733855014 9.9482209411 
Si 2.8417723019 5.7755872189 8.6567249688 
Si 7.0623988759 4.2745780755 9.9412463369 
Si 4.2697563605 7.2682567989 9.9721904408 
Si 8.6116257164 5.7711706786 8.6022893151 
Si 9.8407810418 7.3519227751 9.9670750094 
Si -0.1033119803 8.6052197688 8.5507292832 
Si 1.4646389878 10.0841325876 10.0054482699 
Si 5.6034680760 8.6742416257 8.5763569176 
Si 7.0968095425 10.2643124496 10.0192651201 

