&CONTROL
   calculation      = 'scf'
   tstress          = .true.
   tprnfor          = .true.
   outdir           = './'
   disk_io          = 'none'
   pseudo_dir       = '/home/ppiaggi/pseudos'
/
&SYSTEM
   ecutwfc          = 30
   occupations      = 'smearing'
   degauss          = 0.01
   smearing         = 'fermi-dirac'
   input_dft        = 'PBE'
   ntyp             = 1
   nat              = 64
   ibrav            = 0
/
&ELECTRONS
   electron_maxstep = 1000
   mixing_beta      = 0.5
/
&IONS
/
&CELL
/

ATOMIC_SPECIES
Si 28.085 Si_ONCV_PBE_sr.upf

K_POINTS gamma

CELL_PARAMETERS angstrom
11.14240484613391 0.00000000000000 0.00000000000000
0.00000000000000 10.76242125754876 0.00000000000000
0.00000000000000 0.00000000000000 11.06244405759641

ATOMIC_POSITIONS angstrom
Si -0.0391654254 0.0813920403 -0.0614975754 
Si -0.0772189152 2.6682258155 2.6915726810 
Si 2.7058755599 -0.0266687460 2.8192186065 
Si 2.6509335028 2.7884694673 0.0989768260 
Si 1.2999766890 1.3936433923 1.3556811336 
Si 5.4552168941 0.0975334605 0.0278865838 
Si 5.3411911196 2.8087317381 2.8033006489 
Si 6.7395313536 1.3486258736 1.3877980498 
Si 8.2018107667 -0.0675313735 2.6549345780 
Si 8.1250805793 2.8005096506 -0.0687901712 
Si -0.0886227809 5.4667144467 -0.0802340657 
Si 2.6428000463 5.5555151087 2.7497133657 
Si 1.2896722889 6.9452730187 1.2705845702 
Si 4.1317491238 4.1919029235 1.2891338241 
Si 5.5210102096 5.6185403866 0.0936969383 
Si 6.6857675759 6.9820242510 1.3235342357 
Si 9.4046324426 4.0497750057 1.2703134337 
Si 8.2245615636 5.5071010109 2.7496180187 
Si 0.0816093752 8.3240157185 2.7863182605 
Si 2.6430872953 8.1928391429 0.0700118464 
Si 4.0030248264 9.6448957481 1.2949524641 
Si 5.4213768139 8.3747457847 2.7922992193 
Si 8.1418845987 8.2603652016 0.0859971065 
Si 9.5659132171 9.7059169043 1.4512542617 
Si 0.0744227276 -0.0474352709 5.3893044320 
Si 2.6889908449 2.7119167264 5.4558335455 
Si 1.2823009536 1.3733653239 6.8716336129 
Si 4.0218976877 1.2883591671 4.1508266787 
Si 5.3888999606 0.0743890184 5.3596174168 
Si 6.7363711256 1.4462065844 6.7651717623 
Si 9.5508608257 1.4449703530 4.0104599571 
Si 8.1494042081 2.8051574508 5.5310815862 
Si 1.4152439925 4.0669822786 4.0234037388 
Si -0.0569661174 5.5121899280 5.5110698079 
Si 1.3890886663 7.0098083469 6.7286173923 
Si 6.8447264428 4.0697250661 4.1508748138 
Si 4.1348565227 6.8357619786 4.0923272439 
Si 4.1056574776 4.1158822966 6.8603603167 
Si 5.4239774143 5.4614542134 5.4734181724 
Si 6.6919688327 6.8680257859 6.8519705726 
Si 9.4640282532 6.9989062238 4.1780135930 
Si 9.5441640379 4.2184822658 6.7918970155 
Si 1.3073283481 9.6754718548 4.0534595359 
Si 2.7741301241 8.2996173740 5.4049073210 
Si 6.8220055119 9.7508929629 4.1310969745 
Si 4.1594810510 9.7309617292 6.7908550317 
Si 8.1703634374 8.1996797175 5.5464172318 
Si 9.5357755587 9.6055441462 6.8725390260 
Si -0.0837315276 2.8494567435 8.0940148110 
Si 2.7741117727 0.0483603650 8.1178071804 
Si 4.1289727622 1.3950378834 9.5225850805 
Si 5.3308304480 2.8285094201 8.1981262781 
Si 8.2120509016 -0.0443630365 8.2653711831 
Si 9.4478189116 1.4051710808 9.4636119839 
Si 1.3353511805 4.1465285696 9.4885441627 
Si 2.6783122664 5.5039158483 8.1015462512 
Si 6.7827831866 4.1190409992 9.5505767910 
Si 4.1346164045 6.9333448283 9.5755320762 
Si 8.1430894074 5.5616880884 8.0916166692 
Si 9.5721079469 6.9347847799 9.5467939831 
Si -0.0375454071 8.2202009974 8.1198945099 
Si 1.3459357219 9.6025691232 9.5543175377 
Si 5.4580501499 8.3743368401 8.2685439948 
Si 6.7025017587 9.6699639838 9.5400023261 

