&CONTROL
   calculation      = 'scf'
   tstress          = .true.
   tprnfor          = .true.
   outdir           = './'
   disk_io          = 'none'
   pseudo_dir       = '/home/ppiaggi/pseudos'
/
&SYSTEM
   ecutwfc          = 30
   occupations      = 'smearing'
   degauss          = 0.01
   smearing         = 'fermi-dirac'
   input_dft        = 'PBE'
   ntyp             = 1
   nat              = 64
   ibrav            = 0
/
&ELECTRONS
   electron_maxstep = 1000
   mixing_beta      = 0.5
/
&IONS
/
&CELL
/

ATOMIC_SPECIES
Si 28.085 Si_ONCV_PBE_sr.upf

K_POINTS gamma

CELL_PARAMETERS angstrom
11.02238815062036 0.00000000000000 0.00000000000000
0.00000000000000 11.07507746232328 0.00000000000000
0.00000000000000 0.00000000000000 11.08471395158135

ATOMIC_POSITIONS angstrom
Si 0.0108722259 -0.0925028360 0.0275509921 
Si 0.0939132049 2.8091233861 2.7234484721 
Si 2.7145520950 -0.0480440429 2.7421681307 
Si 2.7325062898 2.8908328226 0.0879505222 
Si 1.2887562437 1.4796922836 1.3825136476 
Si 5.5278013536 0.0450737596 0.0273609865 
Si 5.4364971924 2.7998626074 2.6675305474 
Si 6.7043524080 1.4505040938 1.4155979985 
Si 8.1814079446 0.0220267813 2.6878810997 
Si 8.1869751174 2.7613377223 -0.0835420932 
Si 0.0059475547 5.6337959104 -0.0288063614 
Si 2.8005367103 5.5459681648 2.7243859780 
Si 1.3560255158 7.0038208424 1.4347363671 
Si 4.0045403185 4.2845650027 1.4184361157 
Si 5.3487777371 5.5825039557 -0.0824492276 
Si 6.8313120377 7.0745560453 1.2740170359 
Si 9.5864381617 4.1717957733 1.2690563466 
Si 8.1308314934 5.5519162216 2.7522426508 
Si 0.0734112413 8.4089037938 2.7444941658 
Si 2.7616592867 8.4498940445 -0.0274230181 
Si 4.0945546798 9.8870373092 1.4093110240 
Si 5.4107900017 8.5290489277 2.7844629934 
Si 8.2029904374 8.3861327472 0.0081085697 
Si 9.4239238352 9.9668409198 1.3361512453 
Si -0.0311669770 -0.0636458985 5.4191747269 
Si 2.7109421581 2.7790588104 5.4172543430 
Si 1.2740316582 1.5091747970 6.9061213195 
Si 4.1490363620 1.3734281407 4.1738761549 
Si 5.4849866567 -0.0097545565 5.4280667861 
Si 6.7898732953 1.5107295683 6.7880887217 
Si 9.5850818360 1.3199923950 4.1905890304 
Si 8.0983724074 2.7632481583 5.3988585383 
Si 1.4386411920 4.2165572821 4.1926408313 
Si 0.0913434883 5.5703143395 5.4404778845 
Si 1.4525212295 6.9485576162 6.9211422725 
Si 6.7659782366 4.1715361116 4.0715184165 
Si 4.1621758369 6.9628604176 4.0830814341 
Si 4.0440552568 4.1581886762 6.7353096490 
Si 5.4963547659 5.5885993122 5.4678759781 
Si 6.8223563241 6.9526108610 6.7650569937 
Si 9.4775590095 7.0997118734 4.1488013042 
Si 9.5619027019 4.2845937632 6.7661832322 
Si 1.3857312939 9.8349783655 4.1788018763 
Si 2.7155872354 8.5172495055 5.4283270913 
Si 6.7249589449 9.7963980708 4.1068228120 
Si 4.0285989323 9.8118868610 6.7586308199 
Si 8.1102954819 8.3793554314 5.3835431803 
Si 9.4742643999 9.7982473708 6.8979296101 
Si -0.0647685053 2.9137834963 8.2523313675 
Si 2.6462608926 -0.0443141178 8.1352759602 
Si 4.0358109384 1.3603268995 9.5837850930 
Si 5.4113324014 2.8451687889 8.1363271543 
Si 8.2531564036 0.0253925374 8.2434348453 
Si 9.4813362146 1.4647186623 9.6218445842 
Si 1.4122645074 4.1731391760 9.6050246013 
Si 2.7983090232 5.6429837095 8.1114202792 
Si 6.7369576121 4.2038669608 9.6202121982 
Si 4.1091444361 6.9491391906 9.5156721986 
Si 8.2263606612 5.6699526142 8.1430148290 
Si 9.5154660710 7.0834871435 9.5121950787 
Si 0.0656675486 8.4746723677 8.2774275371 
Si 1.4075648066 9.8629037222 9.6423218320 
Si 5.3557727781 8.4926247034 8.1742411924 
Si 6.7216390880 9.7820474719 9.5799518018 

