&CONTROL
   calculation      = 'scf'
   tstress          = .true.
   tprnfor          = .true.
   outdir           = './'
   disk_io          = 'none'
   pseudo_dir       = '/home/ppiaggi/pseudos'
/
&SYSTEM
   ecutwfc          = 30
   occupations      = 'smearing'
   degauss          = 0.01
   smearing         = 'fermi-dirac'
   input_dft        = 'PBE'
   ntyp             = 1
   nat              = 64
   ibrav            = 0
/
&ELECTRONS
   electron_maxstep = 1000
   mixing_beta      = 0.5
/
&IONS
/
&CELL
/

ATOMIC_SPECIES
Si 28.085 Si_ONCV_PBE_sr.upf

K_POINTS gamma

CELL_PARAMETERS angstrom
10.83889820015263 0.00000000000000 0.00000000000000
0.00000000000000 11.14901754688842 0.00000000000000
0.00000000000000 0.00000000000000 10.84028622235705

ATOMIC_POSITIONS angstrom
Si 0.0550753376 -0.0594573781 0.0264506822 
Si 0.0258668932 2.7871250334 2.7299972349 
Si 2.7160408449 0.0550822726 2.7305521424 
Si 2.7659663737 2.8869940001 0.0449834612 
Si 1.3717264109 1.5202144281 1.2311609824 
Si 5.3511719650 -0.0879043434 -0.0503557475 
Si 5.3676027809 2.9374089864 2.7422922121 
Si 6.6913657528 1.3643902859 1.3503605464 
Si 7.9843339191 -0.0148479298 2.6153567550 
Si 7.9870535109 2.8531009361 -0.0394078351 
Si 0.0072544067 5.6924575003 -0.0152739483 
Si 2.7710542150 5.6161928067 2.6124062329 
Si 1.4253964691 7.0911436889 1.2493235789 
Si 3.9920284093 4.2608942488 1.2676332185 
Si 5.3664128240 5.7165169112 0.0172901421 
Si 6.6858543365 7.1027814746 1.2804590275 
Si 9.4214071603 4.3019940665 1.3195994495 
Si 8.1438051111 5.5847539940 2.6542919888 
Si 0.0236375000 8.4908624269 2.5583914910 
Si 2.6523039767 8.5256489188 -0.0012064747 
Si 4.0233756017 9.9574688666 1.3918691568 
Si 5.4276182343 8.5523712873 2.6210419350 
Si 7.9770170890 8.6160088344 0.0434944445 
Si 9.4578788978 10.0366322163 1.2415519097 
Si -0.0193888899 0.0202350251 5.3608728867 
Si 2.7756611839 2.8685623111 5.3841849136 
Si 1.3821752410 1.3742004964 6.5904632624 
Si 3.9488391184 1.5198144375 3.9572429532 
Si 5.3395095521 -0.0693229312 5.2556980667 
Si 6.6911831535 1.4954524503 6.6938084528 
Si 9.3843380267 1.4436646996 4.0019131583 
Si 8.0272364793 2.9237277766 5.3833423735 
Si 1.3659744031 4.2594167637 3.9524186591 
Si -0.0729483365 5.7081200354 5.3638247762 
Si 1.3596540219 7.0833724785 6.7102151805 
Si 6.8059800602 4.2501894798 4.0617300884 
Si 3.9610971115 7.1600206006 3.8846955823 
Si 4.0724603362 4.1728644637 6.5239922578 
Si 5.2970617433 5.6574634450 5.2210262664 
Si 6.6805803817 7.1210671467 6.7155861591 
Si 9.3328629505 7.1420579896 3.9540970778 
Si 9.3790978355 4.1836406955 6.5968477797 
Si 1.4293735806 9.9011368506 3.9643268782 
Si 2.7359972112 8.5989696422 5.2355159543 
Si 6.7766801216 10.0416846216 3.9663575500 
Si 3.9431205774 9.8640230862 6.5252562220 
Si 8.1352431194 8.5909082671 5.3506407762 
Si 9.3509872187 9.8411086616 6.5280693242 
Si -0.0798189291 2.8926174068 8.0152939239 
Si 2.7711175841 0.0401658383 7.9357268960 
Si 3.9584451127 1.4426252128 9.1894682776 
Si 5.3480262729 2.8274418705 7.9731112955 
Si 8.0025963642 0.0849108765 8.0389486851 
Si 9.4083283146 1.5063863410 9.2073041062 
Si 1.3309992770 4.3160908289 9.2292594537 
Si 2.6964800285 5.5908044186 7.9008029056 
Si 6.7087021797 4.2006816604 9.3580654687 
Si 4.0291315296 7.1286760141 9.1958030570 
Si 8.1506872775 5.5923771146 7.8562225640 
Si 9.4074167764 7.0939470977 9.2772234401 
Si -0.0785480586 8.4713266623 7.8706943339 
Si 1.4386645421 10.0262160449 9.3592182816 
Si 5.2796932997 8.4992851798 7.9118474490 
Si 6.7546330691 10.0127992083 9.1842542925 

