&CONTROL
   calculation      = 'scf'
   tstress          = .true.
   tprnfor          = .true.
   outdir           = './'
   disk_io          = 'none'
   pseudo_dir       = '/home/ppiaggi/pseudos'
/
&SYSTEM
   ecutwfc          = 30
   occupations      = 'smearing'
   degauss          = 0.01
   smearing         = 'fermi-dirac'
   input_dft        = 'PBE'
   ntyp             = 1
   nat              = 64
   ibrav            = 0
/
&ELECTRONS
   electron_maxstep = 1000
   mixing_beta      = 0.5
/
&IONS
/
&CELL
/

ATOMIC_SPECIES
Si 28.085 Si_ONCV_PBE_sr.upf

K_POINTS gamma

CELL_PARAMETERS angstrom
11.29533301661553 0.00000000000000 0.00000000000000
0.00000000000000 10.99078241017790 0.00000000000000
0.00000000000000 0.00000000000000 11.04028736642953

ATOMIC_POSITIONS angstrom
Si 0.0808121837 -0.1003925301 0.0803791068 
Si -0.0995039315 2.7433761073 2.6731868499 
Si 2.7461548366 -0.0078988951 2.6787233342 
Si 2.8890869083 2.7184191383 -0.0039811508 
Si 1.4437119331 1.3366273737 1.4278118459 
Si 5.7258321375 -0.0143335486 0.0789602884 
Si 5.6910783429 2.8569232403 2.6954170157 
Si 7.1589183297 1.3748057926 1.3848008407 
Si 8.4806300737 -0.0881467665 2.7044948807 
Si 8.5380576885 2.8490089940 0.0198388325 
Si -0.0728359615 5.5671992203 0.0635108848 
Si 2.9205126483 5.5951658062 2.6786929646 
Si 1.4855833855 6.8621474903 1.4750754071 
Si 4.3519522119 4.0468149234 1.4767713812 
Si 5.6840188664 5.5776424966 -0.0226009344 
Si 7.0427136121 6.9824742189 1.4358910203 
Si 9.9538807206 4.0678311890 1.3647485229 
Si 8.5564643722 5.5912321792 2.7390009476 
Si 0.0007507593 8.2569500846 2.6906980335 
Si 2.8332036413 8.3299046497 0.0557992374 
Si 4.1981807932 9.6054189126 1.3992778898 
Si 5.6082188824 8.2706364581 2.7813919043 
Si 8.5222668667 8.2925743583 -0.0546063902 
Si 10.0273391367 9.5885402859 1.3022018711 
Si 0.0262876862 0.0950450905 5.4408977116 
Si 2.7849117364 2.7843104576 5.5654149327 
Si 1.5160400355 1.4012879484 6.9082843229 
Si 4.3393030447 1.3823112696 4.2018520081 
Si 5.6939179040 0.0289632342 5.5586307417 
Si 7.0535865402 1.4573954161 6.9874016791 
Si 9.8599810961 1.3415006924 4.1353697991 
Si 8.6025598629 2.8528177022 5.5648483326 
Si 1.4923069060 4.2304301489 4.0923198725 
Si -0.0314115480 5.5069690119 5.4517046264 
Si 1.4282570339 6.8701278384 6.8825602180 
Si 7.0245278218 4.1945910179 4.1150955551 
Si 4.3545131075 6.9252580043 4.0542172002 
Si 4.2783598187 4.1509593605 6.8614326924 
Si 5.6055887012 5.4348248645 5.4670973219 
Si 7.1948764866 6.9564780950 6.8255176340 
Si 9.8786451365 6.9255884775 4.1989108004 
Si 9.8548984918 4.1528297288 6.9206022285 
Si 1.5202880856 9.6445880577 4.0778855794 
Si 2.7521675310 8.3201470493 5.4621779758 
Si 7.1541629463 9.7357512518 4.1030731762 
Si 4.1586805251 9.6619129676 6.8209758091 
Si 8.5986209689 8.2860999904 5.5116829619 
Si 10.0048645626 9.7339305029 6.9482914352 
Si -0.0904086226 2.8247410661 8.2614431117 
Si 2.7450811151 0.0334327108 8.2163619098 
Si 4.2180460924 1.4164145912 9.6222733125 
Si 5.7129018081 2.6790570377 8.2528105699 
Si 8.4426522844 0.0598795453 8.2132516714 
Si 9.9613805405 1.2820380935 9.7415968570 
Si 1.5060846798 4.0394684468 9.6561738981 
Si 2.8855130415 5.4926305013 8.2505481124 
Si 7.0822262026 4.1484416225 9.7155944313 
Si 4.3240615012 6.8241341712 9.6833906938 
Si 8.5068997898 5.5153559807 8.3056643109 
Si 9.8414002003 6.9130948571 9.5768664001 
Si -0.0760636673 8.2854434604 8.2208465519 
Si 1.3913933244 9.7286167073 9.5869252116 
Si 5.7562807170 8.3640524664 8.1809904807 
Si 7.0858993694 9.5953251911 9.7238381656 

