&CONTROL
   calculation      = 'scf'
   tstress          = .true.
   tprnfor          = .true.
   outdir           = './'
   disk_io          = 'none'
   pseudo_dir       = '/home/ppiaggi/pseudos'
/
&SYSTEM
   ecutwfc          = 30
   occupations      = 'smearing'
   degauss          = 0.01
   smearing         = 'fermi-dirac'
   input_dft        = 'PBE'
   ntyp             = 1
   nat              = 64
   ibrav            = 0
/
&ELECTRONS
   electron_maxstep = 1000
   mixing_beta      = 0.5
/
&IONS
/
&CELL
/

ATOMIC_SPECIES
Si 28.085 Si_ONCV_PBE_sr.upf

K_POINTS gamma

CELL_PARAMETERS angstrom
10.93174769959531 0.00000000000000 0.00000000000000
0.00000000000000 10.94379768583791 0.00000000000000
0.00000000000000 0.00000000000000 10.98356390725401

ATOMIC_POSITIONS angstrom
Si -0.0473660708 0.0472331670 0.0656973409 
Si -0.0488769681 2.7461524639 2.7368845819 
Si 2.7661536300 0.0477963119 2.7396717666 
Si 2.7014562283 2.7167376228 -0.0357216615 
Si 1.2890197562 1.3201734293 1.3537089341 
Si 5.4847021045 -0.0296470986 -0.0576834768 
Si 5.4807609682 2.8668690851 2.7124705935 
Si 6.7554630638 1.3697624712 1.2962896147 
Si 8.1154524082 -0.0729419430 2.5852984074 
Si 8.0042869496 2.7932302241 0.0928163991 
Si -0.0709227185 5.5658025253 -0.0626287760 
Si 2.7252994719 5.6219086017 2.6025671130 
Si 1.2871127283 6.9125478319 1.4096013490 
Si 3.9469151291 4.2013159055 1.3101591828 
Si 5.4356206643 5.6503624927 0.0542845163 
Si 6.7855058237 6.9917098001 1.3266311360 
Si 9.4712721706 4.2106575746 1.3375492484 
Si 8.0124188851 5.5431991045 2.6775070991 
Si -0.0691311065 8.3322037667 2.6034535718 
Si 2.6304806590 8.4062328843 -0.0800263890 
Si 4.0636110582 9.6949839816 1.3186940281 
Si 5.2971333401 8.3835626603 2.5785558830 
Si 8.1064688370 8.4761573864 -0.0425731153 
Si 9.4063324645 9.8732231151 1.3906325709 
Si 0.0681340410 0.0263380806 5.2915468448 
Si 2.6372654529 2.7741220444 5.2884516220 
Si 1.2506901225 1.4263221881 6.7377656769 
Si 4.1063575144 1.4255403847 3.9193539223 
Si 5.3697531495 0.0783213473 5.2695863230 
Si 6.7222397770 1.4514151945 6.6623412179 
Si 9.4391195244 1.3973725522 4.0133330326 
Si 8.0391480873 2.7462785461 5.3367304300 
Si 1.3118866778 4.2575419954 4.0252682645 
Si -0.0663155022 5.6371829742 5.3042460406 
Si 1.3701083143 6.9058328848 6.7345351343 
Si 6.7729706393 4.2455930265 3.9874952597 
Si 3.9589656652 7.0613161218 4.0557828698 
Si 4.1111994068 4.1791298313 6.6801906767 
Si 5.3242884122 5.5806710602 5.3387983183 
Si 6.7161851049 7.0699280654 6.6015769731 
Si 9.5078005726 6.9158505145 3.9876809962 
Si 9.4396312967 4.1568019301 6.6148390184 
Si 1.4014064298 9.8053115942 4.0936611116 
Si 2.7408765735 8.3410613683 5.3129418298 
Si 6.6871233938 9.6946665626 4.0555435192 
Si 4.1315622285 9.7867430681 6.6550275536 
Si 8.1583981972 8.3104852621 5.2827158534 
Si 9.4882738206 9.7520306705 6.6568716935 
Si 0.0571577248 2.8334596273 8.0687683107 
Si 2.6894263239 0.0929907974 8.0187190622 
Si 4.0945867033 1.4881479000 9.2686524114 
Si 5.4843469461 2.8659568242 8.0401482774 
Si 8.1235702344 -0.0445643789 7.9926589001 
Si 9.3540257740 1.3002135726 9.2784484262 
Si 1.3953194321 4.2186339370 9.4375069592 
Si 2.6281978647 5.6836828993 8.0107826285 
Si 6.8139206102 4.2648813149 9.3919734863 
Si 4.1040167477 7.0747791608 9.3809652036 
Si 8.1155254848 5.6498954840 7.9221750183 
Si 9.3653345090 7.0668442001 9.3240887848 
Si -0.0123399038 8.4891151700 7.9309792165 
Si 1.2559802465 9.8738290464 9.3562936099 
Si 5.4705069273 8.3794256925 7.9949078230 
Si 6.6361673233 9.8348651262 9.3797652441 

