&CONTROL
   calculation      = 'scf'
   tstress          = .true.
   tprnfor          = .true.
   outdir           = './'
   disk_io          = 'none'
   pseudo_dir       = '/home/ppiaggi/pseudos'
/
&SYSTEM
   ecutwfc          = 30
   occupations      = 'smearing'
   degauss          = 0.01
   smearing         = 'fermi-dirac'
   input_dft        = 'PBE'
   ntyp             = 1
   nat              = 64
   ibrav            = 0
/
&ELECTRONS
   electron_maxstep = 1000
   mixing_beta      = 0.5
/
&IONS
/
&CELL
/

ATOMIC_SPECIES
Si 28.085 Si_ONCV_PBE_sr.upf

K_POINTS gamma

CELL_PARAMETERS angstrom
11.09061118135442 0.00000000000000 0.00000000000000
0.00000000000000 11.00850503820906 0.00000000000000
0.00000000000000 0.00000000000000 11.18295399799138

ATOMIC_POSITIONS angstrom
Si -0.0412272628 0.0049061936 0.0066337502 
Si 0.0498395850 2.8423876382 2.7141550123 
Si 2.8324127794 0.0120624691 2.7170037814 
Si 2.7592393194 2.7873878850 0.0009605043 
Si 1.3600724875 1.3936235810 1.3989709084 
Si 5.5493606310 0.0422355775 -0.0016826711 
Si 5.5647409492 2.8238491379 2.7769735260 
Si 7.0042720508 1.3504800309 1.3800153124 
Si 8.3914260123 -0.0025530485 2.7962962163 
Si 8.3719802110 2.7805670696 -0.0451628224 
Si 0.0472080469 5.6000970337 -0.0016989141 
Si 2.7437846786 5.6048502024 2.7565031585 
Si 1.4321981619 6.9964535881 1.3404003911 
Si 4.2184491132 4.2095123003 1.3754575797 
Si 5.5999905259 5.5715553550 -0.0334654841 
Si 6.9877101624 7.0288686511 1.4299522038 
Si 9.7457017838 4.1970250362 1.3360144391 
Si 8.3320122532 5.5674877119 2.8084877602 
Si 0.0500775209 8.3452471582 2.7815785717 
Si 2.8080851346 8.3548405839 0.0444141341 
Si 4.2077242788 9.8203418528 1.4017837403 
Si 5.5469029865 8.3837608051 2.7711813162 
Si 8.3875470961 8.4154551042 -0.0422355294 
Si 9.7445092232 9.7621722638 1.3838112199 
Si 0.0282870211 -0.0032219647 5.5545583115 
Si 2.7907233591 2.7420955844 5.4969178935 
Si 1.3416859381 1.4460255262 6.9327135409 
Si 4.1288568479 1.4072355372 4.1205710823 
Si 5.5355734498 0.0372694865 5.4837593184 
Si 6.9227198754 1.3741741495 6.9207987806 
Si 9.7663621959 1.4010890723 4.1879549484 
Si 8.3885002778 2.7503619732 5.4787419787 
Si 1.4124031663 4.1470229700 4.1745633050 
Si 0.0291562001 5.5512886634 5.5236245980 
Si 1.3927503343 6.9688564806 6.9224030090 
Si 6.9453436967 4.1477318904 4.1278106115 
Si 4.1338259286 6.9401333017 4.1712349120 
Si 4.1941460388 4.2069485435 6.9110177984 
Si 5.5324010429 5.5648818516 5.5701399359 
Si 6.9857917163 6.9644889438 6.9396599115 
Si 9.7444667727 6.9493798022 4.1269268997 
Si 9.7494605136 4.1849035642 6.9451450803 
Si 1.3969071717 9.7530014079 4.1533813851 
Si 2.8288543621 8.3317649333 5.5144125131 
Si 6.9662158495 9.7694708277 4.1622691046 
Si 4.2221371953 9.7296552190 6.8661969531 
Si 8.3796094709 8.4213026959 5.4927790302 
Si 9.7447997120 9.8018643704 6.9064971157 
Si 0.0427901671 2.8055736997 8.2410624763 
Si 2.7860401426 0.0447615447 8.2993700412 
Si 4.1465416957 1.3771344829 9.6652056594 
Si 5.5546372800 2.7590984348 8.2835664639 
Si 8.3170424835 0.0441749589 8.2774502173 
Si 9.7481784443 1.3795802283 9.6857417109 
Si 1.3774277344 4.2311038048 9.6590346004 
Si 2.8078130403 5.6182387036 8.3174750740 
Si 6.9588845947 4.1740996384 9.6747589701 
Si 4.1594324351 7.0149474246 9.6377775666 
Si 8.3363092918 5.5683581455 8.2724067505 
Si 9.7580901079 7.0312296645 9.6960183211 
Si -0.0080675654 8.3365631577 8.2646488756 
Si 1.3654323254 9.8117537870 9.6942760061 
Si 5.5296447265 8.3315549306 8.3205576041 
Si 6.9383519445 9.7506430310 9.6916634931 

