&CONTROL
   calculation      = 'scf'
   tstress          = .true.
   tprnfor          = .true.
   outdir           = './'
   disk_io          = 'none'
   pseudo_dir       = '/home/ppiaggi/pseudos'
/
&SYSTEM
   ecutwfc          = 30
   occupations      = 'smearing'
   degauss          = 0.01
   smearing         = 'fermi-dirac'
   input_dft        = 'PBE'
   ntyp             = 1
   nat              = 64
   ibrav            = 0
/
&ELECTRONS
   electron_maxstep = 1000
   mixing_beta      = 0.5
/
&IONS
/
&CELL
/

ATOMIC_SPECIES
Si 28.085 Si_ONCV_PBE_sr.upf

K_POINTS gamma

CELL_PARAMETERS angstrom
10.76300495673537 0.00000000000000 0.00000000000000
0.00000000000000 11.07117443495201 0.00000000000000
0.00000000000000 0.00000000000000 10.79926658949326

ATOMIC_POSITIONS angstrom
Si -0.0291070270 0.0019217201 0.0009450408 
Si 0.0378222985 2.7768721399 2.6878073177 
Si 2.6990730902 -0.0027804494 2.7052623440 
Si 2.6657627087 2.7494192145 -0.0375054006 
Si 1.3582536351 1.3897114132 1.3411625692 
Si 5.4481666256 -0.0322211698 0.0369857749 
Si 5.4206412237 2.7574626163 2.7075300227 
Si 6.7763182736 1.3850481090 1.3406338725 
Si 8.1737589517 -0.0102536643 2.6448665435 
Si 8.1036372925 2.7043598751 0.0116744160 
Si -0.0352826299 5.4591050500 -0.0272215271 
Si 2.7332018971 5.4625005837 2.6703505678 
Si 1.3732584167 6.8060001692 1.3730976734 
Si 4.1022474950 4.0642101957 1.3119320838 
Si 5.3808698214 5.4982398060 0.0040785972 
Si 6.7807914507 6.8871861891 1.3441355405 
Si 9.5254863804 4.1396458237 1.3362221074 
Si 8.1743138227 5.5141747482 2.7051324612 
Si -0.0366730342 8.1894414169 2.6923472455 
Si 2.6675099294 8.2242198619 0.0206907591 
Si 4.1052558404 9.6007222532 1.3416817769 
Si 5.3978299497 8.2075225109 2.7087893778 
Si 8.1847217888 8.2298407261 -0.0041962759 
Si 9.5485238179 9.6143569317 1.3728316026 
Si -0.0077381591 -0.0332397157 5.3216361704 
Si 2.6694225130 2.7392251199 5.3613224677 
Si 1.3386335921 1.3305767648 6.6857473170 
Si 4.0682628933 1.3892586220 4.0599591057 
Si 5.4177193231 -0.0193882528 5.3638900286 
Si 6.7524020818 1.4001853366 6.6965566109 
Si 9.4708755201 1.3425244124 4.0288500199 
Si 8.1280265148 2.6981040952 5.3419538771 
Si 1.3169038206 4.1107439100 4.0552554833 
Si 0.0116848499 5.4511123476 5.3019562736 
Si 1.3715983404 6.8839361446 6.6506982535 
Si 6.7559221839 4.1305916938 4.0216339077 
Si 4.0783965479 6.9008737698 4.0155050160 
Si 4.0602011795 4.1557275808 6.6483180435 
Si 5.4510902354 5.4620300788 5.3243625608 
Si 6.7815422328 6.8426838205 6.6523229088 
Si 9.4748865076 6.8432783948 4.0352897493 
Si 9.4858458306 4.0663796658 6.6488341218 
Si 1.3503277918 9.5945821697 4.0524307262 
Si 2.7419933446 8.2397306538 5.3679068031 
Si 6.7753306998 9.5699000101 3.9681260676 
Si 4.1188450321 9.6168307105 6.6656389833 
Si 8.1298372907 8.2222792018 5.3200567938 
Si 9.4748285520 9.6297108338 6.6428983277 
Si 0.0132378688 2.7724596276 8.0184116731 
Si 2.7401575336 0.0233765371 8.0049519425 
Si 4.0441497168 1.3949015634 9.3359379535 
Si 5.4175369888 2.7478836794 8.0294832958 
Si 8.1394344473 -0.0374071830 8.0535338606 
Si 9.5497587589 1.3648807998 9.3596678929 
Si 1.3248354997 4.1142445688 9.3761249388 
Si 2.6960187215 5.4415055158 8.0470697657 
Si 6.7418202318 4.0775983103 9.3333239305 
Si 4.0521901749 6.8612792032 9.3738408148 
Si 8.1333721843 5.4913727667 8.0475201873 
Si 9.4950246164 6.8077140810 9.3440501274 
Si 0.0421679583 8.2253376078 8.0342607737 
Si 1.3132363120 9.5446268202 9.3974323773 
Si 5.4222400755 8.2019210186 8.0101352846 
Si 6.7764842208 9.6093574025 9.4010071186 

