&CONTROL
   calculation      = 'scf'
   tstress          = .true.
   tprnfor          = .true.
   outdir           = './'
   disk_io          = 'none'
   pseudo_dir       = '/home/ppiaggi/pseudos'
/
&SYSTEM
   ecutwfc          = 30
   occupations      = 'smearing'
   degauss          = 0.01
   smearing         = 'fermi-dirac'
   input_dft        = 'PBE'
   ntyp             = 1
   nat              = 64
   ibrav            = 0
/
&ELECTRONS
   electron_maxstep = 1000
   mixing_beta      = 0.5
/
&IONS
/
&CELL
/

ATOMIC_SPECIES
Si 28.085 Si_ONCV_PBE_sr.upf

K_POINTS gamma

CELL_PARAMETERS angstrom
11.03061510949062 0.00000000000000 0.00000000000000
0.00000000000000 10.79982455893586 0.00000000000000
0.00000000000000 0.00000000000000 10.83504444708472

ATOMIC_POSITIONS angstrom
Si -0.0110855920 -0.0340789922 -0.0326041071 
Si -0.0014376040 2.7078214172 2.7101707918 
Si 2.6893875395 -0.0291750486 2.6875603696 
Si 2.7048708976 2.6365521980 0.0326901677 
Si 1.3550467976 1.3765908956 1.3764951651 
Si 5.4755661847 -0.0484153343 0.0426703575 
Si 5.4416306686 2.6778745738 2.7833196926 
Si 6.7597893916 1.3778520151 1.3781290245 
Si 8.1923507783 0.0079610697 2.7472619780 
Si 8.1893889091 2.6950526774 -0.0494971909 
Si -0.0027818873 5.3701704205 -0.0433379310 
Si 2.7585472326 5.3528288971 2.7598279381 
Si 1.3354864037 6.6207208365 1.3698363926 
Si 4.1218394197 4.0122659843 1.3648149767 
Si 5.4327026094 5.3201784826 0.0163612384 
Si 6.8507044671 6.6181208990 1.3666642809 
Si 9.5343060104 3.9670303536 1.4098741365 
Si 8.1259881893 5.3424334881 2.7672636943 
Si -0.0374003065 7.9424714314 2.7195337324 
Si 2.7690829600 8.0167981928 0.0156878837 
Si 4.1255199072 9.3112567459 1.3966182707 
Si 5.4832216813 8.0248272950 2.7688325486 
Si 8.2134370311 8.0033245956 0.0233650084 
Si 9.5791093152 9.3636094607 1.4094667024 
Si -0.0385815295 0.0424048840 5.4810681956 
Si 2.7165734835 2.6158934251 5.5069942850 
Si 1.3690370482 1.3324195213 6.8223021296 
Si 4.0511108991 1.3390445270 4.1094709120 
Si 5.4150245184 -0.0259214004 5.4340769631 
Si 6.8074307165 1.3571946095 6.8443455461 
Si 9.4847040304 1.3152439864 4.0842632532 
Si 8.1591755899 2.6713401500 5.5163809650 
Si 1.3423631090 4.0020854809 4.0885665119 
Si 0.0392619822 5.2815824953 5.4297825998 
Si 1.3826609032 6.6201693380 6.8739121067 
Si 6.8043100861 4.0080401043 4.1140738350 
Si 4.0623099385 6.6841039911 4.0569769429 
Si 4.1175950761 3.9911668824 6.7918477380 
Si 5.4811662083 5.2812259225 5.4943300300 
Si 6.8128809906 6.6624477340 6.8303197226 
Si 9.5354140185 6.6370906292 4.1033861035 
Si 9.5347498096 3.9559071428 6.8711890963 
Si 1.3200046052 9.3106932532 4.0642138481 
Si 2.6811877521 7.9882543085 5.5000534476 
Si 6.7863758059 9.3060347972 4.0815763175 
Si 4.0618744176 9.3314531539 6.8421928458 
Si 8.1715035069 7.9606558565 5.4340038549 
Si 9.5746650738 9.3059161022 6.7958094144 
Si 0.0147664215 2.6807790585 8.2433374723 
Si 2.7469828771 0.0182646876 8.1759750914 
Si 4.1266008357 1.3659090456 9.6101305215 
Si 5.4509394859 2.6637281664 8.2206825864 
Si 8.1401745397 -0.0157571978 8.2021514104 
Si 9.5402938855 1.3292187590 9.5757759204 
Si 1.3962997665 3.9964302946 9.5655277831 
Si 2.7007648418 5.3014690539 8.1892522387 
Si 6.8061458417 4.0089832038 9.6191233693 
Si 4.1318196860 6.6483596853 9.6180369212 
Si 8.1957803835 5.2763029921 8.2205443145 
Si 9.4973766245 6.6601430092 9.5713246874 
Si 0.0071385002 7.9601198536 8.2181302766 
Si 1.4046314207 9.3638946358 9.5534634466 
Si 5.4544256530 7.9537402713 8.2017954679 
Si 6.8154918558 9.3326680571 9.5956735065 

