&CONTROL
   calculation      = 'scf'
   tstress          = .true.
   tprnfor          = .true.
   outdir           = './'
   disk_io          = 'none'
   pseudo_dir       = '/home/ppiaggi/pseudos'
/
&SYSTEM
   ecutwfc          = 30
   occupations      = 'smearing'
   degauss          = 0.01
   smearing         = 'fermi-dirac'
   input_dft        = 'PBE'
   ntyp             = 1
   nat              = 64
   ibrav            = 0
/
&ELECTRONS
   electron_maxstep = 1000
   mixing_beta      = 0.5
/
&IONS
/
&CELL
/

ATOMIC_SPECIES
Si 28.085 Si_ONCV_PBE_sr.upf

K_POINTS gamma

CELL_PARAMETERS angstrom
11.11204929457933 0.00000000000000 0.00000000000000
0.00000000000000 10.91611400714592 0.00000000000000
0.00000000000000 0.00000000000000 10.95699686444809

ATOMIC_POSITIONS angstrom
Si 0.0352913028 0.0042760279 -0.0402012080 
Si 0.0260859899 2.7179783570 2.8142297031 
Si 2.8178523026 -0.0198253593 2.7452543127 
Si 2.8069483267 2.6711860729 -0.0267563978 
Si 1.4056697772 1.3805391692 1.3531274175 
Si 5.5431178968 0.0356310634 -0.0273402035 
Si 5.5381558187 2.6577148972 2.7797526388 
Si 6.9764380828 1.3574082387 1.3627361522 
Si 8.3576873922 0.0008363071 2.7844695738 
Si 8.3741851590 2.7146730888 -0.0038070487 
Si -0.0335281963 5.4272287702 -0.0187680306 
Si 2.7790095855 5.4527784761 2.8052692683 
Si 1.3922715648 6.7166448818 1.3453773450 
Si 4.1896122761 4.0197048146 1.3523057477 
Si 5.5589788073 5.3866918666 -0.0272903783 
Si 6.9608330018 6.7609745922 1.4066565572 
Si 9.7143544460 4.0283272874 1.3854691596 
Si 8.3308438273 5.3834068567 2.8099478680 
Si -0.0183282430 8.1420740798 2.7413687983 
Si 2.8090451252 8.1159805141 -0.0073662876 
Si 4.1573948858 9.4393647944 1.3705610189 
Si 5.5723098735 8.0805211138 2.7935358899 
Si 8.3897140094 8.1304431097 0.0025709317 
Si 9.7989713778 9.4556730578 1.3480129321 
Si -0.0132334099 -0.0104788536 5.5238669261 
Si 2.7526258200 2.6917090516 5.5271424814 
Si 1.3654099063 1.3130762764 6.9358778774 
Si 4.1877723540 1.3819194397 4.1434518247 
Si 5.5722428505 0.0453831075 5.5742689940 
Si 7.0163330342 1.3379094305 6.9308428481 
Si 9.7403878510 1.3550353064 4.1392493401 
Si 8.3559580401 2.7299995448 5.5828462585 
Si 1.4265963140 4.0259642641 4.1625554624 
Si -0.0055188099 5.3917200410 5.5352816297 
Si 1.3869377327 6.7293152010 7.0080390724 
Si 6.9866482070 4.0737783883 4.2012482588 
Si 4.2090466460 6.7587948523 4.1732045560 
Si 4.2110716952 4.0616009989 6.9118080165 
Si 5.6170607400 5.4177276244 5.5498097274 
Si 6.9624210715 6.7935071549 6.9540732740 
Si 9.7463685451 6.7369429638 4.2154396473 
Si 9.7415864779 4.1065862984 6.9852928462 
Si 1.3934894785 9.4762646769 4.1600342100 
Si 2.8365232423 8.1287284909 5.5534013884 
Si 6.9192269908 9.4666691236 4.1765333491 
Si 4.2036047281 9.5191122403 6.9901072314 
Si 8.3470259851 8.1254601672 5.5606134356 
Si 9.7603012968 9.5016799427 6.9574619031 
Si 0.0401884044 2.6989827433 8.3521733757 
Si 2.8002437605 0.0001643403 8.3042450566 
Si 4.1905091615 1.3654230148 9.7916873825 
Si 5.5565779005 2.7358904729 8.3199578636 
Si 8.4035041784 -0.0127877524 8.3178219591 
Si 9.7566523756 1.3694496753 9.7912409245 
Si 1.4382050834 4.0178991204 9.7720961680 
Si 2.7456604086 5.4545969960 8.3408374814 
Si 6.9706442350 4.1002442737 9.7078916890 
Si 4.1696956957 6.7835149299 9.7031869016 
Si 8.3263818180 5.3938502670 8.3404533005 
Si 9.7775285914 6.7313193232 9.7850465243 
Si 0.0052031717 8.0839961988 8.3824937036 
Si 1.3982455568 9.4475219301 9.7752680389 
Si 5.5393700730 8.0891274670 8.3587705478 
Si 7.0076807546 9.5123295358 9.7014999742 

