&CONTROL
   calculation      = 'scf'
   tstress          = .true.
   tprnfor          = .true.
   outdir           = './'
   disk_io          = 'none'
   pseudo_dir       = '/home/ppiaggi/pseudos'
/
&SYSTEM
   ecutwfc          = 30
   occupations      = 'smearing'
   degauss          = 0.01
   smearing         = 'fermi-dirac'
   input_dft        = 'PBE'
   ntyp             = 1
   nat              = 64
   ibrav            = 0
/
&ELECTRONS
   electron_maxstep = 1000
   mixing_beta      = 0.5
/
&IONS
/
&CELL
/

ATOMIC_SPECIES
Si 28.085 Si_ONCV_PBE_sr.upf

K_POINTS gamma

CELL_PARAMETERS angstrom
10.80763343294899 0.00000000000000 0.00000000000000
0.00000000000000 11.02704401220394 0.00000000000000
0.00000000000000 0.00000000000000 11.16779084310113

ATOMIC_POSITIONS angstrom
Si -0.0411509216 0.0299758869 -0.0235337715 
Si 0.0284781038 2.8018773549 2.7461792313 
Si 2.6918681111 -0.0105902160 2.7420398632 
Si 2.6639361362 2.7852769269 -0.0077559735 
Si 1.3368170121 1.3513903188 1.3774986856 
Si 5.3249580512 0.0110736869 -0.0429780929 
Si 5.2830472308 2.7666880604 2.7632379456 
Si 6.6033770779 1.3977390636 1.4164729882 
Si 7.9850145814 -0.0079100071 2.7066431056 
Si 7.9472045910 2.7574282797 0.0126851884 
Si 0.0336103590 5.5533328004 0.0300115174 
Si 2.6501934081 5.5375581063 2.7216391973 
Si 1.3361103708 6.8834385692 1.3811400579 
Si 3.9500980427 4.1236673236 1.3534434529 
Si 5.3017558767 5.4911845884 -0.0111823681 
Si 6.6512323145 6.8493712427 1.3556293163 
Si 9.2587159754 4.1469398177 1.3910228439 
Si 7.9211936034 5.5413520486 2.7448082742 
Si -0.0400006378 8.2236662850 2.7585486041 
Si 2.6650248374 8.2540329324 0.0309963708 
Si 3.9748602732 9.6358039920 1.3882347218 
Si 5.3048743064 8.2927569554 2.7131783384 
Si 7.9879829757 8.2378325277 -0.0329841722 
Si 9.2419601563 9.6914525671 1.4213963722 
Si -0.0207280381 -0.0454722429 5.5362372694 
Si 2.6379245378 2.7467042856 5.4579798753 
Si 1.2816658796 1.3867455822 6.8932022023 
Si 4.0146648713 1.3995343649 4.1576610224 
Si 5.3385487033 0.0344291847 5.5003954619 
Si 6.5988341286 1.3911403148 6.8472404541 
Si 9.3084549301 1.3862146376 4.0971846112 
Si 7.9740830748 2.7301090355 5.5297694276 
Si 1.3634237635 4.1058050279 4.1043046946 
Si 0.0231437629 5.5276115265 5.5400297935 
Si 1.3672104173 6.8553774415 6.8822402807 
Si 6.5928054470 4.1050605690 4.0927639017 
Si 3.9884768900 6.8703142241 4.0952188474 
Si 3.9828405251 4.1272543078 6.8358124888 
Si 5.3389780026 5.5319143373 5.4580435104 
Si 6.6559426050 6.8786663779 6.8325194286 
Si 9.2685429822 6.8918982984 4.1208469685 
Si 9.3071156509 4.1401337502 6.8970350965 
Si 1.3305103198 9.6716938657 4.1513659709 
Si 2.6246770274 8.2627173482 5.5296671396 
Si 6.6127684723 9.6565686114 4.1036715031 
Si 4.0116200918 9.6828665806 6.8956160805 
Si 7.9056182155 8.2738832239 5.4486480196 
Si 9.2348187064 9.6741904263 6.8201878312 
Si -0.0136999013 2.7957282720 8.2168480809 
Si 2.6389716711 -0.0129194139 8.2595980935 
Si 3.9624165317 1.3519427829 9.5892425252 
Si 5.3397337307 2.8046522177 8.2631745436 
Si 7.9047269531 0.0294297736 8.2095994433 
Si 9.3236575819 1.3586728160 9.6454383755 
Si 1.2842436444 4.1256369295 9.6132463281 
Si 2.6957164579 5.5440057877 8.2900441615 
Si 6.6688929740 4.1511820693 9.5785596503 
Si 3.9925394872 6.8466424253 9.6032353329 
Si 7.9828703131 5.4681008647 8.2169466094 
Si 9.2713091945 6.9366685854 9.6608379338 
Si -0.0407962186 8.2527368402 8.2677082711 
Si 1.3700856068 9.6833768163 9.5809473000 
Si 5.3386944423 8.2779119546 8.2781282818 
Si 6.5867303422 9.6877581041 9.6131883670 

