&CONTROL
   calculation      = 'scf'
   tstress          = .true.
   tprnfor          = .true.
   outdir           = './'
   disk_io          = 'none'
   pseudo_dir       = '/home/ppiaggi/pseudos'
/
&SYSTEM
   ecutwfc          = 30
   occupations      = 'smearing'
   degauss          = 0.01
   smearing         = 'fermi-dirac'
   input_dft        = 'PBE'
   ntyp             = 1
   nat              = 64
   ibrav            = 0
/
&ELECTRONS
   electron_maxstep = 1000
   mixing_beta      = 0.5
/
&IONS
/
&CELL
/

ATOMIC_SPECIES
Si 28.085 Si_ONCV_PBE_sr.upf

K_POINTS gamma

CELL_PARAMETERS angstrom
10.96591187528336 0.00000000000000 0.00000000000000
0.00000000000000 11.06185419821847 0.00000000000000
0.00000000000000 0.00000000000000 11.00492043534066

ATOMIC_POSITIONS angstrom
Si -0.0182874739 0.0205723667 -0.0140671185 
Si 0.0075490190 2.7964545053 2.7426910180 
Si 2.6967751061 -0.0435922731 2.7897132899 
Si 2.7263260337 2.8083052028 -0.0073820459 
Si 1.3116138715 1.3614857250 1.3907473785 
Si 5.4399278484 0.0267889259 0.0306530250 
Si 5.3965481091 2.7399090119 2.7774180433 
Si 6.8130775425 1.3840681850 1.4131992244 
Si 8.1506614779 -0.0255688579 2.7843868217 
Si 8.0952878940 2.7327969845 0.0360659426 
Si -0.0490684421 5.5833651609 -0.0200214277 
Si 2.7148065778 5.5617974846 2.7934397851 
Si 1.3119585618 6.9123660357 1.3453553236 
Si 4.1116236310 4.1935267292 1.3934107754 
Si 5.3975732765 5.6142977595 0.0203307459 
Si 6.8131969905 6.9140899387 1.4123006278 
Si 9.4716245776 4.1510185417 1.3589761329 
Si 8.0954928119 5.5561800434 2.7956665220 
Si 0.0285049281 8.3093585007 2.7230803806 
Si 2.7490300520 8.3598728672 0.0172006123 
Si 4.0898160048 9.7228647760 1.3971141411 
Si 5.4641676852 8.3954384201 2.7667995375 
Si 8.1702676398 8.3690435727 -0.0010878779 
Si 9.4713707670 9.7623514552 1.3418394887 
Si -0.0111717846 -0.0137164408 5.4762234537 
Si 2.6785214944 2.7338527789 5.4676215206 
Si 1.3210814686 1.3454406825 6.8495942551 
Si 4.0720618457 1.3871205236 4.1288187799 
Si 5.3790016762 -0.0006749149 5.5253071461 
Si 6.7724516347 1.3724750378 6.9355990286 
Si 9.4999713381 1.3802836455 4.1160010935 
Si 8.0814133844 2.7448479253 5.5036354587 
Si 1.3414102919 4.1808193864 4.1194555208 
Si 0.0024223367 5.5890977539 5.5159737235 
Si 1.3724721736 6.9445423502 6.9247405993 
Si 6.8028264488 4.2089299185 4.0861588006 
Si 4.0489100231 6.9347980109 4.0929491443 
Si 4.0432196082 4.1509113765 6.9363162777 
Si 5.4407928991 5.5327739265 5.5563813331 
Si 6.8101780082 6.9232751417 6.9363771470 
Si 9.4734911078 6.9047684483 4.1716169973 
Si 9.4818547268 4.1348691658 6.8743196224 
Si 1.3519121717 9.7414451723 4.1522371763 
Si 2.7268565157 8.3603916723 5.5051757880 
Si 6.7874794283 9.7396131354 4.1288691460 
Si 4.1069587428 9.7854315709 6.9102879328 
Si 8.1444279259 8.3320343915 5.5262141972 
Si 9.4481681991 9.7301098673 6.8704988450 
Si -0.0454562868 2.8250944382 8.2311894894 
Si 2.7213304529 -0.0389336343 8.3182777095 
Si 4.0544695822 1.4299511023 9.6739268790 
Si 5.4340516235 2.7770827243 8.3139346651 
Si 8.1605439206 0.0433341713 8.2577088841 
Si 9.4882706886 1.4041197014 9.6983400411 
Si 1.3650627499 4.2061490317 9.6202475633 
Si 2.7515475768 5.5300638472 8.2325638923 
Si 6.7846825622 4.1955870737 9.6931954629 
Si 4.0176788390 6.9883048756 9.6403240337 
Si 8.0899704034 5.5181474286 8.2915261287 
Si 9.5267598507 6.9822338827 9.6589571567 
Si -0.0192839839 8.3319311205 8.3047860224 
Si 1.3517477233 9.7382053941 9.6873460145 
Si 5.4195270250 8.3352173697 8.3050197257 
Si 6.7730293639 9.6967179314 9.6323299043 

