&CONTROL
   calculation      = 'scf'
   tstress          = .true.
   tprnfor          = .true.
   outdir           = './'
   disk_io          = 'none'
   pseudo_dir       = '/home/ppiaggi/pseudos'
/
&SYSTEM
   ecutwfc          = 30
   occupations      = 'smearing'
   degauss          = 0.01
   smearing         = 'fermi-dirac'
   input_dft        = 'PBE'
   ntyp             = 1
   nat              = 64
   ibrav            = 0
/
&ELECTRONS
   electron_maxstep = 1000
   mixing_beta      = 0.5
/
&IONS
/
&CELL
/

ATOMIC_SPECIES
Si 28.085 Si_ONCV_PBE_sr.upf

K_POINTS gamma

CELL_PARAMETERS angstrom
11.12109305654446 0.00000000000000 0.00000000000000
0.00000000000000 10.85265177565696 0.00000000000000
0.00000000000000 0.00000000000000 10.78720350272230

ATOMIC_POSITIONS angstrom
Si -0.0066148245 -0.0061397809 0.0456366746 
Si -0.0140397255 2.7765225540 2.7256306896 
Si 2.7344592134 0.0413863262 2.6647881003 
Si 2.7812016269 2.7955189378 0.0276376909 
Si 1.4296216753 1.4021309455 1.3069506057 
Si 5.5368587405 -0.0387958748 -0.0439867211 
Si 5.5552356415 2.7415411328 2.7387575602 
Si 6.9396782151 1.3689753141 1.3980983334 
Si 8.3337720172 -0.0231550229 2.6935252106 
Si 8.3075405679 2.7365523960 -0.0378989002 
Si 0.0208158733 5.5749297685 -0.0349631089 
Si 2.8016444562 5.5089019089 2.6878985379 
Si 1.4260046432 6.9483187043 1.3513079671 
Si 4.2183142465 4.1264393286 1.3907763392 
Si 5.5611160925 5.5197935188 -0.0257952500 
Si 6.9249900439 6.9501307724 1.3266652803 
Si 9.7096203085 4.1633926617 1.3098557275 
Si 8.3292466057 5.5643297910 2.6870349943 
Si 0.0192697817 8.2856875604 2.6707178651 
Si 2.7990268991 8.3164378898 -0.0049729059 
Si 4.1441096340 9.6479345735 1.3493991302 
Si 5.5554604180 8.3479679390 2.7097892978 
Si 8.3821092721 8.2989562430 -0.0347677354 
Si 9.6990012503 9.7372305733 1.3621269271 
Si 0.0300009804 -0.0418203760 5.4325788542 
Si 2.8256562048 2.7213335529 5.3927932113 
Si 1.4319802940 1.4098654377 6.7858104105 
Si 4.1314243620 1.3447087308 4.0925222927 
Si 5.5068454686 -0.0206804381 5.4046082593 
Si 6.9403141053 1.3371656153 6.7451841776 
Si 9.7100817986 1.4097726284 4.0228986265 
Si 8.3449128450 2.7870408546 5.4090840390 
Si 1.3556024130 4.1968947875 4.0752716959 
Si 0.0340410547 5.4958594849 5.4160530640 
Si 1.3815604091 6.9618746467 6.7761039998 
Si 6.9072941699 4.1823663718 4.0947872194 
Si 4.2024621239 6.9249455660 4.0887604300 
Si 4.2012714333 4.1546024474 6.7679378223 
Si 5.5501688570 5.5239150522 5.3911801290 
Si 6.9667234539 6.8934897030 6.7420719880 
Si 9.7366476817 6.8713195194 4.0356091686 
Si 9.7554070367 4.1430984766 6.7549865454 
Si 1.4266145651 9.7364951813 4.0707189647 
Si 2.7985603967 8.3165509954 5.4281598112 
Si 6.9950889923 9.6661179156 4.0605478191 
Si 4.1365235930 9.6678304050 6.7414312862 
Si 8.3342739314 8.2534245063 5.4163759636 
Si 9.7158061461 9.6951319310 6.8149183175 
Si -0.0192278729 2.8084280589 8.1611152079 
Si 2.7439573687 -0.0033033855 8.1504452198 
Si 4.1922148131 1.3634703972 9.4551504089 
Si 5.5919429816 2.7464452038 8.1373172877 
Si 8.3130718344 -0.0323928193 8.1073986994 
Si 9.7153376491 1.3590064197 9.4775200512 
Si 1.3684043079 4.1777378377 9.4626797286 
Si 2.8035144629 5.5636238842 8.0937518759 
Si 6.9402701265 4.1384656804 9.5190356424 
Si 4.1412266107 6.9285469779 9.4989802563 
Si 8.3109896568 5.5604929062 8.1078679150 
Si 9.7172803630 6.9592780857 9.5167910133 
Si 0.0313276992 8.3228598298 8.0919685032 
Si 1.4075272518 9.6986014669 9.4352231365 
Si 5.5789370789 8.3191173214 8.0902789209 
Si 6.9003205221 9.6848354509 9.5179785603 

