&CONTROL
   calculation      = 'scf'
   tstress          = .true.
   tprnfor          = .true.
   outdir           = './'
   disk_io          = 'none'
   pseudo_dir       = '/home/ppiaggi/pseudos'
/
&SYSTEM
   ecutwfc          = 30
   occupations      = 'smearing'
   degauss          = 0.01
   smearing         = 'fermi-dirac'
   input_dft        = 'PBE'
   ntyp             = 1
   nat              = 64
   ibrav            = 0
/
&ELECTRONS
   electron_maxstep = 1000
   mixing_beta      = 0.5
/
&IONS
/
&CELL
/

ATOMIC_SPECIES
Si 28.085 Si_ONCV_PBE_sr.upf

K_POINTS gamma

CELL_PARAMETERS angstrom
11.13075623790089 0.00000000000000 0.00000000000000
0.00000000000000 10.82432365523187 0.00000000000000
0.00000000000000 0.00000000000000 10.93898663623524

ATOMIC_POSITIONS angstrom
Si 0.0211692856 0.0099769168 -0.0185815162 
Si -0.0379593567 2.7284598999 2.8071860759 
Si 2.8379672366 -0.0430248450 2.7667416392 
Si 2.8617213982 2.6750734542 -0.0461825235 
Si 1.3709210077 1.3475722920 1.3659776622 
Si 5.6801974910 0.0329040242 0.0278176667 
Si 5.6768445688 2.7504631747 2.7377772199 
Si 7.0675569711 1.3391432760 1.3761158593 
Si 8.5557940741 -0.0140577975 2.7908242946 
Si 8.4627601874 2.6558765597 -0.0214695514 
Si -0.0112187079 5.3857187010 0.0447152285 
Si 2.8052308502 5.4354808042 2.8023943058 
Si 1.3868509561 6.7503814695 1.3764891863 
Si 4.2931575528 4.0208235310 1.3473603692 
Si 5.6814104341 5.3646213368 -0.0306511927 
Si 7.0628951247 6.7647278406 1.3696650503 
Si 9.8908710275 4.1024522086 1.3725727325 
Si 8.5217889699 5.3763503461 2.8130884442 
Si -0.0047013476 8.1445318554 2.8145444084 
Si 2.7861097363 8.0948946527 -0.0461021150 
Si 4.2497603679 9.4481590516 1.4222326126 
Si 5.7115858107 8.0952522894 2.7836430653 
Si 8.4658825751 8.1344363785 -0.0190894045 
Si 9.9204402501 9.4588191107 1.3403026146 
Si 0.0195996958 -0.0163528979 5.5203385312 
Si 2.8438718463 2.7108878594 5.5848533459 
Si 1.4433120007 1.3457337356 6.9441924730 
Si 4.2352900388 1.3942659086 4.1396261274 
Si 5.6460998698 -0.0115796183 5.5793662168 
Si 7.0978494740 1.3105732477 6.9186902565 
Si 9.9403585236 1.3165429577 4.1235518320 
Si 8.5046818178 2.7058368519 5.5621789062 
Si 1.4336083070 4.0667180861 4.1943156628 
Si 0.0472986539 5.4143299316 5.5704185261 
Si 1.4108117499 6.7192122045 6.9507591914 
Si 7.0889442472 4.0528040026 4.1420656086 
Si 4.2978552635 6.7302238488 4.1539737242 
Si 4.2945831780 4.0852446568 6.9284943107 
Si 5.7142834071 5.4100830606 5.5779756592 
Si 7.0818556711 6.8050694107 6.9500635215 
Si 9.9305375313 6.7158939641 4.1832786761 
Si 9.8954150906 4.1041166290 6.9709106200 
Si 1.4185181480 9.4301995913 4.1879392959 
Si 2.8852749649 8.1474674379 5.5627705116 
Si 7.1106482132 9.4495954794 4.1917628556 
Si 4.2485897061 9.4949833574 6.9538451618 
Si 8.4786406388 8.0655625202 5.5368823869 
Si 9.8852160725 9.4325989648 6.9432569927 
Si 0.0018133344 2.7020223616 8.3436392356 
Si 2.8432264029 0.0043947934 8.3177156392 
Si 4.2226360239 1.3919023212 9.7314628626 
Si 5.6610171201 2.7333470000 8.3693205536 
Si 8.4941132590 0.0476577879 8.2784478852 
Si 9.9540431114 1.3969589887 9.6766337441 
Si 1.4238262665 4.0095868953 9.7560244811 
Si 2.8402600361 5.3582627061 8.3289058596 
Si 7.0434732451 4.0347562125 9.6625386857 
Si 4.2582226726 6.7386905960 9.6867023635 
Si 8.5316335918 5.4020495886 8.3458640781 
Si 9.9012204162 6.7477668205 9.6949378338 
Si 0.0262821153 8.0918979068 8.2882668603 
Si 1.4469840960 9.4601610242 9.6943412081 
Si 5.6625968259 8.1410682412 8.3090788668 
Si 7.1440960678 9.4228987665 9.6570848143 

