&CONTROL
   calculation      = 'scf'
   tstress          = .true.
   tprnfor          = .true.
   outdir           = './'
   disk_io          = 'none'
   pseudo_dir       = '/home/ppiaggi/pseudos'
/
&SYSTEM
   ecutwfc          = 30
   occupations      = 'smearing'
   degauss          = 0.01
   smearing         = 'fermi-dirac'
   input_dft        = 'PBE'
   ntyp             = 1
   nat              = 64
   ibrav            = 0
/
&ELECTRONS
   electron_maxstep = 1000
   mixing_beta      = 0.5
/
&IONS
/
&CELL
/

ATOMIC_SPECIES
Si 28.085 Si_ONCV_PBE_sr.upf

K_POINTS gamma

CELL_PARAMETERS angstrom
11.07715823203252 0.00000000000000 0.00000000000000
0.00000000000000 10.83433243342129 0.00000000000000
0.00000000000000 0.00000000000000 11.12813504752017

ATOMIC_POSITIONS angstrom
Si -0.0474537419 -0.0197355975 0.0422403452 
Si 0.0201145919 2.7478791191 2.7684795577 
Si 2.7759147716 -0.0152343546 2.7643887253 
Si 2.7149944247 2.6692918865 -0.0329572107 
Si 1.3404726809 1.3963241717 1.3281319057 
Si 5.4503845624 0.0105133551 0.0333515901 
Si 5.4784951284 2.6863863584 2.6881439526 
Si 6.8907860823 1.3398912604 1.3769363014 
Si 8.1784914555 0.0110946736 2.7689229554 
Si 8.2093170852 2.7396430124 -0.0051536579 
Si 0.0139595484 5.4281458571 -0.0249630439 
Si 2.7502454411 5.4318066811 2.7362684535 
Si 1.3901742132 6.7948959940 1.3540177975 
Si 4.0863513266 4.0099895598 1.3375338943 
Si 5.5064216100 5.4109804568 -0.0133133581 
Si 6.8763839930 6.7175102870 1.3575221854 
Si 9.6262454968 4.0255988168 1.3450344712 
Si 8.2432500701 5.4436731907 2.6960910345 
Si 0.0181409351 8.1415804759 2.7703771729 
Si 2.7197787183 8.0921019768 -0.0416906226 
Si 4.1288839574 9.4884297139 1.3397907950 
Si 5.4618827437 8.0627359640 2.7217198399 
Si 8.2719102677 8.1365847915 0.0245881523 
Si 9.5575973187 9.4973065817 1.3535592687 
Si 0.0331973135 0.0276636092 5.4516692620 
Si 2.7489074640 2.6546654725 5.4349180854 
Si 1.3470973402 1.3848154057 6.8468700794 
Si 4.1281367052 1.3943482494 4.1085241760 
Si 5.4408933971 0.0324438902 5.4896508520 
Si 6.8802488107 1.3357793712 6.7932595061 
Si 9.5826758321 1.3634811577 4.1081290530 
Si 8.2008761017 2.7470763537 5.4898503205 
Si 1.3972986769 4.0540940004 4.1289076882 
Si 0.0168493904 5.4475150378 5.4518584172 
Si 1.3349990103 6.7564651640 6.8654729650 
Si 6.8572151730 4.0928108633 4.0801070844 
Si 4.0694618829 6.7837393449 4.0951890810 
Si 4.0663266063 4.0297582374 6.8148126049 
Si 5.4605632523 5.3830186377 5.4416325590 
Si 6.8705506175 6.7424662462 6.8190537143 
Si 9.6302054593 6.7316045026 4.0975298024 
Si 9.5937647675 4.1017905418 6.8607794287 
Si 1.4071282558 9.4643380767 4.1334259098 
Si 2.7812840236 8.1206832998 5.4589308227 
Si 6.8735780321 9.4436125533 4.1303614203 
Si 4.0955008057 9.4164425941 6.8202194051 
Si 8.2499907996 8.0663405462 5.4209063980 
Si 9.6340378638 9.4862834606 6.8660456266 
Si -0.0057221122 2.7163474560 8.2095118840 
Si 2.7299055868 -0.0452958811 8.1692808558 
Si 4.1028955074 1.3996022507 9.5813175755 
Si 5.5126184050 2.7409903770 8.1697934550 
Si 8.2575666226 0.0197231034 8.1871140582 
Si 9.5688300615 1.3444545013 9.5971471038 
Si 1.4191033746 4.0661785518 9.6099795821 
Si 2.7246148458 5.4196351026 8.1574371689 
Si 6.8736026748 4.0779732840 9.5264651914 
Si 4.1600320261 6.7230738885 9.5455551072 
Si 8.2409342502 5.4259488704 8.1548747051 
Si 9.5918723138 6.7308644796 9.5448388895 
Si -0.0156239483 8.1533620561 8.1639355961 
Si 1.3890737647 9.4783084766 9.5799457688 
Si 5.4591916826 8.1545034973 8.2416700290 
Si 6.8469099577 9.4831897819 9.5413003789 

