&CONTROL
   calculation      = 'scf'
   tstress          = .true.
   tprnfor          = .true.
   outdir           = './'
   disk_io          = 'none'
   pseudo_dir       = '/home/ppiaggi/pseudos'
/
&SYSTEM
   ecutwfc          = 30
   occupations      = 'smearing'
   degauss          = 0.01
   smearing         = 'fermi-dirac'
   input_dft        = 'PBE'
   ntyp             = 1
   nat              = 64
   ibrav            = 0
/
&ELECTRONS
   electron_maxstep = 1000
   mixing_beta      = 0.5
/
&IONS
/
&CELL
/

ATOMIC_SPECIES
Si 28.085 Si_ONCV_PBE_sr.upf

K_POINTS gamma

CELL_PARAMETERS angstrom
10.94475953287586 0.00000000000000 0.00000000000000
0.00000000000000 10.99200582343895 0.00000000000000
0.00000000000000 0.00000000000000 11.12503882059222

ATOMIC_POSITIONS angstrom
Si 0.0165286540 0.0308435913 0.0244435688 
Si -0.0276647082 2.7935215928 2.8660663950 
Si 2.7256097071 -0.0178968103 2.8370897378 
Si 2.7727796257 2.7819101768 0.0217839098 
Si 1.3254134152 1.4361497454 1.4559915942 
Si 5.4918427130 -0.0235502289 0.0333371373 
Si 5.4333029112 2.8186901940 2.7967763304 
Si 6.8102259316 1.3668509485 1.3832507245 
Si 8.1333516694 -0.0400556293 2.8043167377 
Si 8.1244789652 2.8191670595 -0.0356313762 
Si -0.0317027488 5.6162984864 -0.0121557061 
Si 2.7581752061 5.5855489257 2.8128370553 
Si 1.3724247671 6.9543823318 1.3921535193 
Si 4.0650742067 4.1643166124 1.4282686934 
Si 5.4789176427 5.6266999457 -0.0295496185 
Si 6.7908662943 6.9917452018 1.4220659236 
Si 9.5664762948 4.1684272647 1.3827440544 
Si 8.1398356773 5.6236969971 2.8427323602 
Si -0.0346186239 8.4238368770 2.8577529412 
Si 2.7164573378 8.3907781215 -0.0267541745 
Si 4.1160785565 9.7671245354 1.4426159764 
Si 5.4775506378 8.4189811855 2.7823253199 
Si 8.1987998042 8.3734459862 -0.0387557406 
Si 9.4853169505 9.7873971868 1.4003475758 
Si -0.0127276440 -0.0385698654 5.6752845545 
Si 2.6844452349 2.7732881704 5.6371125022 
Si 1.3132754559 1.4391448204 7.0177571309 
Si 4.1051859193 1.3973761394 4.2005849669 
Si 5.4443024305 -0.0197733240 5.6649670195 
Si 6.8454798753 1.3892866084 7.0526244179 
Si 9.5444197479 1.3772311532 4.1904824421 
Si 8.2161281035 2.7774776882 5.6456906678 
Si 1.3758315945 4.1572446263 4.2701322834 
Si 0.0033325116 5.5640119848 5.6460052873 
Si 1.3898857758 6.9969069776 7.0114377578 
Si 6.8336846536 4.1850548894 4.2164536755 
Si 4.0626459780 6.9717209329 4.1843115385 
Si 4.0433559314 4.1756774616 7.0909001219 
Si 5.4001899913 5.6064311574 5.6354014541 
Si 6.8115237236 7.0036484149 7.0885410150 
Si 9.5076818843 6.9757770961 4.2484290095 
Si 9.5839603594 4.2231126862 7.0134966054 
Si 1.4033233803 9.8265102408 4.2052995347 
Si 2.7132402034 8.4035218691 5.6506294244 
Si 6.8083331136 9.8013834997 4.2402985681 
Si 4.0392693583 9.8154426428 7.0712466601 
Si 8.2003482615 8.4300065941 5.6832783487 
Si 9.5669585987 9.7360123764 7.0140217542 
Si -0.0072636677 2.7618271707 8.4595244709 
Si 2.7420969914 0.0340427760 8.4290034824 
Si 4.1130983567 1.3533171889 9.8981945143 
Si 5.4378961688 2.7748102084 8.4998480259 
Si 8.1404286036 0.0035954617 8.5029195011 
Si 9.5492166007 1.4026161436 9.8274185923 
Si 1.3429829948 4.2046309133 9.8547609985 
Si 2.7657320562 5.6312683003 8.4856713048 
Si 6.7828607273 4.2179582169 9.9013526837 
Si 4.0953205356 6.9955113356 9.8177908163 
Si 8.2172808086 5.6030916444 8.4383478343 
Si 9.5172776572 6.9369761060 9.9054658859 
Si 0.0149411599 8.3918538111 8.4728336926 
Si 1.3443681076 9.7960003956 9.8223016089 
Si 5.4222127876 8.3557718213 8.4073039378 
Si 6.8434162507 9.8116309599 9.8586979615 

