&CONTROL
   calculation      = 'scf'
   tstress          = .true.
   tprnfor          = .true.
   outdir           = './'
   disk_io          = 'none'
   pseudo_dir       = '/home/ppiaggi/pseudos'
/
&SYSTEM
   ecutwfc          = 30
   occupations      = 'smearing'
   degauss          = 0.01
   smearing         = 'fermi-dirac'
   input_dft        = 'PBE'
   ntyp             = 1
   nat              = 64
   ibrav            = 0
/
&ELECTRONS
   electron_maxstep = 1000
   mixing_beta      = 0.5
/
&IONS
/
&CELL
/

ATOMIC_SPECIES
Si 28.085 Si_ONCV_PBE_sr.upf

K_POINTS gamma

CELL_PARAMETERS angstrom
11.19804654794854 0.00000000000000 0.00000000000000
0.00000000000000 10.94685678532530 0.00000000000000
0.00000000000000 0.00000000000000 10.83330833552357

ATOMIC_POSITIONS angstrom
Si 0.0302783175 0.0447885300 -0.0246770826 
Si 0.0014376773 2.7854133856 2.7086868811 
Si 2.8261403227 -0.0269205337 2.6535914339 
Si 2.8430878377 2.7690309857 0.0470427344 
Si 1.3878123759 1.4018361460 1.3470196162 
Si 5.6571621196 0.0477169854 -0.0441324916 
Si 5.6291595349 2.7596054836 2.6342200218 
Si 7.0140399433 1.4015789907 1.3583450146 
Si 8.4899591349 0.0003667349 2.7197553342 
Si 8.5115665393 2.7771409991 -0.0203826682 
Si 0.0411487790 5.4943322279 -0.0482661475 
Si 2.7957254548 5.5105069950 2.6977358892 
Si 1.4144842048 6.9077537719 1.3218353969 
Si 4.2414478800 4.0911063318 1.3299056673 
Si 5.6855759136 5.4828420106 -0.0196689951 
Si 7.0381021634 6.8652962462 1.3840404261 
Si 9.8480794805 4.0915846153 1.3311531113 
Si 8.4442234062 5.5237313142 2.6843342748 
Si 0.0478358856 8.2049186879 2.6405885663 
Si 2.8412119707 8.2012016859 0.0401462227 
Si 4.2725394650 9.6453700673 1.3035134619 
Si 5.6581376902 8.2460197525 2.6967539178 
Si 8.5030980910 8.2842429203 0.0142922706 
Si 9.8971399780 9.5803666628 1.3376430006 
Si -0.0083200392 0.0500855136 5.3793670861 
Si 2.8198236752 2.7724170769 5.3130995476 
Si 1.3968193801 1.3873788099 6.6986505441 
Si 4.2412172801 1.3334450541 4.0084724156 
Si 5.6142336577 0.0235229632 5.3483067789 
Si 7.0238658055 1.4170658239 6.6792086158 
Si 9.8315191500 1.3425392500 4.0634615922 
Si 8.4451060313 2.7662429231 5.3742950394 
Si 1.4493909231 4.1443244090 3.9699831138 
Si -0.0482405810 5.4746814044 5.3898224566 
Si 1.3977307142 6.8884410709 6.6511200168 
Si 7.0168405069 4.0877190675 4.0602637245 
Si 4.2446555188 6.8835751831 4.0080063632 
Si 4.2804589036 4.1234643466 6.7405496011 
Si 5.6117610947 5.5017825728 5.3367043614 
Si 7.0118606183 6.9041260075 6.7277798741 
Si 9.8493705121 6.8327044458 4.0551655723 
Si 9.8491381678 4.0948795793 6.7370061862 
Si 1.4277250403 9.5926346719 3.9700792827 
Si 2.8646908351 8.2283965314 5.3642726223 
Si 7.0522943650 9.6332562608 4.0214115036 
Si 4.1867403865 9.5782202931 6.7364331457 
Si 8.4382832783 8.2914582910 5.3209698286 
Si 9.9154179864 9.6648862063 6.7255255344 
Si 0.0326879024 2.7587511067 8.0510139559 
Si 2.8680679582 -0.0356847931 7.9896427370 
Si 4.2796144668 1.3539627716 9.3986162713 
Si 5.5945891484 2.7892437775 8.0297731434 
Si 8.5105562835 0.0131280197 7.9972742703 
Si 9.8963819960 1.3445965346 9.3418613436 
Si 1.4169906093 4.1694446712 9.3484126047 
Si 2.8148083455 5.5289207453 8.0012439711 
Si 7.0100025612 4.0844810185 9.3371004675 
Si 4.2072913070 6.8909895416 9.3797812100 
Si 8.4545341506 5.5428367353 8.0615824049 
Si 9.8503042387 6.8492397401 9.3572014224 
Si -0.0445390704 8.2937868795 8.0307880504 
Si 1.3675069672 9.6704121089 9.4009112766 
Si 5.6542339577 8.2401372271 8.0485998113 
Si 7.1013376286 9.6406155853 9.3551428759 

