&CONTROL
   calculation      = 'scf'
   tstress          = .true.
   tprnfor          = .true.
   outdir           = './'
   disk_io          = 'none'
   pseudo_dir       = '/home/ppiaggi/pseudos'
/
&SYSTEM
   ecutwfc          = 30
   occupations      = 'smearing'
   degauss          = 0.01
   smearing         = 'fermi-dirac'
   input_dft        = 'PBE'
   ntyp             = 1
   nat              = 64
   ibrav            = 0
/
&ELECTRONS
   electron_maxstep = 1000
   mixing_beta      = 0.5
/
&IONS
/
&CELL
/

ATOMIC_SPECIES
Si 28.085 Si_ONCV_PBE_sr.upf

K_POINTS gamma

CELL_PARAMETERS angstrom
10.76253765590500 0.00000000000000 0.00000000000000
0.00000000000000 10.99582534328626 0.00000000000000
0.00000000000000 0.00000000000000 11.14453954013789

ATOMIC_POSITIONS angstrom
Si 0.0225192746 -0.0118562500 0.0429386625 
Si 0.0310602243 2.7427022462 2.7803847311 
Si 2.7063505860 0.0399248412 2.7817154970 
Si 2.6423922951 2.6874833364 -0.0424692112 
Si 1.3639707124 1.3130554673 1.3930664116 
Si 5.3514706716 -0.0274105147 0.0210673883 
Si 5.3441154706 2.7230242871 2.7629034737 
Si 6.6494412229 1.3069120052 1.4205716342 
Si 8.0683769249 -0.0047036448 2.8576158062 
Si 8.0042759219 2.7352990965 -0.0189924128 
Si 0.0195177564 5.4402082950 0.0490077500 
Si 2.7227469276 5.3634769299 2.7933756656 
Si 1.3705042143 6.7114526416 1.3776142771 
Si 4.0129912002 4.0565052716 1.3788218755 
Si 5.3154620863 5.4004553695 0.0417783112 
Si 6.7340517192 6.7788708854 1.4530383256 
Si 9.3979437767 4.0182838374 1.4047961030 
Si 7.9918365277 5.3502452483 2.8486623440 
Si -0.0125031535 8.1058180230 2.7794349259 
Si 2.6334027374 8.1321791364 -0.0050856424 
Si 4.0145009556 9.4177969469 1.3898079841 
Si 5.3096899918 8.0656323604 2.7679336166 
Si 8.0039817585 8.1239039817 -0.0230593507 
Si 9.3383967289 9.4595575158 1.4266681407 
Si 0.0052779122 0.0219661520 5.5884302519 
Si 2.6991798634 2.7232427296 5.6226690839 
Si 1.3171408844 1.3807376873 7.0108147276 
Si 3.9790989793 1.2991254355 4.2634924814 
Si 5.3921541938 -0.0366507251 5.6280690688 
Si 6.6754737755 1.3470914443 7.0173561303 
Si 9.3698270582 1.3823823167 4.1982135861 
Si 8.0334304480 2.6750062935 5.5908550341 
Si 1.3330461440 4.0264684081 4.2055133305 
Si -0.0248188839 5.3896005680 5.6714347681 
Si 1.3773006125 6.7366360196 7.0103657751 
Si 6.6713476143 4.0800355225 4.1875795715 
Si 4.0155468590 6.7846729382 4.2296267876 
Si 3.9683675697 4.0400004051 6.9932965572 
Si 5.3099399450 5.3908047518 5.6146942789 
Si 6.6431331595 6.7422303407 6.9838769759 
Si 9.3266419979 6.7149622807 4.2134945278 
Si 9.3302604281 3.9965674888 6.9981027293 
Si 1.3224840845 9.4045245976 4.1905318055 
Si 2.6437703321 8.0796257937 5.6315436985 
Si 6.7227025494 9.4593407698 4.1903654009 
Si 3.9658865311 9.4467148857 7.0020749455 
Si 8.0521000620 8.1018636889 5.6096767210 
Si 9.3990974617 9.4760578882 6.9803222662 
Si -0.0274384140 2.6570444042 8.4553790521 
Si 2.6623901637 -0.0009471534 8.4785182888 
Si 3.9889170046 1.3377021903 9.8746693089 
Si 5.3816508839 2.7196056959 8.3914842902 
Si 8.0494332755 -0.0001156061 8.4772489972 
Si 9.3628892279 1.3339271158 9.8002722917 
Si 1.3422284110 4.0778063403 9.8622050274 
Si 2.6911658556 5.3665073136 8.3933969639 
Si 6.6665258582 4.0465686472 9.8300268312 
Si 4.0196850880 6.7110826268 9.8175179032 
Si 8.0685573080 5.3828414908 8.3956341807 
Si 9.3652476168 6.7376106110 9.8333332331 
Si -0.0089636937 8.1189546499 8.4407487773 
Si 1.3359388728 9.4623099500 9.8269039645 
Si 5.3811308593 8.1242413864 8.4027578633 
Si 6.6424991376 9.4212299982 9.8627857088 

