&CONTROL
   calculation      = 'scf'
   tstress          = .true.
   tprnfor          = .true.
   outdir           = './'
   disk_io          = 'none'
   pseudo_dir       = '/home/ppiaggi/pseudos'
/
&SYSTEM
   ecutwfc          = 30
   occupations      = 'smearing'
   degauss          = 0.01
   smearing         = 'fermi-dirac'
   input_dft        = 'PBE'
   ntyp             = 1
   nat              = 64
   ibrav            = 0
/
&ELECTRONS
   electron_maxstep = 1000
   mixing_beta      = 0.5
/
&IONS
/
&CELL
/

ATOMIC_SPECIES
Si 28.085 Si_ONCV_PBE_sr.upf

K_POINTS gamma

CELL_PARAMETERS angstrom
11.14045728471234 0.00000000000000 0.00000000000000
0.00000000000000 11.15284086469983 0.00000000000000
0.00000000000000 0.00000000000000 10.84008325406639

ATOMIC_POSITIONS angstrom
Si 0.0414575166 0.0204550288 0.0257433511 
Si 0.0241059468 2.7067519969 2.7121950886 
Si 2.7403003814 0.0087232463 2.7224767213 
Si 2.6827576344 2.7375427937 -0.0068244905 
Si 1.4125571664 1.3671271544 1.3574829263 
Si 5.4193864879 -0.0027088477 0.0029971903 
Si 5.4938052501 2.7050820176 2.7369970192 
Si 6.8491191227 1.3749677510 1.3890627099 
Si 8.2128313455 -0.0408908357 2.7160734021 
Si 8.2187720533 2.7833795493 -0.0411109000 
Si -0.0137175440 5.5203775707 -0.0135215253 
Si 2.6881272809 5.4684151678 2.7404329985 
Si 1.3992385642 6.9260352595 1.3542794752 
Si 4.0655560714 4.1113857624 1.4027978773 
Si 5.4697938613 5.5490150533 0.0491381784 
Si 6.7932573472 6.9077734154 1.3540756490 
Si 9.5409341629 4.1571021607 1.3650750482 
Si 8.1917500907 5.5069069559 2.7847327385 
Si 0.0108654509 8.2493480249 2.7307784982 
Si 2.7685403350 8.2292020361 -0.0171790665 
Si 4.1409106062 9.6426175134 1.3724465164 
Si 5.4617622297 8.2076227327 2.7414177193 
Si 8.1676550655 8.2700749442 -0.0391249954 
Si 9.5596460328 9.6793160444 1.3797629451 
Si 0.0069071764 -0.0423476182 5.5027393131 
Si 2.7234611229 2.7536993216 5.5396223904 
Si 1.3979373350 1.3853824219 6.8848978760 
Si 4.1113893598 1.4085280066 4.0933964876 
Si 5.4219654397 0.0302806084 5.5333608099 
Si 6.8080808018 1.4091497048 6.8714169611 
Si 9.5789482314 1.4011906238 4.1373517848 
Si 8.2235781588 2.7983231946 5.4576097090 
Si 1.3392459192 4.1270199615 4.1559693805 
Si -0.0380668579 5.4758603712 5.5251989385 
Si 1.3952259654 6.9299873970 6.8368020891 
Si 6.7885956884 4.0861430812 4.1584091402 
Si 4.1286335781 6.8543405555 4.1141653284 
Si 4.1359217759 4.1117861066 6.8187147906 
Si 5.4277442458 5.4805741627 5.5145542175 
Si 6.7921696925 6.8740533580 6.8986969021 
Si 9.6014773694 6.8342673462 4.1628489436 
Si 9.5487756273 4.1282987852 6.8691205862 
Si 1.4043134939 9.6728745115 4.1445157330 
Si 2.7384269346 8.2849413022 5.5389109005 
Si 6.7812659139 9.6330313097 4.1221968857 
Si 4.0534529724 9.6657444750 6.8954548920 
Si 8.1948679109 8.2477989640 5.4476320502 
Si 9.5485104229 9.6481108330 6.8942541605 
Si 0.0072482521 2.7866854402 8.1901768228 
Si 2.7741116236 -0.0145806188 8.2435359672 
Si 4.0773939878 1.3809939210 9.5810527081 
Si 5.4373184677 2.7299517113 8.2620047253 
Si 8.2198750360 -0.0278437708 8.2646325144 
Si 9.5866633027 1.3663706828 9.5741637216 
Si 1.3246329847 4.1640207556 9.5756871173 
Si 2.6953435074 5.5504442201 8.2473141348 
Si 6.7982944661 4.1165934903 9.5621622893 
Si 4.1182773875 6.8444199956 9.6336684825 
Si 8.1811826571 5.4934858735 8.2208708563 
Si 9.5835437089 6.8864686968 9.6132963167 
Si 0.0361319080 8.2365285948 8.2721821593 
Si 1.3229353644 9.6467551456 9.6503491685 
Si 5.4570139744 8.2136179197 8.2504078495 
Si 6.8731591012 9.6240792281 9.6380648468 

