&CONTROL
   calculation      = 'scf'
   tstress          = .true.
   tprnfor          = .true.
   outdir           = './'
   disk_io          = 'none'
   pseudo_dir       = '/home/ppiaggi/pseudos'
/
&SYSTEM
   ecutwfc          = 30
   occupations      = 'smearing'
   degauss          = 0.01
   smearing         = 'fermi-dirac'
   input_dft        = 'PBE'
   ntyp             = 1
   nat              = 64
   ibrav            = 0
/
&ELECTRONS
   electron_maxstep = 1000
   mixing_beta      = 0.5
/
&IONS
/
&CELL
/

ATOMIC_SPECIES
Si 28.085 Si_ONCV_PBE_sr.upf

K_POINTS gamma

CELL_PARAMETERS angstrom
10.82422107374280 0.00000000000000 0.00000000000000
0.00000000000000 11.06720180249289 0.00000000000000
0.00000000000000 0.00000000000000 10.88220291133316

ATOMIC_POSITIONS angstrom
Si -0.0314822695 0.0176608147 0.0374162982 
Si 0.0325908326 2.7866041267 2.7403853143 
Si 2.7223947906 -0.0335715587 2.7833772385 
Si 2.7862241524 2.8045322503 0.0127943678 
Si 1.3442353235 1.3650275168 1.4033848936 
Si 5.5080749960 -0.0275137663 0.0123762064 
Si 5.5323471525 2.7466260830 2.7843141459 
Si 6.8665056637 1.4183947753 1.3377428398 
Si 8.2609215353 -0.0131898311 2.7605376369 
Si 8.2691193876 2.8152076290 -0.0230460099 
Si -0.0400635133 5.5663231656 -0.0283985779 
Si 2.7604934382 5.5225752159 2.7821437062 
Si 1.3451560806 6.9144627879 1.4151956006 
Si 4.0934055169 4.2252692403 1.3327710378 
Si 5.5477318585 5.5227015359 0.0257979314 
Si 6.8483711022 6.9907662849 1.3619228938 
Si 9.6536911714 4.2152142819 1.4193100823 
Si 8.2081206809 5.5892651643 2.7420426758 
Si 0.0479177430 8.3979924238 2.7196125387 
Si 2.7343833787 8.3647510302 0.0308660712 
Si 4.1528898127 9.7776902272 1.3227255515 
Si 5.4957298912 8.3970120631 2.6995640850 
Si 8.2905118778 8.3875649960 0.0292374756 
Si 9.6041280826 9.7129179835 1.3534566759 
Si -0.0485216967 -0.0266743508 5.4354651274 
Si 2.7166363801 2.8167298931 5.4832951142 
Si 1.3683831104 1.3443674562 6.8308198114 
Si 4.1070429495 1.4220286147 4.1217300955 
Si 5.4833092349 0.0404945798 5.4375487318 
Si 6.8992203930 1.4310778518 6.8585454060 
Si 9.6554589145 1.3637710811 4.0877738765 
Si 8.2612551602 2.7330723635 5.4443304371 
Si 1.4166633326 4.2006314622 4.1435031683 
Si 0.0271190831 5.6046981257 5.4386580517 
Si 1.3695085847 6.9473880545 6.8774600020 
Si 6.8322167648 4.2114145749 4.1242941219 
Si 4.1454378405 6.9493288481 4.1205112062 
Si 4.1035432885 4.2078340679 6.8611503674 
Si 5.5110711073 5.5465448323 5.5159893389 
Si 6.8780553588 6.9597072311 6.8382167047 
Si 9.6269032031 6.9504158509 4.1324337064 
Si 9.6789530503 4.1604550363 6.8514967423 
Si 1.3516504802 9.7384405277 4.1434634038 
Si 2.7935110678 8.3366060466 5.4666722248 
Si 6.8978087825 9.7568490857 4.0775977774 
Si 4.0804322645 9.7290681494 6.8780873904 
Si 8.2492803884 8.3379142968 5.4917057395 
Si 9.6747610728 9.7448770158 6.8374704292 
Si 0.0026142375 2.7531897585 8.1940889055 
Si 2.7740538711 0.0090092259 8.2284755495 
Si 4.1415498938 1.4181281982 9.5831542498 
Si 5.5059171298 2.8308107287 8.1742766327 
Si 8.2735121993 0.0140101495 8.2348528364 
Si 9.6141246421 1.3426468231 9.5824637374 
Si 1.3933685700 4.1772777742 9.5633524343 
Si 2.7170095778 5.5687185443 8.1915551754 
Si 6.8619475230 4.2135608464 9.5477621359 
Si 4.0831472945 7.0088751270 9.6110036153 
Si 8.2845007398 5.5567367144 8.2629093554 
Si 9.6393162781 6.9540437960 9.5481514545 
Si -0.0335802723 8.3264559865 8.2302305290 
Si 1.3270170384 9.7601087500 9.5601868621 
Si 5.4556688962 8.3224492821 8.1898890076 
Si 6.9145979787 9.6931880247 9.5609030685 

