&CONTROL
   calculation      = 'scf'
   tstress          = .true.
   tprnfor          = .true.
   outdir           = './'
   disk_io          = 'none'
   pseudo_dir       = '/home/ppiaggi/pseudos'
/
&SYSTEM
   ecutwfc          = 30
   occupations      = 'smearing'
   degauss          = 0.01
   smearing         = 'fermi-dirac'
   input_dft        = 'PBE'
   ntyp             = 1
   nat              = 64
   ibrav            = 0
/
&ELECTRONS
   electron_maxstep = 1000
   mixing_beta      = 0.5
/
&IONS
/
&CELL
/

ATOMIC_SPECIES
Si 28.085 Si_ONCV_PBE_sr.upf

K_POINTS gamma

CELL_PARAMETERS angstrom
11.06444372705564 0.00000000000000 0.00000000000000
0.00000000000000 10.80643553180677 0.00000000000000
0.00000000000000 0.00000000000000 10.92593334278327

ATOMIC_POSITIONS angstrom
Si -0.0438045289 -0.0214923597 0.0462099917 
Si -0.0135727685 2.6751302097 2.6930945363 
Si 2.7323940792 0.0316947987 2.6848750759 
Si 2.7298069657 2.6610032111 -0.0008882234 
Si 1.3784525395 1.3542378082 1.3908581266 
Si 5.4666746148 0.0142897131 -0.0304287487 
Si 5.4523130852 2.6579097616 2.7527946494 
Si 6.7843920036 1.3690073955 1.3499309626 
Si 8.2110865927 0.0220829552 2.6646350242 
Si 8.2107517603 2.6364195966 0.0045394347 
Si 0.0481916078 5.3868494904 -0.0066168847 
Si 2.7678153559 5.3804181777 2.6942672799 
Si 1.3142135145 6.7231111827 1.3143873842 
Si 4.0837122799 4.0328680812 1.3624644744 
Si 5.4543000369 5.3402046028 -0.0052033236 
Si 6.8012973410 6.7457669495 1.3953461008 
Si 9.5131840075 3.9780590746 1.3583794926 
Si 8.1653364532 5.3844515845 2.7261368115 
Si -0.0047423052 8.0805650648 2.6775890003 
Si 2.7143724981 8.0260453241 -0.0474926384 
Si 4.0528892412 9.3897201934 1.3468188195 
Si 5.4710696922 8.0607930037 2.6871250912 
Si 8.1675819258 8.0472327693 -0.0071051847 
Si 9.5295526176 9.3658340221 1.4000787196 
Si 0.0235467644 -0.0064767707 5.3901659930 
Si 2.6983843770 2.6784457349 5.4467923975 
Si 1.3331658722 1.3263209103 6.8281212390 
Si 4.1098253137 1.3203983790 4.0232265158 
Si 5.4255603050 -0.0253155185 5.4147308186 
Si 6.8232075283 1.3570265759 6.7608289492 
Si 9.5618388570 1.3478727479 4.0447724088 
Si 8.2094353269 2.6908780996 5.3945696940 
Si 1.3748890681 3.9943889773 4.0234039487 
Si -0.0423827389 5.3620604929 5.4502058699 
Si 1.3733966290 6.7257625048 6.8310400186 
Si 6.8486217839 4.0295647813 4.0315223643 
Si 4.1290215681 6.6810486933 4.0917859190 
Si 4.0792503356 4.0597243859 6.7556238986 
Si 5.4355671885 5.3936346173 5.4033624989 
Si 6.8610642709 6.7504923761 6.8114006035 
Si 9.5331193001 6.6760676785 4.1122589367 
Si 9.5015575244 4.0078222156 6.7807720961 
Si 1.3686739139 9.3852260176 4.0877488284 
Si 2.6978402343 8.0267506159 5.4376514637 
Si 6.8240554580 9.3420921080 4.1009898676 
Si 4.0779183325 9.3424623475 6.7376372039 
Si 8.1526856859 8.0266251860 5.3892909232 
Si 9.5671563390 9.4017366657 6.8047047376 
Si 0.0398011575 2.7247152291 8.1286246972 
Si 2.6867202681 0.0133070765 8.1462032275 
Si 4.0955226287 1.3808162750 9.4792784318 
Si 5.4195852670 2.6866382246 8.0935444020 
Si 8.1597781023 0.0450180647 8.1816963562 
Si 9.5666880499 1.3836826041 9.5241964307 
Si 1.3808114063 4.0517910206 9.5259264378 
Si 2.7213908116 5.3822276177 8.1282217539 
Si 6.8494953529 4.0109962592 9.4721653657 
Si 4.1090690110 6.7472877413 9.4858776722 
Si 8.1463138742 5.3880956967 8.1482607646 
Si 9.5132551452 6.6899762110 9.5313111440 
Si 0.0069493805 8.0551492433 8.1705216154 
Si 1.3396524601 9.4257766585 9.5200968434 
Si 5.4912534787 8.0552445579 8.1518700931 
Si 6.8288913265 9.3931969591 9.4555636407 

