&CONTROL
   calculation      = 'scf'
   tstress          = .true.
   tprnfor          = .true.
   outdir           = './'
   disk_io          = 'none'
   pseudo_dir       = '/home/ppiaggi/pseudos'
/
&SYSTEM
   ecutwfc          = 30
   occupations      = 'smearing'
   degauss          = 0.01
   smearing         = 'fermi-dirac'
   input_dft        = 'PBE'
   ntyp             = 1
   nat              = 64
   ibrav            = 0
/
&ELECTRONS
   electron_maxstep = 1000
   mixing_beta      = 0.5
/
&IONS
/
&CELL
/

ATOMIC_SPECIES
Si 28.085 Si_ONCV_PBE_sr.upf

K_POINTS gamma

CELL_PARAMETERS angstrom
11.01453834399562 0.00000000000000 0.00000000000000
0.00000000000000 10.85633148473875 0.00000000000000
0.00000000000000 0.00000000000000 11.19288729119888

ATOMIC_POSITIONS angstrom
Si 0.0280907051 0.0050270678 -0.0124110471 
Si 0.0406602845 2.6531669257 2.7513240156 
Si 2.6824321861 0.0266700990 2.7427400110 
Si 2.6788888761 2.6945163327 0.0398701467 
Si 1.3346877936 1.3466417647 1.3396386271 
Si 5.3642382105 0.0376723184 0.0273303935 
Si 5.4519579353 2.6836336067 2.8087226123 
Si 6.7125036047 1.3099897102 1.3731386612 
Si 8.1106249150 0.0173569652 2.7508667253 
Si 8.0955322368 2.7038433381 -0.0327823305 
Si -0.0030782738 5.3438143398 -0.0001588038 
Si 2.6650647889 5.2936372685 2.7941274108 
Si 1.3088996357 6.6602435633 1.4217131476 
Si 4.0245633375 4.0272657441 1.3685172262 
Si 5.3937150781 5.3380739123 0.0171274493 
Si 6.7552099508 6.6915179970 1.4026222740 
Si 9.4546412423 3.9760816851 1.4239937512 
Si 8.0663725136 5.3521312826 2.7861875284 
Si -0.0314497611 7.9587303821 2.7170727700 
Si 2.7201808129 7.9547708282 -0.0098800371 
Si 4.0096015471 9.3095661973 1.3487356556 
Si 5.3723506318 7.9640306920 2.7181307936 
Si 8.1564478120 7.9672528169 -0.0282539395 
Si 9.4448055746 9.3751047291 1.3355906876 
Si 0.0320628195 0.0276990041 5.5129698960 
Si 2.6814803036 2.6984916277 5.5459685007 
Si 1.3286752157 1.3507377270 6.8846626420 
Si 4.0742463741 1.3566298900 4.1097787048 
Si 5.4042324443 -0.0400414557 5.5697699630 
Si 6.7838669880 1.3654023948 6.9250878463 
Si 9.4760938114 1.3638803857 4.0970704003 
Si 8.0826685507 2.6384035572 5.5174427984 
Si 1.3063411466 4.0236898740 4.1733327712 
Si 0.0421941341 5.2869784365 5.5352227792 
Si 1.3993929907 6.6469431625 6.8709592074 
Si 6.7147998794 3.9823928904 4.1728884515 
Si 4.0785827354 6.6260149888 4.0976782420 
Si 4.0785630147 4.0317865437 6.8837689825 
Si 5.3974301643 5.3367433129 5.5283588048 
Si 6.7548366316 6.6680712440 6.8655296017 
Si 9.4426933824 6.6789406764 4.1147351289 
Si 9.4583706061 4.0429673464 6.9274807169 
Si 1.3046349657 9.3142871483 4.1361899081 
Si 2.6627345127 8.0243902818 5.5305493820 
Si 6.7758074664 9.3569355528 4.1279706952 
Si 4.0963801868 9.3500719666 6.8751039378 
Si 8.0778846169 8.0427541540 5.5506494691 
Si 9.4723761961 9.3566520437 6.8658067725 
Si 0.0350467294 2.7030872698 8.3333754723 
Si 2.7452110037 0.0138964891 8.2642122828 
Si 4.0669252425 1.3713898874 9.6328905128 
Si 5.4000818351 2.6297167093 8.3191492881 
Si 8.0704357354 0.0391405316 8.3186932218 
Si 9.4541619360 1.3714978272 9.7081645310 
Si 1.3326042998 3.9651847132 9.6865217679 
Si 2.6595822249 5.3089079465 8.2941636115 
Si 6.7931275364 3.9783314882 9.6465548234 
Si 4.0239953381 6.6828736433 9.7047577627 
Si 8.1188871128 5.3783968962 8.2815785167 
Si 9.4161791045 6.6847118322 9.6649610639 
Si 0.0018313768 8.0207745203 8.3372281033 
Si 1.3405510449 9.3385039881 9.7033496986 
Si 5.4330824340 7.9549068150 8.2947579450 
Si 6.7693035369 9.3807168199 9.6331088041 

