&CONTROL
   calculation      = 'scf'
   tstress          = .true.
   tprnfor          = .true.
   outdir           = './'
   disk_io          = 'none'
   pseudo_dir       = '/home/ppiaggi/pseudos'
/
&SYSTEM
   ecutwfc          = 30
   occupations      = 'smearing'
   degauss          = 0.01
   smearing         = 'fermi-dirac'
   input_dft        = 'PBE'
   ntyp             = 1
   nat              = 64
   ibrav            = 0
/
&ELECTRONS
   electron_maxstep = 1000
   mixing_beta      = 0.5
/
&IONS
/
&CELL
/

ATOMIC_SPECIES
Si 28.085 Si_ONCV_PBE_sr.upf

K_POINTS gamma

CELL_PARAMETERS angstrom
10.79688910597785 0.00000000000000 0.00000000000000
0.00000000000000 10.91673932872736 0.00000000000000
0.00000000000000 0.00000000000000 10.90493558435160

ATOMIC_POSITIONS angstrom
Si -0.0039785833 -0.0110566180 -0.0023450366 
Si -0.0017578181 2.6836737946 2.7526665958 
Si 2.6710592072 -0.0030921944 2.7492824426 
Si 2.7317642377 2.7360896481 0.0470934573 
Si 1.3570256050 1.3907895895 1.3133244061 
Si 5.3521548684 0.0021977206 0.0124205310 
Si 5.3668851749 2.6813766277 2.7479288402 
Si 6.7799144873 1.4068267200 1.3379365491 
Si 8.0772524500 0.0387061427 2.6870756791 
Si 8.0721651951 2.7657826393 -0.0149370271 
Si -0.0002200991 5.4651258185 -0.0303738006 
Si 2.6564426683 5.3998256809 2.6754298086 
Si 1.3490979742 6.7582394520 1.3426818670 
Si 4.0933277396 4.0467388044 1.3246257485 
Si 5.3729564094 5.4354927859 0.0286910375 
Si 6.7171877926 6.7471411574 1.3980768372 
Si 9.4066437425 4.0314938821 1.3225882988 
Si 8.1109628908 5.4422380649 2.6896812523 
Si -0.0475471310 8.1569620843 2.7197073061 
Si 2.6919136129 8.1405600634 0.0038436425 
Si 4.0549206563 9.5036617143 1.3211402610 
Si 5.3945040664 8.1588428116 2.7652731052 
Si 8.0619120591 8.1605208913 0.0193089932 
Si 9.4545273394 9.5302470636 1.3359495757 
Si 0.0385662341 -0.0392924605 5.4927488207 
Si 2.6982900232 2.7436290154 5.4206391009 
Si 1.3734514158 1.3832333873 6.8324805530 
Si 4.0593145958 1.3589739473 4.0936024528 
Si 5.3666828092 0.0252965131 5.4376946966 
Si 6.7792765767 1.3313543560 6.7788068048 
Si 9.4233065999 1.3389315632 4.1262665225 
Si 8.0838867405 2.6930988391 5.4537294603 
Si 1.3557655087 4.0374071143 4.0582235960 
Si -0.0121509555 5.4386005615 5.4234549846 
Si 1.3916338232 6.8023832638 6.7851518776 
Si 6.7617646431 4.1070987442 4.0441249078 
Si 4.0684759187 6.8179291208 4.0630128334 
Si 4.0428390717 4.0465614302 6.8115555637 
Si 5.4027435672 5.4024085344 5.4170321825 
Si 6.7954932929 6.7659703666 6.8088035647 
Si 9.4111308405 6.8291844915 4.1043122124 
Si 9.4330509168 4.0387028438 6.8166981456 
Si 1.3297127664 9.4724771468 4.0835625830 
Si 2.6513457176 8.1274614784 5.4863475848 
Si 6.7920468161 9.4781061415 4.0715965274 
Si 4.0840752126 9.4765037768 6.7674034006 
Si 8.0768339418 8.1892230638 5.4903412746 
Si 9.4345100937 9.5343473775 6.8177473468 
Si -0.0416898013 2.7610524764 8.1523779521 
Si 2.6644181453 0.0217167628 8.2058973734 
Si 4.0784343975 1.3265474970 9.5158074909 
Si 5.3726807022 2.6715320333 8.1711312593 
Si 8.0486410852 0.0359481719 8.1773626022 
Si 9.4807790280 1.3829166351 9.5613108725 
Si 1.3752027408 4.1194002876 9.5757528281 
Si 2.6862008415 5.4134082109 8.2147189605 
Si 6.7302103514 4.1044624671 9.4973740940 
Si 4.0736121471 6.8356713451 9.5704137911 
Si 8.1069260718 5.4671873476 8.1654110436 
Si 9.4220912242 6.7730550511 9.4949392921 
Si -0.0312767613 8.1103240655 8.1499600240 
Si 1.3336963558 9.4807558111 9.5262815928 
Si 5.3856610374 8.1090019193 8.1734885293 
Si 6.7701684038 9.4945995977 9.5237781056 

