&CONTROL
   calculation      = 'scf'
   tstress          = '.true.'
   tprnfor          = '.true.'
   outdir           = './'
   disk_io          = 'none'
   pseudo_dir       = './'
/
&SYSTEM
   ecutwfc          = 30
   input_dft        = 'PBE'
   ntyp             = 1
   nat              = 64
   ibrav            = 0
/
&ELECTRONS
   electron_maxstep = 1000
   mixing_beta      = 0.5
/
&IONS
/
&CELL
/

ATOMIC_SPECIES
Si 28.085 Si_ONCV_PBE-1.0.upf

K_POINTS gamma

CELL_PARAMETERS angstrom
10.80217222083300 0.00000000000000 0.00000000000000
0.00000000000000 11.02757738913797 0.00000000000000
0.00000000000000 0.00000000000000 10.69553408872069

ATOMIC_POSITIONS angstrom
Si 4.0276639198 4.0853132494 1.3885473555 
Si -0.0414101577 2.7327312255 2.5439654196 
Si 3.9090751644 1.4653150182 3.9380391675 
Si -0.0133361276 0.0733811065 -0.0414724088 
Si 1.2274070874 4.1553899474 3.8682898960 
Si 2.7034623760 2.8451334821 0.0790711542 
Si 1.3283502691 1.3388858437 1.3272381955 
Si 2.5809948221 0.0958376140 2.6274330163 
Si 3.9197876649 4.1850949351 6.4906794342 
Si 0.0228426305 2.8770968282 7.8338941990 
Si 3.9970988199 1.4721802553 9.1344110019 
Si 0.0420304386 -0.0657125333 5.2381574921 
Si 1.2695793297 4.1573516013 9.2121744719 
Si 2.5706023054 2.7046705326 5.1644862895 
Si 1.4109329466 1.3025530620 6.4794538855 
Si 2.6711683006 -0.0913359677 7.8550708700 
Si 3.8754993356 9.8399371280 1.2290615153 
Si 0.0665769784 8.3913111329 2.5383307270 
Si 3.9298471269 7.0066103576 3.9885998383 
Si -0.0319657024 5.5956585730 0.0261221494 
Si 1.3552255915 9.6889946623 3.8587805665 
Si 2.5704707656 8.3298943878 -0.0445237399 
Si 1.3926198762 7.0209007570 1.3045493585 
Si 2.5675293593 5.6359662193 2.5440599911 
Si 3.8710037996 9.6606192961 6.4830247256 
Si 0.0528235935 8.2618787342 7.8046947690 
Si 3.8873863163 6.9480631672 9.1142781601 
Si 0.0222889171 5.5766627125 5.2031740302 
Si 1.2780684306 9.7251825960 9.2336424254 
Si 2.6200205008 8.4521783787 5.2978471973 
Si 1.3470865582 6.9314466227 6.6210780247 
Si 2.5865632985 5.5678785905 7.8492931659 
Si 9.2150526273 4.2400962995 1.3256069426 
Si 5.3233377276 2.8339608447 2.5590360423 
Si 9.1670248992 1.3845573954 3.8737862587 
Si 5.3376139592 0.0230937553 0.0885131833 
Si 6.5235000690 4.2249207515 3.8684985601 
Si 7.9182727785 2.8317710512 -0.0651625455 
Si 6.5555745452 1.3366560788 1.3113412661 
Si 7.8388820614 -0.0516897449 2.5620948766 
Si 9.1478435480 4.2732930170 6.4675956127 
Si 5.2783177922 2.8291590077 7.8078735192 
Si 9.1550691156 1.4286162841 9.2221022259 
Si 5.3608928821 0.0976985061 5.2558927385 
Si 6.5413388726 4.2759851604 9.2288900023 
Si 7.9752526112 2.7596641656 5.2208530551 
Si 6.5624774847 1.4198571690 6.4661749469 
Si 7.9514705550 0.0607794754 7.8629964676 
Si 9.2119835445 9.6575993148 1.2969151377 
Si 5.2298060763 8.3758057627 2.5597769598 
Si 9.1802096289 7.0373754276 3.8423360234 
Si 5.3489539543 5.6696688331 0.0811651624 
Si 6.6280057057 9.8008545456 3.8745295364 
Si 7.8998747062 8.3436509829 -0.0242233686 
Si 6.5062318097 6.8920480109 1.4018946106 
Si 7.8825079519 5.6075235779 2.6921027962 
Si 9.2982238080 9.7864517263 6.6029304502 
Si 5.2283265936 8.3051137191 7.8978851612 
Si 9.2009028405 6.9904130013 9.0914265022 
Si 5.2301944717 5.5547458961 5.3018331313 
Si 6.5817163330 9.6861916732 9.2139945977 
Si 7.8495279306 8.2929599065 5.1548431727 
Si 6.5206371821 6.9260937087 6.5275886014 
Si 7.8597634431 5.5886431754 7.8337967551 

