&CONTROL
   calculation      = 'scf'
   tstress          = '.true.'
   tprnfor          = '.true.'
   outdir           = './'
   disk_io          = 'none'
   pseudo_dir       = './'
/
&SYSTEM
   ecutwfc          = 30
   input_dft        = 'PBE'
   ntyp             = 1
   nat              = 64
   ibrav            = 0
/
&ELECTRONS
   electron_maxstep = 1000
   mixing_beta      = 0.5
/
&IONS
/
&CELL
/

ATOMIC_SPECIES
Si 28.085 Si_ONCV_PBE-1.0.upf

K_POINTS gamma

CELL_PARAMETERS angstrom
11.09120430118046 0.00000000000000 0.00000000000000
0.00000000000000 10.81543184491696 0.00000000000000
0.00000000000000 0.00000000000000 10.86956750872979

ATOMIC_POSITIONS angstrom
Si 4.0279202556 4.0514631279 1.3245314636 
Si -0.0096885252 2.7674518591 2.7153479263 
Si 4.0258463504 1.3705027990 3.9931702145 
Si 0.0623827970 0.0006905446 -0.0764904192 
Si 1.3979867766 4.0923193795 4.1118823151 
Si 2.6769682043 2.7345431629 -0.0522413104 
Si 1.2860327107 1.4008275752 1.3240112897 
Si 2.6529792610 0.0286304553 2.6305393798 
Si 4.0676752490 4.1475305800 6.7888906959 
Si 0.0250860891 2.8321815728 8.0076998509 
Si 4.0898123058 1.3668697516 9.3521379139 
Si -0.0595674832 -0.0897376137 5.3073499808 
Si 1.2898007274 4.2244982310 9.2896487471 
Si 2.7926913430 2.7712604743 5.4319542069 
Si 1.4434105776 1.2976135021 6.7456816201 
Si 2.8287379992 0.0632020035 8.0121670990 
Si 4.0429146765 9.7003979437 1.3671456678 
Si 0.0766368204 8.2988291869 2.7144994784 
Si 4.1319833800 6.8297478007 3.9674721103 
Si -0.0983223895 5.4682903118 -0.0001547248 
Si 1.3103739801 9.7515820977 4.0188471092 
Si 2.7196989662 8.3529230044 0.0352132958 
Si 1.4416919234 6.8220562249 1.4096475909 
Si 2.7267784328 5.5002542980 2.6716446359 
Si 4.1893797340 9.6331990347 6.7896997339 
Si 0.0652082174 8.2517729215 8.1071225372 
Si 4.0868845101 6.9544420973 9.4111253572 
Si 0.0286690593 5.5178172695 5.3140495843 
Si 1.4297766142 9.7551921801 9.4374305231 
Si 2.7202806075 8.3359748472 5.3187382992 
Si 1.3455076481 6.9253921517 6.6528444136 
Si 2.6837604501 5.4597359180 8.0204362492 
Si 9.5459274933 4.1202599871 1.4330202697 
Si 5.4158302563 2.6791253939 2.7742825230 
Si 9.6566649917 1.3041374642 4.0500727642 
Si 5.3881934427 -0.0352735371 -0.0422776218 
Si 6.9417235424 4.2511869406 3.9525894264 
Si 8.1993232330 2.6880068488 -0.0579266892 
Si 6.8295313856 1.4526830192 1.3894634347 
Si 8.2868110985 0.0963091424 2.5910907034 
Si 9.6455041123 4.1244218290 6.6156740776 
Si 5.4336266118 2.6836364213 8.1156880161 
Si 9.6181369595 1.3107128503 9.3697601830 
Si 5.4808876555 0.0265874549 5.3269858980 
Si 6.8980230578 4.1953628309 9.4485168417 
Si 8.1285780760 2.8324790533 5.3418274591 
Si 6.8948174204 1.4386957556 6.6661941619 
Si 8.2435286333 0.0046670412 8.0350820169 
Si 9.5133415206 9.7675400687 1.3055488100 
Si 5.4460790761 8.2667106216 2.6056031337 
Si 9.5189206082 6.9460072552 3.9711146292 
Si 5.3948642180 5.5896415679 0.0399217460 
Si 6.9009763832 9.6253251110 4.1086937524 
Si 8.1501111394 8.3829033461 0.0181128586 
Si 6.8333584400 7.0106684247 1.3494202528 
Si 8.3140214984 5.5676115031 2.5988149336 
Si 9.5889165639 9.5975429466 6.6717035474 
Si 5.4769872693 8.3095322102 8.0065115948 
Si 9.5729147876 6.9394545330 9.3577094115 
Si 5.4712667862 5.5956891985 5.4522614757 
Si 6.8233414710 9.7446458505 9.3456802826 
Si 8.2959920806 8.3415653015 5.4501883264 
Si 6.7542178888 7.0064740937 6.7283394819 
Si 8.3111569048 5.4706789753 8.1180600017 

