&CONTROL
   calculation      = 'scf'
   tstress          = '.true.'
   tprnfor          = '.true.'
   outdir           = './'
   disk_io          = 'none'
   pseudo_dir       = './'
/
&SYSTEM
   ecutwfc          = 30
   input_dft        = 'PBE'
   ntyp             = 1
   nat              = 64
   ibrav            = 0
/
&ELECTRONS
   electron_maxstep = 1000
   mixing_beta      = 0.5
/
&IONS
/
&CELL
/

ATOMIC_SPECIES
Si 28.085 Si_ONCV_PBE-1.0.upf

K_POINTS gamma

CELL_PARAMETERS angstrom
10.75574620551105 0.00000000000000 0.00000000000000
0.00000000000000 10.98194396109791 0.00000000000000
0.00000000000000 0.00000000000000 10.96201819529105

ATOMIC_POSITIONS angstrom
Si 3.9783654356 4.2058596075 1.2756185661 
Si -0.0696093806 2.7033508072 2.6566976945 
Si 4.0519649907 1.4707160878 3.9809100754 
Si -0.0497206668 -0.0115796495 -0.0932304566 
Si 1.3611182148 4.0990919431 3.9844710997 
Si 2.7140514660 2.8372353451 -0.0253502459 
Si 1.2668210095 1.3603745588 1.3095312293 
Si 2.7731167073 -0.0399521747 2.6245727595 
Si 4.0117481284 4.0825962791 6.6472261461 
Si 0.0559771732 2.6458510653 7.9917325877 
Si 3.9782650178 1.4022025461 9.3204496968 
Si 0.0442860726 0.0702605231 5.4089333195 
Si 1.3832070578 4.1941391818 9.4358191327 
Si 2.7763685188 2.8019177008 5.4318107065 
Si 1.4051965248 1.3115216351 6.7688281184 
Si 2.6499432558 0.0660863448 8.0343391158 
Si 4.0076234567 9.7017759081 1.3530867795 
Si -0.0669994690 8.1833974280 2.7030227944 
Si 3.9948676183 6.8849784362 4.1267689274 
Si -0.0572164712 5.5710334244 0.0630775567 
Si 1.4168867652 9.6639728632 3.9358253067 
Si 2.6107572640 8.1542710160 -0.0374851111 
Si 1.3130737045 6.8071851476 1.3817841789 
Si 2.7397770540 5.5247122470 2.7519012621 
Si 4.1094188941 9.5545153539 6.7205497635 
Si -0.0083259773 8.2046454441 7.9833467708 
Si 4.0541914438 6.8713643541 9.4888453978 
Si 0.0038290411 5.5395548364 5.4454856699 
Si 1.3427348698 9.5122442863 9.4990186872 
Si 2.7900399673 8.1610469709 5.3892922409 
Si 1.4432826325 6.9376140787 6.7820205584 
Si 2.6662680086 5.4404014384 8.0802021079 
Si 9.4182389532 4.1430611202 1.3505519616 
Si 5.3902370263 2.6850975486 2.7543560081 
Si 9.4565260928 1.3616160792 3.9661731054 
Si 5.4479711118 0.0300779207 -0.0283807751 
Si 6.6599976550 4.1783072587 4.0230914828 
Si 8.0935876936 2.7269436980 0.0739546888 
Si 6.6725043802 1.4024725074 1.3426595237 
Si 8.1447618391 -0.0637810451 2.7240190043 
Si 9.4345126965 4.1378231940 6.6545480876 
Si 5.4270747981 2.8120219253 8.0158218519 
Si 9.4640502402 1.3601989091 9.3420895813 
Si 5.4496734716 -0.0009124401 5.3070708510 
Si 6.6717675547 4.0538025157 9.4797896247 
Si 8.0265615871 2.7157386807 5.3076043996 
Si 6.7163937605 1.4356919118 6.6460067373 
Si 8.1157005111 0.0617390742 8.0077061741 
Si 9.4060015997 9.6174466873 1.2753339965 
Si 5.4151656443 8.2055485032 2.7830301016 
Si 9.4693895142 6.7752968371 4.0843715379 
Si 5.4714277518 5.4089152851 -0.0561982997 
Si 6.7076068592 9.5515534297 4.0711217958 
Si 8.1132567129 8.1427901373 -0.0248606121 
Si 6.8166177860 6.8960798381 1.3409306407 
Si 8.1004796609 5.5682641486 2.6757447757 
Si 9.4560728825 9.6477137197 6.6464914972 
Si 5.4115098959 8.2712307288 8.0465895906 
Si 9.3355645342 6.7852990617 9.3665025631 
Si 5.4096621649 5.3990164046 5.3551257058 
Si 6.7507611165 9.6472989612 9.4264779910 
Si 8.0546920327 8.2839621889 5.3743722385 
Si 6.6919179877 6.9382638260 6.7629123540 
Si 7.9911372939 5.5892399452 8.1393928110 

