&CONTROL
   calculation      = 'scf'
   tstress          = '.true.'
   tprnfor          = '.true.'
   outdir           = './'
   disk_io          = 'none'
   pseudo_dir       = './'
/
&SYSTEM
   ecutwfc          = 30
   input_dft        = 'PBE'
   ntyp             = 1
   nat              = 64
   ibrav            = 0
/
&ELECTRONS
   electron_maxstep = 1000
   mixing_beta      = 0.5
/
&IONS
/
&CELL
/

ATOMIC_SPECIES
Si 28.085 Si_ONCV_PBE-1.0.upf

K_POINTS gamma

CELL_PARAMETERS angstrom
11.13221018506194 0.00000000000000 0.00000000000000
0.00000000000000 11.08272281583603 0.00000000000000
0.00000000000000 0.00000000000000 11.18663356962960

ATOMIC_POSITIONS angstrom
Si 4.2588395898 4.2898573998 1.3905657549 
Si 0.0470213579 2.7752835978 2.8229463549 
Si 4.2259823925 1.4295001533 4.1484992561 
Si 0.0830059200 0.0574596238 -0.0331257720 
Si 1.3516592596 4.2665425892 4.2016640979 
Si 2.8488830238 2.8104235035 0.0391862404 
Si 1.3156181622 1.3327268716 1.4071545697 
Si 2.8223274521 0.0217415953 2.8739428237 
Si 4.2419745456 4.1436803319 6.8365866522 
Si -0.0253667969 2.8083153743 8.3842906686 
Si 4.1791569303 1.4598716114 9.7921916795 
Si -0.0382376977 0.0409479101 5.4937392545 
Si 1.4062988548 4.2089083228 9.6277881054 
Si 2.7322222098 2.8082495819 5.5868547476 
Si 1.3454089193 1.4788124344 6.8511166707 
Si 2.9145068215 -0.0188358451 8.2288080507 
Si 4.2448688592 9.7986724206 1.3636236063 
Si 0.0141210239 8.4646913829 2.8093112841 
Si 4.2085615742 7.0629734893 4.2026846795 
Si -0.0109993240 5.5629469395 0.0199349097 
Si 1.4664762281 9.7623184291 4.2466657070 
Si 2.8503703846 8.4641148153 0.0829287814 
Si 1.3874407985 6.9984228375 1.4359339031 
Si 2.7683621903 5.6821304370 2.8186332006 
Si 4.2039410436 9.7108151109 6.9754807741 
Si -0.0081893991 8.3641042625 8.3963311769 
Si 4.3222886023 6.9896865666 9.7344503022 
Si -0.0971970479 5.4954146266 5.6470513777 
Si 1.3113832473 9.7112427636 9.7036161317 
Si 2.8634609896 8.4397356650 5.5046540599 
Si 1.4078575988 7.0193047419 6.9643436513 
Si 2.7898739431 5.5527845785 8.3949081748 
Si 9.7829204192 4.1402976017 1.4468062539 
Si 5.6739972283 2.8824594851 2.7118105336 
Si 9.8461727189 1.3579542002 4.1444631477 
Si 5.7265941938 -0.0650219510 -0.0444146708 
Si 7.0345173594 4.2804113970 4.1277234997 
Si 8.5119660413 2.7359163285 -0.0655414805 
Si 7.0527403042 1.3046722239 1.3546935532 
Si 8.4133401238 0.0102604141 2.6808742246 
Si 9.8196045333 4.2923746846 6.9404794220 
Si 5.7262823041 2.8666087246 8.3946098576 
Si 9.8895474325 1.4024857494 9.7891584128 
Si 5.7170761608 0.0787802506 5.6295802565 
Si 7.0175126514 4.0955831383 9.7387965582 
Si 8.5502777392 2.8684930355 5.5965605384 
Si 7.0912128463 1.4163853847 6.9656103967 
Si 8.4193539008 0.0499431031 8.4133495629 
Si 9.9164029226 9.8373449217 1.4238954707 
Si 5.6889231795 8.4780262726 2.7388393259 
Si 9.9523086076 7.0392272051 4.2390662811 
Si 5.6365234618 5.6247907185 0.0826136231 
Si 7.1484721207 9.7749889111 4.2528809116 
Si 8.3858689677 8.4799384647 0.0672612965 
Si 7.1472416017 7.0029530698 1.2886164274 
Si 8.4194383693 5.6761580824 2.7715710215 
Si 9.8227329436 9.7490020156 6.8831342226 
Si 5.6732300811 8.4315869758 8.4109856331 
Si 9.9719277239 7.0007221305 9.7934224369 
Si 5.6663397559 5.6100072872 5.4807373739 
Si 6.9748313167 9.8425684521 9.7203865039 
Si 8.5122132982 8.2967548339 5.5413256989 
Si 7.1559672158 7.0258669276 6.8348163682 
Si 8.4762885803 5.4965488710 8.3721056117 

