&CONTROL
   calculation      = 'scf'
   tstress          = '.true.'
   tprnfor          = '.true.'
   outdir           = './'
   disk_io          = 'none'
   pseudo_dir       = './'
/
&SYSTEM
   ecutwfc          = 30
   input_dft        = 'PBE'
   ntyp             = 1
   nat              = 64
   ibrav            = 0
/
&ELECTRONS
   electron_maxstep = 1000
   mixing_beta      = 0.5
/
&IONS
/
&CELL
/

ATOMIC_SPECIES
Si 28.085 Si_ONCV_PBE-1.0.upf

K_POINTS gamma

CELL_PARAMETERS angstrom
10.84567413542993 0.00000000000000 0.00000000000000
0.00000000000000 11.11656729499085 0.00000000000000
0.00000000000000 0.00000000000000 10.79616963411450

ATOMIC_POSITIONS angstrom
Si 4.0368288517 4.1967167467 1.4525156381 
Si 0.0251811042 2.7231657282 2.7638243040 
Si 3.9216185427 1.4123290719 4.1137462957 
Si 0.0121051156 -0.0963009098 -0.0605701524 
Si 1.3083483606 4.1530449755 4.1604950070 
Si 2.7295900188 2.8275576596 0.0473343101 
Si 1.3910560296 1.3630571942 1.4282924868 
Si 2.6121563690 0.0396581711 2.6596020183 
Si 4.0570585735 4.2525311211 6.8916980834 
Si -0.0742978817 2.8655038906 8.1635043848 
Si 3.9642042864 1.3964000068 9.5638925209 
Si 0.0835043511 -0.0462667651 5.5530153795 
Si 1.3860970333 4.1384977908 9.5873240340 
Si 2.6662219244 2.8832220777 5.4892600904 
Si 1.2493794242 1.4138101673 6.8953010433 
Si 2.6100547336 0.0595106135 8.1952695180 
Si 3.9389843994 9.8273940353 1.3232693351 
Si 0.0077461538 8.4519986870 2.7881988122 
Si 4.0550458899 7.0931181945 4.0830587206 
Si 0.0180739167 5.7162392263 0.0005792398 
Si 1.4133199537 9.7999854936 4.1558878222 
Si 2.6697996963 8.4315862680 -0.0437930815 
Si 1.3374348711 7.0748579749 1.3562181653 
Si 2.6559706654 5.6633497845 2.7781131658 
Si 3.9170622076 9.8278466288 6.7834662118 
Si -0.0475264303 8.3419589368 8.1918951510 
Si 3.8994311857 7.1151659745 9.5515931922 
Si -0.0442812488 5.5487267720 5.4197791796 
Si 1.3986306326 9.7945866392 9.5985103884 
Si 2.7388861656 8.4745660913 5.5564947818 
Si 1.3028958677 7.1208495956 6.7887302436 
Si 2.6173656214 5.6239049991 8.2255793286 
Si 9.3188000334 4.2048024904 1.3203738839 
Si 5.2299649826 2.9162785678 2.6702335484 
Si 9.2187442429 1.3987726331 4.1835367404 
Si 5.2448960156 0.0489150921 0.0120260701 
Si 6.6045457861 4.2317884029 4.1968579874 
Si 7.8725186804 2.7859887050 -0.0566335286 
Si 6.5778250768 1.3896657116 1.3609496779 
Si 8.0262144388 0.0716785175 2.6948822387 
Si 9.3237141923 4.1517493811 6.8715383576 
Si 5.3888432854 2.8100466703 8.2458786766 
Si 9.2543023076 1.4715633675 9.5973307548 
Si 5.3615973935 -0.0749598804 5.4023108689 
Si 6.5494949084 4.2112637724 9.6276949821 
Si 7.9489291378 2.8202641368 5.4392222431 
Si 6.5967992822 1.3182619223 6.8324538215 
Si 7.8997172737 0.0418383582 8.3398386435 
Si 9.2889657224 9.8827588533 1.4554538620 
Si 5.3362791213 8.4318688556 2.8060294966 
Si 9.2652371514 7.0885889142 4.0611839687 
Si 5.3602875729 5.6714653947 -0.0678308982 
Si 6.6939595005 9.8015615476 4.1529658041 
Si 7.9577126425 8.3782336478 0.0081393472 
Si 6.6453898961 6.9343301137 1.3749755196 
Si 7.9010718704 5.5797681343 2.7613572912 
Si 9.2857233835 9.8718180172 6.8847073726 
Si 5.2862773130 8.5115473010 8.2110592613 
Si 9.2660775079 6.9360743226 9.5186141323 
Si 5.3888194692 5.5870379866 5.5835516681 
Si 6.6148421391 9.7867670138 9.6828685685 
Si 7.8970137424 8.3471945215 5.5257862414 
Si 6.6379144079 7.0184600579 6.8555996818 
Si 7.9381218782 5.6420246711 8.3155354782 

