&CONTROL
   calculation      = 'scf'
   tstress          = '.true.'
   tprnfor          = '.true.'
   outdir           = './'
   disk_io          = 'none'
   pseudo_dir       = './'
/
&SYSTEM
   ecutwfc          = 30
   input_dft        = 'PBE'
   ntyp             = 1
   nat              = 64
   ibrav            = 0
/
&ELECTRONS
   electron_maxstep = 1000
   mixing_beta      = 0.5
/
&IONS
/
&CELL
/

ATOMIC_SPECIES
Si 28.085 Si_ONCV_PBE-1.0.upf

K_POINTS gamma

CELL_PARAMETERS angstrom
10.66374795377406 0.00000000000000 0.00000000000000
0.00000000000000 10.63057592671216 0.00000000000000
0.00000000000000 0.00000000000000 10.70259867616847

ATOMIC_POSITIONS angstrom
Si 4.1572311319 4.1088693133 1.3642828271 
Si -0.0505911656 2.6986157839 2.6609640519 
Si 4.1075663917 1.3665424327 3.9629924331 
Si -0.0013631528 0.0722071881 -0.0513987955 
Si 1.4038323152 3.9942616702 4.1036446574 
Si 2.7842532616 2.6764500826 0.0604655911 
Si 1.3986867422 1.2843215761 1.4322775074 
Si 2.6921996979 -0.0353042892 2.6291433749 
Si 4.1929548271 3.9956271578 6.7464206816 
Si -0.0520508386 2.6760215140 8.1076167795 
Si 3.9981583483 1.4392505142 9.3234013171 
Si 0.0832793156 -0.0626200744 5.3096113657 
Si 1.3174467452 4.0855651271 9.3248611196 
Si 2.7223106818 2.7741275897 5.4145785052 
Si 1.3518478088 1.2572633363 6.6735017800 
Si 2.6845744052 -0.0783692258 8.1571444057 
Si 4.0723838474 9.4306987659 1.3294051555 
Si 0.0363149008 8.1340899552 2.6456078014 
Si 4.0556211395 6.8163398500 4.0070107216 
Si -0.0203570818 5.4161995857 0.0078290420 
Si 1.3580181341 9.4980317553 4.0446421377 
Si 2.7553171761 8.1430943891 -0.0794274692 
Si 1.3347469893 6.8287316868 1.4194841697 
Si 2.7466178406 5.3995551575 2.7472378189 
Si 4.1818931795 9.4413587617 6.7933022721 
Si -0.0272904451 8.1551401933 8.1350734309 
Si 4.1375640043 6.6836518566 9.3811195348 
Si 0.0223693551 5.3433282789 5.3430205795 
Si 1.3612526206 9.5333326228 9.3877980950 
Si 2.7119791062 8.0334057268 5.4072202469 
Si 1.4077012958 6.7730853231 6.8183644857 
Si 2.6785835508 5.4580848904 7.9886930117 
Si 9.6511601415 4.1307691012 1.3231141487 
Si 5.5422431414 2.7197259795 2.7764123554 
Si 9.5854086769 1.3360043878 3.9518733178 
Si 5.5592555347 0.0042861813 0.0507238925 
Si 6.8368747118 4.1305877378 4.1184464007 
Si 8.1141290334 2.7374145677 0.0385237387 
Si 6.7423872898 1.2630486077 1.2645670449 
Si 8.0989284834 -0.0240240301 2.6195635424 
Si 9.5379294057 4.0577245139 6.7995275089 
Si 5.4462999891 2.6612542492 8.1245401658 
Si 9.4664409019 1.3282273865 9.3875446327 
Si 5.4270407895 0.0236630970 5.4441731485 
Si 6.9165398805 4.0391670310 9.3745536499 
Si 8.1757601992 2.7168240827 5.2898372986 
Si 6.9087751441 1.4204897320 6.7925673084 
Si 8.2882625431 -0.0587960530 8.0994635679 
Si 9.6141615424 9.4297134711 1.4260815144 
Si 5.5542025046 8.0726138782 2.7391158557 
Si 9.4839545039 6.8210421254 3.9895556353 
Si 5.4004907701 5.4097617416 -0.0571222553 
Si 6.8921071309 9.5317645939 4.0488101635 
Si 8.1901922073 8.1999972592 0.0678029535 
Si 6.8209504005 6.8357649752 1.3315883721 
Si 8.1236019848 5.4955110537 2.6658122303 
Si 9.6119223393 9.4088548592 6.7064739686 
Si 5.4860651762 8.1888327420 8.0761341753 
Si 9.6546892826 6.8437206295 9.4312807760 
Si 5.4014972183 5.3351299792 5.4501506870 
Si 6.9208313213 9.3932439464 9.3213544024 
Si 8.2168807241 8.1658016233 5.3234919202 
Si 6.9002233833 6.6861650713 6.7361603651 
Si 8.1661906032 5.3221702669 8.0997469733 

