&CONTROL
   calculation      = 'scf'
   tstress          = '.true.'
   tprnfor          = '.true.'
   outdir           = './'
   disk_io          = 'none'
   pseudo_dir       = './'
/
&SYSTEM
   ecutwfc          = 30
   input_dft        = 'PBE'
   ntyp             = 1
   nat              = 64
   ibrav            = 0
/
&ELECTRONS
   electron_maxstep = 1000
   mixing_beta      = 0.5
/
&IONS
/
&CELL
/

ATOMIC_SPECIES
Si 28.085 Si_ONCV_PBE-1.0.upf

K_POINTS gamma

CELL_PARAMETERS angstrom
10.97925684791927 0.00000000000000 0.00000000000000
0.00000000000000 11.08913345750799 0.00000000000000
0.00000000000000 0.00000000000000 10.94475048247315

ATOMIC_POSITIONS angstrom
Si 4.1314495763 4.0832951575 1.3969471369 
Si -0.0225858020 2.6511025825 2.6081434675 
Si 4.0303025254 1.4006156012 4.0504636457 
Si -0.0212650389 -0.0222823168 -0.0282332237 
Si 1.3550550277 3.9661821609 4.1142082340 
Si 2.6823096481 2.6559025784 -0.0934767953 
Si 1.3569325464 1.4419398746 1.2938252170 
Si 2.7856723193 -0.0304728446 2.7659891524 
Si 4.1482351640 4.0986076096 6.6166095267 
Si -0.0679326798 2.7377931683 8.0038930393 
Si 4.1122217485 1.3570230497 9.4084184419 
Si 0.0940971347 -0.0443446013 5.3918238452 
Si 1.4409586361 4.1476754405 9.2878492503 
Si 2.6999964454 2.7245311100 5.3060678922 
Si 1.3714057985 1.3076927484 6.6126244191 
Si 2.6808043665 -0.0025060986 7.9713396403 
Si 4.1844150227 9.4097459003 1.2648274098 
Si -0.0730336431 8.1201715639 2.7188222236 
Si 4.0193662490 6.7120121652 4.0446213420 
Si 0.0386046748 5.3296774137 0.0171378643 
Si 1.3848841036 9.4212522967 4.0767492418 
Si 2.7435510414 8.2057999468 0.0012361986 
Si 1.4131249887 6.7169021655 1.3065238287 
Si 2.8389384897 5.4972091032 2.7080254363 
Si 4.1687873990 9.3874398317 6.6128296693 
Si -0.0762868163 8.1546190911 8.1290025129 
Si 4.2108222055 6.8130588903 9.3499986107 
Si 0.0694341797 5.5109426336 5.3300844188 
Si 1.2909433158 9.5011092909 9.4505181265 
Si 2.6430639752 8.1886686716 5.3689163105 
Si 1.3436175537 6.7328199299 6.6615426537 
Si 2.8104945971 5.4516712851 8.1149384618 
Si 9.6800610808 4.0319900269 1.3918020710 
Si 5.4158749278 2.6752181345 2.7700356187 
Si 9.5126021439 1.3353034424 3.9819209252 
Si 5.5166033048 0.0070319495 0.0746605298 
Si 6.8766669383 4.1409549948 3.9709935396 
Si 8.2088695422 2.7727741336 -0.0577142690 
Si 6.9492549026 1.3089706117 1.3413559948 
Si 8.2531595282 -0.0462357516 2.6281296394 
Si 9.6832787729 4.1524681400 6.6200907478 
Si 5.4072822645 2.6980196788 8.0049558390 
Si 9.5013097274 1.2894307467 9.2909532732 
Si 5.4231165781 0.0463520313 5.2729993646 
Si 6.7582780834 4.1377127206 9.3824136023 
Si 8.2388447368 2.7389471324 5.2741330786 
Si 6.8829535022 1.2708621727 6.6647052311 
Si 8.2443070663 -0.0257849057 8.0647222139 
Si 9.6417239385 9.5473045990 1.4284591686 
Si 5.4531704998 8.0744435152 2.7407179536 
Si 9.5563509788 6.8179481538 3.9845593661 
Si 5.4044553665 5.4831486458 -0.0002419138 
Si 6.8556284968 9.4956154301 3.9654175346 
Si 8.1887024782 8.0574579794 -0.0001949921 
Si 6.7893084012 6.6708991931 1.2668636958 
Si 8.1301639284 5.3310560973 2.7314997352 
Si 9.6407814815 9.5074745963 6.7359143982 
Si 5.4795950425 8.0847533872 8.0858272468 
Si 9.6920623263 6.6898876636 9.4133760642 
Si 5.4434138543 5.4181136860 5.3744520506 
Si 6.8027224631 9.5139675285 9.3204776655 
Si 8.1589773657 8.1901711414 5.4538978958 
Si 6.8639397154 6.7779820159 6.6238231958 
Si 8.2304671603 5.4965667833 7.9373874903 

