&CONTROL
   calculation      = 'scf'
   tstress          = '.true.'
   tprnfor          = '.true.'
   outdir           = './'
   disk_io          = 'none'
   pseudo_dir       = './'
/
&SYSTEM
   ecutwfc          = 30
   input_dft        = 'PBE'
   ntyp             = 1
   nat              = 64
   ibrav            = 0
/
&ELECTRONS
   electron_maxstep = 1000
   mixing_beta      = 0.5
/
&IONS
/
&CELL
/

ATOMIC_SPECIES
Si 28.085 Si_ONCV_PBE-1.0.upf

K_POINTS gamma

CELL_PARAMETERS angstrom
11.04080952713830 0.00000000000000 0.00000000000000
0.00000000000000 10.98586383370603 0.00000000000000
0.00000000000000 0.00000000000000 10.90889812024705

ATOMIC_POSITIONS angstrom
Si 4.1763963556 4.2212538280 1.3231134827 
Si 0.0865928403 2.7319861233 2.5845173655 
Si 4.2060923852 1.2984955542 4.0738298067 
Si -0.0857946403 0.0487872741 -0.0288913335 
Si 1.4791671544 4.0974381220 4.0323829039 
Si 2.7405338006 2.6795287008 0.0312919302 
Si 1.3736149796 1.3033137138 1.4289472480 
Si 2.7145833423 0.0333693437 2.6071843101 
Si 4.2791124666 4.1676577970 6.7078674149 
Si -0.0062088009 2.8643845691 8.0550829756 
Si 4.1492547941 1.3284955832 9.3308465516 
Si -0.0006574736 -0.0137305248 5.3148330114 
Si 1.4046001156 4.0775070812 9.3325951502 
Si 2.8049480367 2.7722474030 5.2622492142 
Si 1.3861264998 1.3446212643 6.5948971834 
Si 2.8429703664 -0.0529737283 7.9405889609 
Si 4.2166447888 9.6830954634 1.2600245361 
Si 0.0077879967 8.2400907940 2.7672843753 
Si 4.2354242542 6.9221320718 4.0777489537 
Si -0.0081722757 5.5566619856 -0.0794655000 
Si 1.3875732922 9.6962711744 4.0209417445 
Si 2.8010505565 8.3233044628 0.0973561989 
Si 1.4135902497 6.8711084080 1.3173362361 
Si 2.7342262629 5.6381702841 2.7555371289 
Si 4.1483660241 9.6807311934 6.6718037234 
Si 0.0065549154 8.3113823165 8.0728432325 
Si 4.2367681170 6.9428147788 9.4165173304 
Si -0.0233922523 5.5838832118 5.3971101174 
Si 1.4753875167 9.6234147490 9.3417134944 
Si 2.8544583704 8.3584128451 5.3684977677 
Si 1.4035043845 7.0000798373 6.6235195767 
Si 2.8908815292 5.6263326119 8.0812596311 
Si 9.8394005559 4.2259244686 1.4259126677 
Si 5.5015294922 2.8298868118 2.7492938430 
Si 9.8260757863 1.3753518821 4.0393656085 
Si 5.4907121748 0.0507423742 0.0739313686 
Si 7.0413379097 4.2100571340 4.0204210272 
Si 8.3444114041 2.7615519463 -0.0008566240 
Si 7.0042918766 1.3298041348 1.3253630737 
Si 8.3341048524 -0.1001603500 2.6814348685 
Si 9.7856360667 4.1238945693 6.6917946017 
Si 5.5674702335 2.7783249452 8.0851305147 
Si 9.6939556689 1.4660871882 9.3285615966 
Si 5.6042381555 0.0386376645 5.3985137448 
Si 7.0572407480 4.0633417950 9.2937571790 
Si 8.2722874711 2.7415746686 5.2721291653 
Si 7.0475253816 1.4596058000 6.7688296612 
Si 8.4496569687 -0.1012787257 7.9743506382 
Si 9.7389615108 9.6801869870 1.2936450761 
Si 5.5958463097 8.3664229532 2.7615471566 
Si 9.6923686771 6.9953131321 3.9092575616 
Si 5.6807828333 5.4713239517 0.0719019748 
Si 6.8905578954 9.7444160929 3.9419534925 
Si 8.4543844050 8.2242563108 0.0434622588 
Si 6.9644382629 6.8476755142 1.3245834281 
Si 8.2730970900 5.5778470131 2.7108791689 
Si 9.6918710076 9.6727347029 6.5914147326 
Si 5.6007461898 8.3538417481 7.9904632385 
Si 9.7336071600 6.8704578721 9.3112325415 
Si 5.5937021227 5.5850767704 5.3330000385 
Si 7.0317802581 9.6124447240 9.4039159162 
Si 8.4316937280 8.3343582923 5.3084741414 
Si 6.9603677646 6.9773256369 6.6828216716 
Si 8.3706441296 5.5856585131 8.0768038551 

