&CONTROL
   calculation      = 'scf'
   tstress          = '.true.'
   tprnfor          = '.true.'
   outdir           = './'
   disk_io          = 'none'
   pseudo_dir       = './'
/
&SYSTEM
   ecutwfc          = 30
   input_dft        = 'PBE'
   ntyp             = 1
   nat              = 64
   ibrav            = 0
/
&ELECTRONS
   electron_maxstep = 1000
   mixing_beta      = 0.5
/
&IONS
/
&CELL
/

ATOMIC_SPECIES
Si 28.085 Si_ONCV_PBE-1.0.upf

K_POINTS gamma

CELL_PARAMETERS angstrom
11.16688196580405 0.00000000000000 0.00000000000000
0.00000000000000 10.90296770502057 0.00000000000000
0.00000000000000 0.00000000000000 11.20666730713165

ATOMIC_POSITIONS angstrom
Si 4.2482517513 4.1345255852 1.3848266995 
Si -0.0116466216 2.8837889924 2.7741561730 
Si 4.2944019382 1.4837395580 4.1698181416 
Si -0.0253097158 0.0764056931 0.1013999835 
Si 1.4146616356 4.2729232945 4.1496162061 
Si 2.8325962083 2.8397231902 -0.0853520115 
Si 1.4447150250 1.3877828464 1.4116468219 
Si 2.8469765130 0.0343902563 2.8230561175 
Si 4.2839496136 4.2710883529 6.9258116582 
Si -0.0780257428 2.8136088926 8.3365694401 
Si 4.1863079415 1.3705824198 9.7376042247 
Si -0.0175575236 -0.0397715514 5.6108390389 
Si 1.4346881345 4.1772934056 9.6638289671 
Si 2.8986184023 2.7531715066 5.5715573747 
Si 1.3532150193 1.3263237241 6.9625338415 
Si 2.9286662616 -0.0223898105 8.4226326910 
Si 4.2124151992 9.7574478795 1.2918610161 
Si -0.0057026563 8.4713082836 2.7806305346 
Si 4.3170349677 7.0507013262 4.2481142972 
Si -0.0529805983 5.5656513407 0.0875914571 
Si 1.3570532748 9.8258925171 4.2491782549 
Si 2.8790047040 8.3631822793 0.0776569503 
Si 1.3130876895 6.9223364298 1.3169480240 
Si 2.8481358236 5.6526390032 2.7694576739 
Si 4.2653897473 9.7084682900 6.8743273676 
Si -0.0844015475 8.3691277628 8.3284644538 
Si 4.2295930862 7.0150258943 9.8075621273 
Si -0.0888150012 5.6871127608 5.6162451572 
Si 1.3869316596 9.7863624194 9.7363308192 
Si 2.7698789788 8.3624572167 5.5769032690 
Si 1.3718507943 6.9014470280 7.0487493467 
Si 2.7928261977 5.5207273505 8.4292967204 
Si 9.9861039588 4.1221108629 1.4381191796 
Si 5.5743815833 2.7814826430 2.7182879701 
Si 9.8689657494 1.3876122189 4.0912613320 
Si 5.6631858516 -0.0437122018 0.0314546569 
Si 7.0956477230 4.1849941150 4.0867837444 
Si 8.5651671964 2.7124613696 0.0214973203 
Si 7.0031131415 1.4603150581 1.3197794990 
Si 8.4392991027 -0.0123110024 2.8105808093 
Si 9.8513227623 4.1443489443 6.9813050897 
Si 5.6051263146 2.7069116358 8.3562936983 
Si 9.9537046950 1.4043038287 9.6402195864 
Si 5.6119436560 -0.0730346095 5.6196488149 
Si 7.0156521594 4.1211796725 9.7078060525 
Si 8.5373724967 2.7427811276 5.5281712978 
Si 7.1356302129 1.4991062328 7.0379816707 
Si 8.4585368401 0.0857778396 8.2840128394 
Si 9.9305777569 9.7731150655 1.3355454529 
Si 5.6961484968 8.3853566807 2.8612285186 
Si 9.9873764855 7.0023280328 4.2176859244 
Si 5.6893476397 5.6214441475 0.0994608272 
Si 7.1150896773 9.8371694284 4.1438523038 
Si 8.4368241513 8.3028872631 -0.0516554043 
Si 7.1108801944 7.0420251909 1.3304781692 
Si 8.4741860161 5.6105575669 2.6940787904 
Si 9.9209574087 9.7861599196 6.8513531057 
Si 5.7020042381 8.3573066236 8.3362309425 
Si 9.9100548641 7.0288302919 9.8124804424 
Si 5.6173618903 5.5226246422 5.4630656584 
Si 7.1658140551 9.8274295748 9.7925671806 
Si 8.4427223709 8.3468990520 5.5066374089 
Si 7.1055097262 7.0748096879 6.8535187829 
Si 8.3875345447 5.6730064273 8.2721411813 

