&CONTROL
   calculation      = 'scf'
   tstress          = '.true.'
   tprnfor          = '.true.'
   outdir           = './'
   disk_io          = 'none'
   pseudo_dir       = './'
/
&SYSTEM
   ecutwfc          = 30
   input_dft        = 'PBE'
   ntyp             = 1
   nat              = 64
   ibrav            = 0
/
&ELECTRONS
   electron_maxstep = 1000
   mixing_beta      = 0.5
/
&IONS
/
&CELL
/

ATOMIC_SPECIES
Si 28.085 Si_ONCV_PBE-1.0.upf

K_POINTS gamma

CELL_PARAMETERS angstrom
10.94445971749570 0.00000000000000 0.00000000000000
0.00000000000000 11.21362567706007 0.00000000000000
0.00000000000000 0.00000000000000 10.74255798152901

ATOMIC_POSITIONS angstrom
Si 4.0806158228 4.1172772694 1.4607550048 
Si -0.0866805621 2.7882233102 2.8071066734 
Si 4.0898408917 1.4513350006 4.1605487885 
Si -0.0319348297 0.0946440494 -0.0842605704 
Si 1.4464218055 4.1538447105 4.0770301716 
Si 2.8012751718 2.7771841997 0.0076879795 
Si 1.4701826029 1.3332954531 1.4299759010 
Si 2.7400316590 -0.0730831967 2.6809869050 
Si 4.1840053034 4.0919672740 6.7627597258 
Si -0.0595708956 2.7328037420 8.2453060338 
Si 4.0615987027 1.2751390070 9.6292859924 
Si -0.0631067068 0.0433248543 5.5116324263 
Si 1.3107014801 4.2003891657 9.5443335580 
Si 2.7251080783 2.7122123000 5.3943283138 
Si 1.3217350152 1.4090763540 6.8033593267 
Si 2.8502208791 -0.0372530994 8.2305357423 
Si 4.1868014105 9.6855124584 1.2809798891 
Si -0.0192273394 8.3119566688 2.7766489735 
Si 4.1256069797 6.7812006475 4.0903279554 
Si -0.0641185554 5.5554968625 0.0806710766 
Si 1.3082505017 9.5883908778 4.0744535492 
Si 2.7689852210 8.3069465555 -0.0207966660 
Si 1.3095808468 6.8294761395 1.2909406715 
Si 2.8035720410 5.5198462108 2.6597205021 
Si 4.2020580633 9.6017799155 6.8635088893 
Si 0.0254143880 8.2815066534 8.2317445965 
Si 4.0286250465 6.8101463035 9.6257955568 
Si -0.0909241101 5.5482009191 5.5117572391 
Si 1.3776673059 9.6506131994 9.5957069050 
Si 2.7779466724 8.3438531994 5.3810120380 
Si 1.2926540878 6.8034335187 6.8944106666 
Si 2.7120660412 5.5666206628 8.1153554238 
Si 9.5883421537 4.0827407812 1.4093395136 
Si 5.4967343586 2.7177114009 2.6803548713 
Si 9.6972395654 1.2747031798 4.0980587385 
Si 5.4805846333 0.0360975261 0.0695743904 
Si 6.8572199190 4.1853726223 4.0003551397 
Si 8.2892241927 2.8313836517 0.0002785091 
Si 6.8913340114 1.4601738720 1.3122514283 
Si 8.2415225430 0.0686535527 2.6895831015 
Si 9.7292218260 4.1360690982 6.9233447599 
Si 5.4694619716 2.7788917764 8.2403511980 
Si 9.7024070196 1.3796181483 9.5286468243 
Si 5.5748555518 -0.0651662779 5.4885565052 
Si 6.9521494962 4.2016694151 9.6312672851 
Si 8.2029958854 2.6528561917 5.5331683622 
Si 6.8116072260 1.4201163563 6.9112053564 
Si 8.1690125670 -0.0291577377 8.2203697120 
Si 9.6351441711 9.5826204219 1.3898404777 
Si 5.4294370773 8.3419260070 2.6422209698 
Si 9.5717380483 6.8805245368 4.1011434088 
Si 5.5498743996 5.5748987950 -0.0636212794 
Si 6.8592767102 9.7039800041 4.0835595249 
Si 8.2579222675 8.1680343894 0.0978278299 
Si 6.9746082144 6.8472209108 1.3737400792 
Si 8.1969230731 5.5279701190 2.7861045328 
Si 9.6942675669 9.6810702783 6.7639024184 
Si 5.5400142822 8.2718586678 8.1438206453 
Si 9.7021399473 6.8792471296 9.5461010873 
Si 5.5981760086 5.4248228570 5.4658298541 
Si 6.8069578951 9.6071177464 9.4977841418 
Si 8.2467028199 8.2027393078 5.3820054655 
Si 6.8377284568 6.8939262999 6.8562922917 
Si 8.1969782514 5.5304528763 8.1037445526 

