&CONTROL
   calculation      = 'scf'
   tstress          = '.true.'
   tprnfor          = '.true.'
   outdir           = './'
   disk_io          = 'none'
   pseudo_dir       = './'
/
&SYSTEM
   ecutwfc          = 30
   input_dft        = 'PBE'
   ntyp             = 1
   nat              = 64
   ibrav            = 0
/
&ELECTRONS
   electron_maxstep = 1000
   mixing_beta      = 0.5
/
&IONS
/
&CELL
/

ATOMIC_SPECIES
Si 28.085 Si_ONCV_PBE-1.0.upf

K_POINTS gamma

CELL_PARAMETERS angstrom
10.89009471431185 0.00000000000000 0.00000000000000
0.00000000000000 10.77007977122273 0.00000000000000
0.00000000000000 0.00000000000000 11.14640734932185

ATOMIC_POSITIONS angstrom
Si 4.0132731420 4.0188689776 1.3627081847 
Si -0.0724878720 2.6826661467 2.7528345094 
Si 3.9915522362 1.3679111916 4.2932219788 
Si -0.0302915599 -0.0621673053 -0.0553596121 
Si 1.2742791879 4.0822535639 4.3086947861 
Si 2.6509858255 2.5767649339 0.0144028278 
Si 1.4104723347 1.3510610603 1.4798410975 
Si 2.7031114741 0.0129578810 2.8930821650 
Si 4.0061893198 4.0671888675 7.1210667182 
Si -0.0367356146 2.5737523824 8.6206127657 
Si 4.0481218867 1.3885519683 9.9728858118 
Si -0.0473508192 0.0416752175 5.7084703310 
Si 1.2979322956 3.9730155640 9.9058554731 
Si 2.6388953426 2.6703985133 5.7645107164 
Si 1.3328520461 1.2562771324 7.1562454257 
Si 2.6360354072 -0.0750500862 8.5731629878 
Si 4.1650027421 9.3382171196 1.4933637477 
Si 0.0517265972 8.0171282688 2.7480959772 
Si 4.1080022717 6.6702513679 4.3161888849 
Si -0.0104591374 5.3810041771 0.0608908859 
Si 1.3976442609 9.2948270655 4.1748666666 
Si 2.6904343479 7.9615317468 -0.0501482253 
Si 1.4036319891 6.6995882170 1.3951256148 
Si 2.7211884129 5.3681626130 2.9448732546 
Si 4.1511744979 9.2954084335 7.1648220502 
Si 0.0254211086 7.9761430360 8.5213021217 
Si 4.0809461882 6.6686645597 10.0483748121 
Si 0.0009815234 5.4194165473 5.6039024272 
Si 1.2759572470 9.3152621721 9.9717376753 
Si 2.7528515193 7.9292945282 5.6078422397 
Si 1.3907808496 6.5815228402 7.0551367140 
Si 2.7351096113 5.2947619173 8.4692874690 
Si 9.4665416849 4.0168927833 1.3258516006 
Si 5.4433711923 2.7388396103 2.8526030858 
Si 9.4500932398 1.2510468839 4.3525697757 
Si 5.3695986982 -0.0953781141 0.0393787064 
Si 6.7515731821 3.8999020034 4.2173213203 
Si 8.2144901240 2.6100812967 -0.0462920546 
Si 6.7792662697 1.3328219665 1.3849064469 
Si 8.1335170067 0.0915052342 2.8855918358 
Si 9.4190757190 3.9221306365 7.0544246899 
Si 5.5221073523 2.6988887600 8.4719204407 
Si 9.5170663020 1.2967433146 10.0208696342 
Si 5.3928365852 -0.0383502373 5.7879436149 
Si 6.7549768663 3.9958350475 10.0551928045 
Si 8.1273323239 2.7392224720 5.6405468723 
Si 6.7440185515 1.3117866780 7.2239238899 
Si 8.0841924747 -0.0898901186 8.5557604359 
Si 9.5152416963 9.2982253020 1.4527036011 
Si 5.4413334241 8.0404347483 2.8768857330 
Si 9.5354203168 6.5786121952 4.2579278372 
Si 5.4732372532 5.2958777867 0.0677840677 
Si 6.8624063559 9.2420424068 4.2349219796 
Si 8.1092657697 8.0389956259 0.0227495404 
Si 6.8522409105 6.6115825816 1.4479729528 
Si 8.1538812927 5.4216722640 2.8300474626 
Si 9.5762036207 9.3925926142 7.0412778927 
Si 5.3574057816 7.9820434623 8.5012046491 
Si 9.5560714899 6.7357573718 9.9555136945 
Si 5.5213690167 5.3305766913 5.6126331118 
Si 6.7394365418 9.2979381701 10.0182898597 
Si 8.1256418010 8.0651725217 5.7801069652 
Si 6.7817753657 6.6262197584 7.1925708373 
Si 8.2280608189 5.2846955233 8.5127621492 

