&CONTROL
   calculation      = 'scf'
   tstress          = '.true.'
   tprnfor          = '.true.'
   outdir           = './'
   disk_io          = 'none'
   pseudo_dir       = './'
/
&SYSTEM
   ecutwfc          = 30
   input_dft        = 'PBE'
   ntyp             = 1
   nat              = 64
   ibrav            = 0
/
&ELECTRONS
   electron_maxstep = 1000
   mixing_beta      = 0.5
/
&IONS
/
&CELL
/

ATOMIC_SPECIES
Si 28.085 Si_ONCV_PBE-1.0.upf

K_POINTS gamma

CELL_PARAMETERS angstrom
10.67966999007624 0.00000000000000 0.00000000000000
0.00000000000000 11.04454840569183 0.00000000000000
0.00000000000000 0.00000000000000 10.65685125505392

ATOMIC_POSITIONS angstrom
Si 4.1622833010 4.3039592156 1.3462488285 
Si 0.0130646244 2.8934789197 2.7485311549 
Si 4.0141856023 1.3131987303 3.9270357756 
Si -0.0611990445 0.0787988572 -0.0485907731 
Si 1.2724442820 4.2121340159 3.8898808741 
Si 2.7163808316 2.8483402355 -0.0187583209 
Si 1.4189629418 1.3890073584 1.3025008076 
Si 2.6846085538 -0.0017896955 2.6822864862 
Si 4.0907456002 4.2964387565 6.5629549525 
Si -0.0129801438 2.9041773997 7.8894284838 
Si 4.1150479445 1.4128631516 9.3079021351 
Si -0.0784875578 0.0857528533 5.3283533478 
Si 1.3374514049 4.2541821193 9.2221977437 
Si 2.7055907736 2.7946412552 5.3006442799 
Si 1.2665536755 1.4715516687 6.7059333391 
Si 2.6304774498 -0.0070814768 8.0263170640 
Si 4.0022080849 9.8482191799 1.2734057211 
Si -0.0034817246 8.5165958617 2.7267220947 
Si 4.0409990793 6.9629104119 3.9420481327 
Si 0.0137692445 5.6890935418 -0.0889161231 
Si 1.2909558554 9.8697573122 4.0025734266 
Si 2.6936567642 8.5428448100 0.0225625148 
Si 1.2792722866 7.0496332850 1.2831961333 
Si 2.7191328235 5.6724698616 2.5658308641 
Si 4.1556735546 9.9493239817 6.5823286486 
Si 0.0205046418 8.4253658671 8.0133868234 
Si 4.1224359545 7.0385841833 9.2954726696 
Si 0.0204423827 5.5408129663 5.2617173253 
Si 1.4093878930 9.9451158485 9.3049792592 
Si 2.7846609056 8.4852577873 5.3855260311 
Si 1.2653046603 7.0799381366 6.5944811261 
Si 2.7923974351 5.5597957690 7.9873910574 
Si 9.5847664979 4.3234981050 1.3215949253 
Si 5.3296508691 2.8622566198 2.5794762719 
Si 9.5112940320 1.3153354838 4.0685527795 
Si 5.3861692217 0.0507553627 -0.0165190946 
Si 6.8140315606 4.2725734875 3.8971010211 
Si 8.1388141704 2.8101582912 0.0302885162 
Si 6.8374847707 1.5045003461 1.3514655688 
Si 8.0690416095 -0.0132647127 2.5929689390 
Si 9.4783277784 4.1763633364 6.6261082920 
Si 5.4685264045 2.8858581842 8.0002861581 
Si 9.4824301747 1.4743677941 9.2658433235 
Si 5.3551784314 0.0156497225 5.2853425384 
Si 6.7119220775 4.2843608297 9.2485259007 
Si 8.1477481170 2.7157686917 5.2730212649 
Si 6.6842662505 1.3856294098 6.6652029319 
Si 8.1930546471 0.0260819959 7.9372927120 
Si 9.3931335844 9.7970405555 1.3809635527 
Si 5.4181234880 8.5364180215 2.5579678517 
Si 9.5014373389 7.0520994156 3.9427166349 
Si 5.4926446160 5.5445872459 0.0009310023 
Si 6.7105967658 9.8029204714 3.9527262044 
Si 8.2264318324 8.5283420656 -0.0363311818 
Si 6.7902556906 6.9537721711 1.3059319846 
Si 8.2294573330 5.7147192122 2.6702482056 
Si 9.4357879430 9.7618165774 6.6437921696 
Si 5.4659676992 8.4251440325 7.9317919607 
Si 9.5443096369 7.0766689973 9.2219417174 
Si 5.4886076786 5.6424964930 5.3340734499 
Si 6.6980661426 9.8935065899 9.3702914695 
Si 8.2271558791 8.4638782238 5.3169611716 
Si 6.7432288815 7.0353955163 6.6348691360 
Si 8.1714328147 5.7271602983 7.9160192043 

