&CONTROL
   calculation      = 'scf'
   tstress          = '.true.'
   tprnfor          = '.true.'
   outdir           = './'
   disk_io          = 'none'
   pseudo_dir       = './'
/
&SYSTEM
   ecutwfc          = 30
   input_dft        = 'PBE'
   ntyp             = 1
   nat              = 64
   ibrav            = 0
/
&ELECTRONS
   electron_maxstep = 1000
   mixing_beta      = 0.5
/
&IONS
/
&CELL
/

ATOMIC_SPECIES
Si 28.085 Si_ONCV_PBE-1.0.upf

K_POINTS gamma

CELL_PARAMETERS angstrom
11.08983081054384 0.00000000000000 0.00000000000000
0.00000000000000 10.66936596450223 0.00000000000000
0.00000000000000 0.00000000000000 10.87621968245613

ATOMIC_POSITIONS angstrom
Si 4.2988708146 3.8990430887 1.3759005669 
Si -0.0543135301 2.6304096054 2.6459349528 
Si 4.1386614968 1.3828810261 4.0628391143 
Si 0.0527902563 0.0889356196 -0.0299416486 
Si 1.3112958579 3.8228367690 4.1081321796 
Si 2.9082401201 2.6985064051 -0.0528686220 
Si 1.4990608997 1.2528928223 1.4446420417 
Si 2.9023886682 -0.0749107664 2.7024276687 
Si 4.1677803040 3.9532733224 6.9321200542 
Si 0.0471277221 2.5835691025 8.2991023604 
Si 4.1414313123 1.2976172124 9.5481764482 
Si -0.0071133604 0.0301486708 5.4419372991 
Si 1.4720948778 3.8657877364 9.5898002054 
Si 2.8374251426 2.5776569796 5.5092937282 
Si 1.4813760484 1.2496575996 6.9209501435 
Si 2.7612126753 0.0460552377 8.2709365431 
Si 4.1364209326 9.0336178960 1.3285475293 
Si 0.0256569939 7.8879875005 2.7038352157 
Si 4.3068098118 6.4824460323 4.2148750446 
Si -0.0291972818 5.2608946495 -0.0036883104 
Si 1.4521964672 9.0438131164 4.0819058224 
Si 2.7393277088 7.8094941043 -0.0612674626 
Si 1.4532287388 6.4648216730 1.3186702793 
Si 2.7833033473 5.2164914183 2.8065288091 
Si 4.1901428556 9.1864399717 6.8203254214 
Si -0.0836791585 7.8394376180 8.2435478268 
Si 4.1123163447 6.5795848647 9.5373432460 
Si 0.0702648943 5.1502782191 5.4642777703 
Si 1.3231678988 9.1637526426 9.6263488735 
Si 2.8199570806 7.7256561024 5.4066033066 
Si 1.3999770644 6.5143925722 6.9095476827 
Si 2.8785315009 5.2707813309 8.2774768118 
Si 9.7819519746 3.8948778464 1.2874174199 
Si 5.6375972624 2.6504992757 2.7769987806 
Si 9.8588632908 1.3887196224 4.1500811628 
Si 5.6579652452 -0.0607772008 0.0457559736 
Si 7.0016209056 3.8898395103 4.0557382192 
Si 8.3971152829 2.6697681023 0.0603362053 
Si 7.0140718250 1.3622350323 1.3561332361 
Si 8.3561047215 -0.0241490111 2.7715395368 
Si 9.7294492006 3.9438656375 6.8556329958 
Si 5.5666834233 2.6540405474 8.3087337558 
Si 9.7617013603 1.3122688694 9.5158072742 
Si 5.5787248940 0.0638993697 5.5287567573 
Si 7.0745424425 3.8273644061 9.6215656790 
Si 8.4450567223 2.6102744386 5.4670085906 
Si 6.9949536124 1.2702250324 6.7988514206 
Si 8.5236277421 0.0437387685 8.2543715363 
Si 9.7420264934 9.0297597964 1.3363996473 
Si 5.5859219378 7.7986463625 2.7369965187 
Si 9.7443074207 6.5584252939 4.0537285911 
Si 5.5215809803 5.1165437458 0.0287323249 
Si 7.0856503746 9.1829497714 4.0897532566 
Si 8.5170683789 7.8013333843 0.0294995335 
Si 7.0129598058 6.5598682414 1.4636202939 
Si 8.4521612531 5.1557747812 2.6880098450 
Si 9.8544807957 9.0356574308 6.7887828848 
Si 5.5533499819 7.8762555044 8.2329387623 
Si 9.8516853947 6.4376957021 9.5292490856 
Si 5.6718837527 5.2452809010 5.4244189871 
Si 7.1227225990 9.0664610849 9.5147012650 
Si 8.5275253019 7.7939256313 5.4462722431 
Si 7.0046014585 6.4677841396 6.9278375197 
Si 8.5004244930 5.1887451962 8.1576436882 

