&CONTROL
   calculation      = 'scf'
   tstress          = '.true.'
   tprnfor          = '.true.'
   outdir           = './'
   disk_io          = 'none'
   pseudo_dir       = './'
/
&SYSTEM
   ecutwfc          = 30
   input_dft        = 'PBE'
   ntyp             = 1
   nat              = 64
   ibrav            = 0
/
&ELECTRONS
   electron_maxstep = 1000
   mixing_beta      = 0.5
/
&IONS
/
&CELL
/

ATOMIC_SPECIES
Si 28.085 Si_ONCV_PBE-1.0.upf

K_POINTS gamma

CELL_PARAMETERS angstrom
11.22296545299411 0.00000000000000 0.00000000000000
0.00000000000000 10.83967738174546 0.00000000000000
0.00000000000000 0.00000000000000 11.15976648165486

ATOMIC_POSITIONS angstrom
Si 4.2081004477 4.0694303542 1.3651084682 
Si 0.0672855043 2.6620453284 2.8446037130 
Si 4.1127456510 1.4352599672 4.3882337336 
Si 0.1009534049 -0.0332552721 0.0146332516 
Si 1.3507576703 4.1007276977 4.2251800681 
Si 2.7946713125 2.7690275183 -0.0797235700 
Si 1.4518613540 1.3657160939 1.3918150987 
Si 2.8691905278 -0.0585845333 2.8219470019 
Si 4.2206332384 4.1365001167 7.1984393430 
Si -0.0483140091 2.7207122097 8.5613407899 
Si 4.1940047560 1.2787709698 10.0683837469 
Si -0.0233329521 -0.0432759274 5.6804601418 
Si 1.4340149146 4.0764910685 10.0950051436 
Si 2.8014154799 2.8060888603 5.7131916105 
Si 1.4444230284 1.4652992089 7.2177662935 
Si 2.7464505496 -0.0011613673 8.6297466947 
Si 4.2663779582 9.6871995708 1.3760266667 
Si 0.0692500674 8.1530516992 2.7696938767 
Si 4.2675380811 6.8661288033 4.2496192458 
Si 0.0473983713 5.4579508604 0.0910149877 
Si 1.5013310060 9.6269651643 4.2314780291 
Si 2.7672360897 8.1566764524 -0.0270268135 
Si 1.4430349988 6.7799797926 1.3699155229 
Si 2.7756232766 5.4852926344 2.8473864823 
Si 4.2967367565 9.5595595576 7.1059133196 
Si 0.0772184351 8.2442908410 8.6115782211 
Si 4.2190590973 6.9199639568 10.1069598714 
Si 0.1014651311 5.4020214843 5.6584482456 
Si 1.4816126001 9.5435599901 10.0536153041 
Si 2.7598819230 8.1359507877 5.7234141771 
Si 1.3000401567 6.9103771094 7.2483547348 
Si 2.8065883308 5.4791838721 8.6148682124 
Si 9.8877145757 4.1358409043 1.3668742779 
Si 5.6919168641 2.7328961662 2.9070596477 
Si 9.8739119448 1.4266620648 4.3529867780 
Si 5.5259286557 -0.0763292578 -0.0742857022 
Si 6.9375312774 4.0836525480 4.2472930408 
Si 8.3802324757 2.7731393045 -0.0534985489 
Si 7.0788895172 1.3002136038 1.4034211336 
Si 8.3031524466 -0.0111845618 2.7840883017 
Si 9.8567977421 4.1869146649 7.1917405867 
Si 5.5923400491 2.6598587518 8.6676510727 
Si 9.8518519458 1.4503473227 9.9551465737 
Si 5.6174848293 0.0209365790 5.7200474834 
Si 6.9906721316 4.1021834102 9.9378871894 
Si 8.3910417805 2.6429211229 5.7859459187 
Si 7.1037670197 1.4009744770 7.2607170869 
Si 8.3708257541 -0.0164791843 8.5510255277 
Si 9.7881369138 9.5933962268 1.3529858013 
Si 5.5635131748 8.1915951561 2.9469338877 
Si 9.8681010967 6.8325885933 4.2463374143 
Si 5.5959986977 5.5856124838 -0.0574483443 
Si 7.0656284012 9.5188805334 4.2657932355 
Si 8.4093810665 8.2292863760 0.0011262301 
Si 7.0872110703 6.7912307805 1.4712293416 
Si 8.3453103089 5.4607632143 2.7933362492 
Si 9.7843213196 9.5558309395 7.0737441939 
Si 5.6625539720 8.1365160765 8.6769414732 
Si 9.8745197916 6.8009080978 10.1236730883 
Si 5.5420233283 5.4406416146 5.6521937318 
Si 7.0866621736 9.6637000982 10.0489013069 
Si 8.3976634321 8.2736485114 5.8206847577 
Si 6.9728616597 6.9499799917 7.1091634702 
Si 8.4003124638 5.4626404297 8.6342410809 

