&CONTROL
   calculation      = 'scf'
   tstress          = '.true.'
   tprnfor          = '.true.'
   outdir           = './'
   disk_io          = 'none'
   pseudo_dir       = './'
/
&SYSTEM
   ecutwfc          = 30
   input_dft        = 'PBE'
   ntyp             = 1
   nat              = 64
   ibrav            = 0
/
&ELECTRONS
   electron_maxstep = 1000
   mixing_beta      = 0.5
/
&IONS
/
&CELL
/

ATOMIC_SPECIES
Si 28.085 Si_ONCV_PBE-1.0.upf

K_POINTS gamma

CELL_PARAMETERS angstrom
10.83407269091617 0.00000000000000 0.00000000000000
0.00000000000000 10.84248354905083 0.00000000000000
0.00000000000000 0.00000000000000 11.18394596263924

ATOMIC_POSITIONS angstrom
Si 4.0576754539 4.0088507245 1.3374892940 
Si -0.0852638441 2.7256566639 2.9325786594 
Si 4.0444796366 1.3810712688 4.3471756568 
Si -0.0630309599 0.0008518141 0.0936456141 
Si 1.2843393785 4.0098678741 4.2710724872 
Si 2.7021110808 2.6830669272 -0.0704293273 
Si 1.4271854132 1.3700696687 1.3705332714 
Si 2.7314401825 0.0775560179 2.8464464649 
Si 4.1030448398 4.0132604374 7.1931218203 
Si 0.0800874864 2.6662388805 8.4368906693 
Si 4.1690514106 1.3119887216 9.8384418796 
Si -0.0087557142 -0.0689329201 5.7774744997 
Si 1.3387276027 4.0560076044 9.9052929665 
Si 2.8117018082 2.7329713054 5.6396066240 
Si 1.3093954940 1.3101549333 7.0552301707 
Si 2.7377335313 -0.0429850012 8.4997170017 
Si 4.1840964623 9.2751319819 1.3554561010 
Si -0.0240847800 7.9145964901 2.7526043753 
Si 4.1012274124 6.5530706558 4.1861523441 
Si 0.0318702287 5.3092572758 -0.0855089074 
Si 1.3456233930 9.3758080010 4.3389478900 
Si 2.7103549559 8.0108920137 0.0945546975 
Si 1.3392673646 6.6206639399 1.4655494034 
Si 2.7240062325 5.2609431217 2.8225440082 
Si 4.0256126843 9.2892904634 7.1058806164 
Si -0.0195827289 7.8816331287 8.4625785694 
Si 4.0783171950 6.6608576466 10.0293348013 
Si 0.0741730766 5.3588756234 5.6221727282 
Si 1.3457386434 9.3497923980 9.9887267107 
Si 2.8046667175 8.0004893945 5.7012174595 
Si 1.2763492275 6.6914283017 7.0253943661 
Si 2.6508320282 5.4137905520 8.5034934415 
Si 9.6328938622 4.0455329639 1.3410607021 
Si 5.3973051595 2.6644340189 2.8951309781 
Si 9.5988222044 1.3497543900 4.3201966445 
Si 5.5598106524 0.0389103258 0.0704486374 
Si 6.8172193349 4.0686853524 4.2160913972 
Si 8.2758957834 2.5852301289 -0.0611187890 
Si 6.8380501294 1.2526092949 1.5086313232 
Si 8.1823465904 0.0567280646 2.7398558294 
Si 9.6534339083 3.9842515425 7.1759379869 
Si 5.4590358332 2.6023555712 8.4819655986 
Si 9.5181450072 1.2616848395 9.9653497321 
Si 5.4100829404 -0.0858302888 5.6465325885 
Si 6.7959744856 3.9673399112 9.9546839375 
Si 8.1498093032 2.6494156689 5.6658634436 
Si 6.8110701986 1.4035396322 7.0887358854 
Si 8.1663938154 0.0639102099 8.4691225641 
Si 9.5745417064 9.2198997000 1.4603225489 
Si 5.5158476245 7.9246326235 2.8003818668 
Si 9.5705023108 6.5645394205 4.2596359693 
Si 5.3895336898 5.2229422673 0.0940456619 
Si 6.8493160121 9.3735052168 4.2680396234 
Si 8.2091886430 7.9738065069 0.0138968034 
Si 6.8213798162 6.7051375777 1.4329616871 
Si 8.2765296201 5.2432785523 2.8114275749 
Si 9.6322541144 9.2914930253 7.1397231496 
Si 5.4372229787 8.0129419798 8.5727745403 
Si 9.5155108074 6.5616214673 9.9431678449 
Si 5.5507255855 5.3599868422 5.7581480593 
Si 6.9281840712 9.3340481111 9.9949739962 
Si 8.1370013978 8.0250843158 5.5771174499 
Si 6.8993125856 6.6743550899 7.1166357632 
Si 8.2386327861 5.3643236874 8.4859844159 

