&CONTROL
   calculation      = 'scf'
   tstress          = '.true.'
   tprnfor          = '.true.'
   outdir           = './'
   disk_io          = 'none'
   pseudo_dir       = './'
/
&SYSTEM
   ecutwfc          = 30
   input_dft        = 'PBE'
   ntyp             = 1
   nat              = 64
   ibrav            = 0
/
&ELECTRONS
   electron_maxstep = 1000
   mixing_beta      = 0.5
/
&IONS
/
&CELL
/

ATOMIC_SPECIES
Si 28.085 Si_ONCV_PBE-1.0.upf

K_POINTS gamma

CELL_PARAMETERS angstrom
11.21657441196164 0.00000000000000 0.00000000000000
0.00000000000000 11.16850910759315 0.00000000000000
0.00000000000000 0.00000000000000 10.64433518321522

ATOMIC_POSITIONS angstrom
Si 4.2837029999 4.2659132363 1.2810709991 
Si 0.0572962898 2.8243581724 2.7321395693 
Si 4.1430783647 1.3676095120 3.9720738153 
Si -0.0824737911 0.0655373254 0.0247383142 
Si 1.3166299211 4.2272710732 4.0836538479 
Si 2.8198823060 2.7845206498 0.0126389856 
Si 1.4253105093 1.3054573772 1.2683474282 
Si 2.7387654939 -0.0916679274 2.6437515953 
Si 4.1364390290 4.2158152893 6.6969548857 
Si 0.0254100241 2.8353435256 8.0747744257 
Si 4.1523943060 1.4365308124 9.2167465671 
Si 0.0559933397 0.0392449049 5.3076019520 
Si 1.4584710177 4.2898537187 9.2401856162 
Si 2.7444749726 2.7267901911 5.3549674099 
Si 1.4226309230 1.4717348613 6.7097906584 
Si 2.8042314291 0.0511070306 8.0105212818 
Si 4.2195493696 9.7121391453 1.4131360206 
Si 0.0247628348 8.2889606939 2.6663477967 
Si 4.2844191204 7.0698832170 3.9113157624 
Si -0.0729275833 5.6132818406 -0.0822557364 
Si 1.4752258518 9.8707397144 3.9855833811 
Si 2.7161834670 8.3829837012 0.0095264826 
Si 1.3018807008 7.0438376791 1.2835984483 
Si 2.8147913742 5.5401384472 2.5778006328 
Si 4.2626294315 9.8288907104 6.7466716846 
Si 0.0505931231 8.4768035658 8.0287024362 
Si 4.2509640394 7.0318333578 9.4050161352 
Si 0.0869425859 5.6488445201 5.3885802765 
Si 1.4225485241 9.7343624469 9.3583062157 
Si 2.8883144161 8.2903393236 5.3959755565 
Si 1.3646145014 6.8914102284 6.6662573975 
Si 2.8655975984 5.5648733554 7.9156933636 
Si 9.7936225558 4.2391580170 1.3203102059 
Si 5.6693550683 2.8760338445 2.7120725561 
Si 9.8024942420 1.4622126306 4.0224227124 
Si 5.5193791752 -0.0037079185 0.0733006444 
Si 7.0188254530 4.1725755527 3.9290652064 
Si 8.3344518009 2.7811306905 0.0918965269 
Si 7.1026242909 1.3818780380 1.2903316906 
Si 8.3167633735 -0.0114288830 2.7218936168 
Si 9.8945603267 4.2770765902 6.5820404889 
Si 5.6958209327 2.7600463189 8.0458624956 
Si 9.8372621091 1.3848712022 9.2579458058 
Si 5.7016372206 -0.0043653445 5.2817277917 
Si 7.0018872756 4.1093656228 9.3860210055 
Si 8.4847249424 2.6985961413 5.3201136712 
Si 7.0101580573 1.3091627536 6.5873858177 
Si 8.4033521107 0.0918396408 7.9385731754 
Si 9.7329761025 9.7368070062 1.3779292504 
Si 5.5618644805 8.3297848232 2.7481533775 
Si 9.7815547021 7.0587732676 4.0274641078 
Si 5.5193825858 5.5587152077 0.0518485651 
Si 7.1003282301 9.7337006445 4.0147313557 
Si 8.4208648987 8.3044454528 -0.0390663377 
Si 7.0532465354 7.0629147939 1.3144101864 
Si 8.4879836291 5.5750071395 2.6069719445 
Si 9.7476725208 9.7763629631 6.6601200913 
Si 5.5408959189 8.3976335966 7.9079201943 
Si 9.8311446258 7.0588760380 9.2666546670 
Si 5.6700363146 5.6076940420 5.3093355554 
Si 7.0005212350 9.8689223805 9.2361448213 
Si 8.3551230444 8.4292565487 5.3564122639 
Si 7.0769519161 6.9609833955 6.5923653996 
Si 8.4918921064 5.5801335035 7.8996842757 

