&CONTROL
   calculation      = 'scf'
   tstress          = .true.
   tprnfor          = .true.
   outdir           = './'
   disk_io          = 'none'
   pseudo_dir       = '/home/ppiaggi/pseudos'
/
&SYSTEM
   ecutwfc          = 30
   occupations      = 'smearing'
   degauss          = 0.01
   smearing         = 'fermi-dirac'
   input_dft        = 'PBE'
   ntyp             = 1
   nat              = 64
   ibrav            = 0
/
&ELECTRONS
   electron_maxstep = 100
   mixing_beta      = 0.5
/
&IONS
/
&CELL
/

ATOMIC_SPECIES
Si 28.085 Si_ONCV_PBE_sr.upf

K_POINTS gamma

CELL_PARAMETERS angstrom
10.72656874530943 0.00000000000000 0.00000000000000
0.00000000000000 10.72656874530943 0.00000000000000
0.00000000000000 0.00000000000000 10.72656874530943

ATOMIC_POSITIONS angstrom
Si 4.3643404785 1.7204987205 4.4867949873 
Si 4.2686058525 4.2718560028 10.4296036896 
Si 0.8506812609 2.8269013803 8.3945805204 
Si 7.3708797056 1.6433532381 9.7046378144 
Si 0.1874682420 2.0537946645 0.1307332746 
Si 7.1150295879 7.7861480880 4.2567959003 
Si 4.6021377811 5.0895959711 2.5489545309 
Si 0.1351965998 8.6478669882 5.1087750760 
Si 8.0289976044 4.7340316703 10.2229348896 
Si 0.0554024058 0.6004089589 6.6872862060 
Si 9.3997243712 10.3865901489 10.3546357006 
Si 2.1734173592 10.0035765587 9.6171733728 
Si 0.9960005236 4.9307247614 6.8521964739 
Si 4.1346739151 6.5369211654 10.4290566346 
Si 9.8227695160 7.9962279369 0.6789349508 
Si 8.4709536898 1.1640257871 1.7634693549 
Si 4.3561775597 2.4052828692 7.0646361679 
Si 2.8153917720 2.6284169522 0.5815012362 
Si 2.8098568625 1.7155644988 9.1061274581 
Si 5.0525356761 9.7104301615 2.0424674079 
Si 1.4601327173 6.9123403449 3.7467261033 
Si 3.8861285907 7.0195953058 6.7824201442 
Si 2.4261674985 4.6174231415 5.0679068491 
Si 7.2205682978 7.7215955973 8.4059614098 
Si 9.6274279725 4.0530769067 5.8165140819 
Si 9.5882759966 4.4121487954 1.1993805577 
Si 6.4381294672 6.4534899137 0.5926879748 
Si 6.5914872206 0.8641999555 3.9113896601 
Si 7.3337765043 3.6121183921 6.6397782331 
Si 3.7412126470 7.6905207276 1.5962743278 
Si 8.8344341983 0.2723003835 8.0350473892 
Si 4.0098059284 8.3758197516 9.0135786230 
Si 7.5511182402 10.1732065169 5.8010249166 
Si 0.5915048342 9.0201969159 7.2745551183 
Si 1.1549832897 4.8069616112 10.7038713258 
Si 8.1067330481 2.9554271270 4.3353251101 
Si 7.3092341150 5.2729023044 8.0855695280 
Si 2.9005607279 0.1918607719 1.0154778272 
Si 9.3604758562 8.8499019105 3.0801771215 
Si 6.4714676429 2.4791460216 1.9492535255 
Si 2.2346017073 4.7209345299 2.2574171190 
Si 4.4850036504 6.8284371241 4.0332113014 
Si 6.1883505874 8.8563378517 0.0188809063 
Si 10.5133352852 1.6796733998 2.5817349250 
Si 1.5895594958 6.8867038456 7.7541292803 
Si 9.6972901148 5.9451578208 7.8505718599 
Si 2.5073783505 8.1090821666 5.1625795449 
Si 4.8754829324 4.1753490638 5.1046346205 
Si 2.1711433266 9.2509790424 2.8330155245 
Si 9.5583274167 8.2565188541 8.7249588377 
Si 1.6038794651 7.2683766147 10.2609820289 
Si 6.3236447990 0.0539103401 7.9480763698 
Si 0.6878669646 2.5340446004 4.6441966571 
Si 7.5735153158 9.6553277779 1.8098403116 
Si 2.0347550050 1.6487487021 3.1794515152 
Si 9.3606367547 6.5021456295 4.7862378804 
Si 5.4682331213 8.8213156048 5.6236181961 
Si 7.1000767511 5.2105809400 4.7105404848 
Si 9.2915361989 0.4998859926 4.4780742869 
Si 4.0030481901 10.0224016869 4.1988187962 
Si 5.0530505514 1.8648676092 9.7960925395 
Si 0.1664656204 6.4978013691 1.7889127759 
Si 4.8735199703 4.9609415056 8.3142814267 
Si 7.4588161162 4.5902634695 2.0676533913 

