&CONTROL
   calculation      = 'scf'
   tstress          = .true.
   tprnfor          = .true.
   outdir           = './'
   disk_io          = 'none'
   pseudo_dir       = '/home/ppiaggi/pseudos'
/
&SYSTEM
   ecutwfc          = 30
   occupations      = 'smearing'
   degauss          = 0.01
   smearing         = 'fermi-dirac'
   input_dft        = 'PBE'
   ntyp             = 1
   nat              = 64
   ibrav            = 0
/
&ELECTRONS
   electron_maxstep = 100
   mixing_beta      = 0.5
/
&IONS
/
&CELL
/

ATOMIC_SPECIES
Si 28.085 Si_ONCV_PBE_sr.upf

K_POINTS gamma

CELL_PARAMETERS angstrom
10.87312224084923 0.00000000000000 0.00000000000000
0.00000000000000 10.87312224084923 0.00000000000000
0.00000000000000 0.00000000000000 10.87312224084923

ATOMIC_POSITIONS angstrom
Si 4.1567511402 2.5789197525 3.3754738147 
Si 5.0087255065 8.7440887942 7.7776204507 
Si 1.9082655726 2.1887377608 10.4947593331 
Si 4.5501624491 1.4745258533 9.6029241007 
Si 1.8984253970 10.8580194741 0.8819798344 
Si 8.0319210337 8.0078370679 6.4051714690 
Si 2.6285990480 4.4350921964 2.3410049647 
Si 2.1957944172 8.8100234075 4.1843688707 
Si 6.1364205066 5.2241546774 0.7316469590 
Si 10.7389914049 10.5919541728 5.0757800514 
Si 10.6400242462 1.2453313096 0.1275797798 
Si 2.7363299431 8.6256696199 8.2545047191 
Si 0.5687654132 4.0627529984 6.7821861096 
Si 4.7753230645 7.6150020345 10.0415349787 
Si 10.4489726154 9.4618888321 10.7760143861 
Si 7.9625940063 1.2345125530 0.1130163199 
Si 3.7509879644 2.3951531135 7.4835242404 
Si 3.6319598952 0.4406126199 3.0063530609 
Si 3.4452901326 0.3340592839 7.6156435487 
Si 5.5817934142 0.4188631135 0.8195235330 
Si 0.3562404532 6.7184804864 0.2234252651 
Si 3.0048308237 6.6628753392 6.1655169817 
Si 2.8975457266 4.0342001794 5.6533059392 
Si 7.4789466559 7.0638217219 10.6911714133 
Si 9.5262142233 6.1994411231 6.6439887259 
Si 9.6531796717 3.0263052402 2.0381776372 
Si 4.0496943786 5.3914920287 10.2352287783 
Si 6.8529810085 0.7415197540 4.5627752709 
Si 8.6781976735 3.8976555103 7.1422386795 
Si 2.3812355170 6.9493059984 2.5111258353 
Si 9.8412629402 2.9519983228 9.1706957454 
Si 4.5783455820 8.3698467998 5.2764217761 
Si 7.2221126355 1.0682157595 8.9709238704 
Si 9.5465795812 9.5554194296 7.3958542557 
Si 3.4235656344 1.9304141226 1.1900632293 
Si 6.8196113963 3.3706461484 4.9225125202 
Si 8.1390973996 3.6001995052 10.6677942005 
Si 3.4540429960 9.6733384403 10.6949878792 
Si 8.8241149739 8.4235382775 4.1704186548 
Si 6.4488596742 2.9132791345 1.6723405663 
Si 9.1081100537 5.4890456815 1.2822455596 
Si 5.2790965641 5.1513373778 2.8848785392 
Si 6.3619399350 8.9374890195 0.8174565524 
Si 1.0347809086 1.1205622319 3.0551951260 
Si 1.0268391801 6.5206875197 8.0630507827 
Si 7.9846664444 6.1320386383 8.6830035935 
Si 4.1248493995 9.0601487115 2.5058523710 
Si 5.2438350287 5.2275905841 5.2128792497 
Si 10.3016744284 8.4791325515 1.9659692324 
Si 9.9233006475 0.8569683913 8.6161665111 
Si 0.9679579612 4.6804876923 9.5410342889 
Si 8.3083266742 9.7771332652 10.7904104000 
Si 0.8624951994 1.7876826470 5.8417371476 
Si 6.3693988968 10.0552568590 2.7545098035 
Si 2.7438541437 0.1440329884 5.1431716630 
Si 10.0239422670 6.4302666351 4.0304598254 
Si 7.4776636275 10.2294007848 7.4595272596 
Si 6.5984412168 6.9195571360 4.6423012870 
Si 9.1962802020 1.3523663250 4.1514233103 
Si 5.6366265697 10.6648802037 6.2293095899 
Si 5.2091280225 3.6885110040 8.7265504481 
Si 0.2740907528 8.7999983888 8.8075334625 
Si 6.3830881577 5.1328965625 7.5849378515 
Si 9.0995637797 4.1299706401 4.3284377404 

