&CONTROL
   calculation      = 'scf'
   tstress          = .true.
   tprnfor          = .true.
   outdir           = './'
   disk_io          = 'none'
   pseudo_dir       = '/home/ppiaggi/pseudos'
/
&SYSTEM
   ecutwfc          = 30
   occupations      = 'smearing'
   degauss          = 0.01
   smearing         = 'fermi-dirac'
   input_dft        = 'PBE'
   ntyp             = 1
   nat              = 64
   ibrav            = 0
/
&ELECTRONS
   electron_maxstep = 100
   mixing_beta      = 0.5
/
&IONS
/
&CELL
/

ATOMIC_SPECIES
Si 28.085 Si_ONCV_PBE_sr.upf

K_POINTS gamma

CELL_PARAMETERS angstrom
10.61635627238158 0.00000000000000 0.00000000000000
0.00000000000000 10.61635627238158 0.00000000000000
0.00000000000000 0.00000000000000 10.61635627238158

ATOMIC_POSITIONS angstrom
Si 4.2682211085 1.1033897565 5.3350905993 
Si 3.6880797036 3.2194418887 10.2322989679 
Si 1.4694098717 2.8113810026 8.5725802937 
Si 8.1055880140 2.4978481528 8.9712457044 
Si 10.3009761766 2.3940308048 10.1917869523 
Si 5.9453612233 8.3302301127 3.2225206320 
Si 5.1874276999 3.3818084415 1.8490189229 
Si 10.1628042997 8.1373840010 5.3569815260 
Si 8.0173236279 5.1395585495 8.9474438337 
Si 10.5038016632 0.9504250487 7.0032917422 
Si 9.2706694167 0.0382516871 10.0429562538 
Si 2.6439398315 0.5778450870 10.2954769040 
Si 0.3867156401 4.3684288953 7.1067799831 
Si 4.6630964800 6.0006299741 0.9167796924 
Si 0.6765251802 8.1748066569 1.0746406637 
Si 7.8362510553 0.4302235914 1.5244662953 
Si 4.1237537323 3.6398177480 7.2656856038 
Si 1.5026709159 2.2812320195 1.3123514970 
Si 2.8925218136 1.1360456684 7.5653110269 
Si 4.8094323349 10.3427833876 2.0020643149 
Si 0.9979958796 6.1835604090 4.4355879651 
Si 4.0255205877 7.3401487267 8.4302361888 
Si 2.4433862452 4.3668152092 6.0661222759 
Si 7.3012503973 8.0682927544 6.4104531752 
Si 9.5712927773 3.8789511730 5.2087453433 
Si 9.6630180955 4.6236142510 0.6922809145 
Si 7.2587318905 6.3254161615 0.2222725280 
Si 5.9722949192 1.4049155073 3.6314626756 
Si 7.5061673061 3.3105939236 6.1200321331 
Si 3.6812003047 7.8910526864 2.8724887493 
Si 8.3349119258 10.3166777675 7.5727530927 
Si 4.6849237085 9.4341188379 10.0790518651 
Si 7.1901608453 9.7592978305 4.6540725772 
Si 0.7906701196 9.6885822814 9.2823155596 
Si 1.9507448487 5.3276379172 10.3096815887 
Si 8.1755922672 2.6352556521 3.4420668797 
Si 6.8048720435 5.5603484467 7.0662573513 
Si 2.6372833761 0.4692100365 2.7001534380 
Si 9.0099210903 7.6937052397 2.2678978760 
Si 6.3496108374 1.8402816617 0.2641466220 
Si 2.7296350593 4.2791878045 2.2691824551 
Si 3.6391383012 5.9635682743 4.3282566032 
Si 6.7869197850 8.3516963851 8.8562068678 
Si 10.3929562873 1.4671379714 2.5730438043 
Si 1.4648342221 7.4713244248 8.4450141567 
Si 9.8321791163 6.4055696514 7.8487252740 
Si 1.3570994387 9.6241516152 6.4109415276 
Si 5.4154139509 3.7967593428 4.7912571329 
Si 1.4026011416 9.1685294530 3.0183044027 
Si 9.3547828075 8.1233067126 9.8136323419 
Si 3.1485458615 7.6582466097 0.3638278376 
Si 6.7398680940 1.1848172091 6.7212470051 
Si 0.1091817928 1.8937562482 4.8769205117 
Si 7.3499476236 8.7684839160 1.0911490977 
Si 2.8553857994 2.7083598814 4.3735672118 
Si 8.5752025337 6.2602848158 4.4591456597 
Si 4.7375702193 7.7719477854 6.0427769085 
Si 6.3376886693 5.8498352496 3.3697801098 
Si 9.5249417658 9.7171402798 3.4377035573 
Si 3.2105666148 9.6647591779 5.0119711798 
Si 5.1187080258 1.1626077917 8.5330980647 
Si 0.6940570309 6.0653472819 1.8837874897 
Si 4.9930209839 5.1497502515 9.0944272862 
Si 7.7376888037 4.3984519509 1.7825817653 

