&CONTROL
   calculation      = 'scf'
   tstress          = .true.
   tprnfor          = .true.
   outdir           = './'
   disk_io          = 'none'
   pseudo_dir       = '/home/ppiaggi/pseudos'
/
&SYSTEM
   ecutwfc          = 30
   occupations      = 'smearing'
   degauss          = 0.01
   smearing         = 'fermi-dirac'
   input_dft        = 'PBE'
   ntyp             = 1
   nat              = 64
   ibrav            = 0
/
&ELECTRONS
   electron_maxstep = 100
   mixing_beta      = 0.5
/
&IONS
/
&CELL
/

ATOMIC_SPECIES
Si 28.085 Si_ONCV_PBE_sr.upf

K_POINTS gamma

CELL_PARAMETERS angstrom
10.88384861273691 0.00000000000000 0.00000000000000
0.00000000000000 10.88384861273691 0.00000000000000
0.00000000000000 0.00000000000000 10.88384861273691

ATOMIC_POSITIONS angstrom
Si 4.1562261536 2.7152807842 3.3194323369 
Si 4.1606449961 4.9186397489 9.7207570146 
Si 0.1295003843 2.7165868460 9.1298293380 
Si 6.7986069198 0.9137741896 9.5688402556 
Si 0.8477669129 1.4011104835 0.7664362658 
Si 7.8180752517 7.9327148291 5.0277394474 
Si 4.2329899379 4.8641552028 2.1859556908 
Si 0.6409063094 8.9912126421 5.2145280573 
Si 8.1041136770 5.1068541430 0.5578756051 
Si 0.3733780454 0.9890871568 7.0002737507 
Si 9.9593962793 0.4472184279 10.2640787373 
Si 2.8693634290 9.9328396887 8.6036170253 
Si 1.0148024260 4.3592752333 7.2384885453 
Si 3.5456204787 7.6293928521 10.3793713457 
Si 10.0644471861 9.3036988196 0.4833669543 
Si 8.0671085918 1.8314905092 0.7723113673 
Si 4.9040118564 1.9223379935 7.8075396862 
Si 3.6011716420 2.5888322310 0.9383020308 
Si 2.9044094216 1.3727471740 8.9440746937 
Si 4.4129108393 10.1946724347 1.7812506640 
Si 0.8956656423 6.8928283972 3.4451081368 
Si 3.3253531505 6.8521772227 6.5045797495 
Si 2.2021617414 4.1040489833 5.1764890064 
Si 7.6106944002 7.7452514206 9.2960474740 
Si 9.7370283683 4.1829786535 5.9640660597 
Si 9.7517106800 3.1667863601 1.2657045229 
Si 5.8028653779 6.3799161475 0.5250978066 
Si 6.5492144127 0.3900172731 4.6444429508 
Si 7.3017890089 3.5347475140 6.8617876610 
Si 3.3216417581 7.2676899112 2.5907586722 
Si 9.3758152005 1.6861040594 8.2240210372 
Si 4.4075886373 8.3623329854 7.9951663524 
Si 7.5445967876 0.5242967554 7.0409575769 
Si 0.4973058992 9.6339147865 7.4961310097 
Si 1.7653384773 4.2015573831 10.3980371461 
Si 8.1795605156 2.6689047053 4.4427543522 
Si 7.4458476291 5.2432178822 8.7895675788 
Si 2.8137578465 0.0889909175 0.1369960909 
Si 9.4855026268 9.4598929310 3.0356033327 
Si 6.5609472015 2.4438158321 2.7291794589 
Si 1.5507307503 4.8593554255 2.0519428628 
Si 5.8317511121 7.4467074531 3.2626621825 
Si 6.0979047461 8.7113562427 0.0701969054 
Si 0.3868794596 2.1334955405 3.0538011276 
Si 1.3708642682 6.9586539136 7.7617295674 
Si 9.6375826435 6.6158888693 8.0485951653 
Si 4.0112097547 8.3855917699 4.6534003582 
Si 4.6651222632 4.4490887521 5.0187820400 
Si 1.1974519082 9.0657343535 2.2805798706 
Si 9.7657943801 8.7478062517 9.0063194239 
Si 1.1679240269 6.3884599687 10.0192683305 
Si 6.5038831832 9.8075121719 8.7808931515 
Si 0.7872864546 2.4571376628 5.1933589718 
Si 6.9041693675 9.5021657990 2.3664860877 
Si 2.5919994310 0.3276582625 2.8474324741 
Si 10.6195778846 6.5227013575 5.6595468594 
Si 6.1107912229 9.5368308569 6.1208043636 
Si 7.4126736585 5.4047450795 5.2167701301 
Si 9.1540894366 0.7915877515 3.7524462539 
Si 4.0576184852 10.8579777046 4.7379460942 
Si 5.0409742073 2.2589645473 10.1446611504 
Si 10.2515078922 6.6061260571 0.7340589929 
Si 5.2772407930 4.1933074258 7.7304493865 
Si 7.6449023364 4.5199752581 2.8154013076 

