&CONTROL
   calculation      = 'scf'
   tstress          = .true.
   tprnfor          = .true.
   outdir           = './'
   disk_io          = 'none'
   pseudo_dir       = '/home/ppiaggi/pseudos'
/
&SYSTEM
   ecutwfc          = 30
   occupations      = 'smearing'
   degauss          = 0.01
   smearing         = 'fermi-dirac'
   input_dft        = 'PBE'
   ntyp             = 1
   nat              = 64
   ibrav            = 0
/
&ELECTRONS
   electron_maxstep = 100
   mixing_beta      = 0.5
/
&IONS
/
&CELL
/

ATOMIC_SPECIES
Si 28.085 Si_ONCV_PBE_sr.upf

K_POINTS gamma

CELL_PARAMETERS angstrom
10.87381506901160 0.00000000000000 0.00000000000000
0.00000000000000 10.87381506901160 0.00000000000000
0.00000000000000 0.00000000000000 10.87381506901160

ATOMIC_POSITIONS angstrom
Si 4.2108413902 2.6425219166 3.4060485893 
Si 4.1841570480 4.8451327708 9.8140965476 
Si 0.1859444124 2.7454751977 9.1220434614 
Si 6.8604639081 0.8597784215 9.6100929031 
Si 0.8147847496 1.5160164231 0.6121707786 
Si 7.7338487344 7.8755562924 4.8976641714 
Si 4.2353183479 4.8827126757 2.1670969742 
Si 0.5872697421 8.8852117692 5.1400741308 
Si 8.0765696378 5.0055759122 0.4633843670 
Si 0.3816285010 1.0528962898 6.9678972010 
Si 9.9578048876 0.3789600668 10.2880100298 
Si 2.8301930909 9.9944713920 8.6312320706 
Si 1.0109722958 4.3275174259 7.3005924468 
Si 3.5409926343 7.4962341275 10.3806658080 
Si 9.9854787469 9.1673329012 0.5753433417 
Si 8.1333853215 1.7491401444 0.7763262404 
Si 4.7913508815 1.9449123109 7.7909471374 
Si 3.5380675781 2.6223292420 0.8965536641 
Si 2.9378873553 1.3301394283 8.9579140967 
Si 4.5329237926 10.0652164328 1.7935488051 
Si 0.9186079358 6.8913890381 3.5527254808 
Si 3.4564704698 6.8942271039 6.6261331933 
Si 2.3346733382 4.2310884339 5.0459395137 
Si 7.5583018639 7.7358495164 9.3260362321 
Si 9.7107735569 4.1560047408 5.9004365233 
Si 9.7896739590 3.3059551216 1.2588180753 
Si 5.8499385261 6.3504711075 0.5697400648 
Si 6.4365264800 0.3909962927 4.6493171091 
Si 7.2484959988 3.5095238135 6.8619753684 
Si 3.3752648189 7.2925784451 2.4929960856 
Si 9.3503283350 1.5281733484 8.1657022999 
Si 4.4569810681 8.4177682070 8.0593455147 
Si 7.5702304391 0.4282989153 6.8991203207 
Si 0.5284619754 9.6922337022 7.5668921779 
Si 1.5972220740 4.2593821007 10.3791543477 
Si 8.1910600366 2.7650371910 4.4710844063 
Si 7.3646609652 5.2806073167 8.7664262134 
Si 2.8021603957 0.1768647769 0.2152123731 
Si 9.5280825899 9.4442346019 2.9874175830 
Si 6.4724100697 2.5258241333 2.7072102425 
Si 1.7037093450 4.7734525819 2.0912303664 
Si 5.7376011426 7.4195411099 3.3962947772 
Si 6.0553883880 8.7816169330 0.1341720041 
Si 0.3343980853 2.1710224214 2.9598524618 
Si 1.4320270755 7.0154048990 7.7935024839 
Si 9.6966158496 6.5451015234 7.9499331875 
Si 3.8750579809 8.3341159477 4.6659431723 
Si 4.5556718137 4.3973925615 5.0974161542 
Si 1.3465915105 9.1321778570 2.2963648877 
Si 9.7480924902 8.6553066972 8.9908073873 
Si 1.1993056854 6.4923308989 10.0392062672 
Si 6.3557340340 9.9518677846 8.7347399163 
Si 0.7824481983 2.4421283787 5.2004346782 
Si 6.9835772423 9.5472966211 2.2427134842 
Si 2.5655026845 0.3595057243 2.8282140566 
Si 10.5361504897 6.4967130464 5.6498059597 
Si 6.0333254172 9.5328126994 6.0714925081 
Si 7.4539676084 5.3751442649 5.1082899693 
Si 9.1743138904 0.6248126760 3.7904814473 
Si 4.1280916575 10.8581459015 4.6529272157 
Si 5.0304117058 2.2903190465 10.1591553212 
Si 10.3305592682 6.6096593635 0.8281747654 
Si 5.1866466807 4.1776545066 7.6598632967 
Si 7.5990134276 4.5574551194 2.8484719740 

