&CONTROL
   calculation      = 'scf'
   tstress          = .true.
   tprnfor          = .true.
   outdir           = './'
   disk_io          = 'none'
   pseudo_dir       = '/home/ppiaggi/pseudos'
/
&SYSTEM
   ecutwfc          = 30
   occupations      = 'smearing'
   degauss          = 0.01
   smearing         = 'fermi-dirac'
   input_dft        = 'PBE'
   ntyp             = 1
   nat              = 64
   ibrav            = 0
/
&ELECTRONS
   electron_maxstep = 100
   mixing_beta      = 0.5
/
&IONS
/
&CELL
/

ATOMIC_SPECIES
Si 28.085 Si_ONCV_PBE_sr.upf

K_POINTS gamma

CELL_PARAMETERS angstrom
10.91766094831969 0.00000000000000 0.00000000000000
0.00000000000000 10.91766094831969 0.00000000000000
0.00000000000000 0.00000000000000 10.91766094831969

ATOMIC_POSITIONS angstrom
Si 4.1528817068 3.0269979215 3.5144714829 
Si 5.1926688179 9.1595354175 7.5825666348 
Si 1.8685249183 2.3464673617 9.7302015553 
Si 4.4398742602 1.3792717782 9.5885558221 
Si 1.8107486566 0.0950477369 0.4333416148 
Si 7.8516651419 8.3112877501 6.3834362622 
Si 2.5550820271 4.3516377244 2.3878998850 
Si 2.2183595281 7.9276083914 4.8285866606 
Si 5.8219191243 5.1649816297 0.4482747915 
Si 0.5114563871 9.5678341017 4.7963140548 
Si 10.3492875194 1.3950914690 0.3361100182 
Si 2.8962261787 8.9401886914 8.6328565357 
Si 0.3366438918 3.9432844520 6.8411046092 
Si 4.9248585948 7.7257190052 9.4797285778 
Si 0.1937633712 9.1841765783 0.0894288535 
Si 7.9583306893 1.3471847727 0.5812475348 
Si 2.9902163218 2.8291589875 7.4799624572 
Si 4.0852904679 10.7956997579 3.6279824038 
Si 3.3127240262 0.1709105233 7.7385145038 
Si 5.2801411174 1.1519551596 0.9983993502 
Si 0.1288775287 6.6964128486 10.8391302131 
Si 2.9129302000 6.2096489352 6.1854008103 
Si 2.2485905313 4.1014922768 5.6105641260 
Si 7.6251891832 7.1320493558 0.3556744666 
Si 9.5266090139 6.1099597731 6.4588991347 
Si 10.2626340444 3.1280736266 2.1717629512 
Si 4.1536350254 5.1369014058 9.8457868317 
Si 7.4723856005 1.1093216936 4.7080556837 
Si 8.6232599117 3.5614829309 6.9861457349 
Si 2.1347629982 6.9134668659 2.4549124879 
Si 9.7339353953 2.9885240844 9.1326452186 
Si 4.4226243559 8.9693060931 5.1000324648 
Si 6.6750142332 1.8078227234 8.8337742501 
Si 9.9111399502 10.2229483469 6.6196180215 
Si 3.2452201286 2.4676970688 1.1061337366 
Si 7.1779362847 3.2203387793 5.2865607021 
Si 7.8820053216 4.2795920798 10.8347959017 
Si 3.7402268760 9.5606066101 0.0936552984 
Si 8.4870511737 8.7207000357 3.8966223691 
Si 6.5865484265 2.7644063404 2.1139757718 
Si 9.7837854352 5.2144167985 1.3061998735 
Si 5.6665280560 5.2052568810 3.1813518120 
Si 5.9294799200 8.7372621273 0.8800115101 
Si 0.3948776035 0.9678266242 2.9093164542 
Si 1.6096671772 6.5644401631 7.9779715614 
Si 8.6034989454 6.0094190334 8.5883670673 
Si 3.7734820712 8.3642493234 2.1538252342 
Si 4.9643368568 5.3968072423 5.7655839938 
Si 10.8831502221 7.4164325882 2.5752032762 
Si 8.9771449737 1.1242024655 8.1483089075 
Si 1.0635559507 4.6813074144 9.3510966965 
Si 8.5673178170 9.5079507314 0.7507682398 
Si 1.3007628784 1.5515087974 6.5002333990 
Si 6.3497989488 10.5421698353 3.0333520002 
Si 2.4943143262 10.5078447093 5.4790063116 
Si 10.1028868294 6.1804114392 4.1726972615 
Si 7.4113012875 10.1082474009 7.8955432212 
Si 6.3430627520 7.6007227050 4.1828288508 
Si 9.3091728785 1.8274963485 3.8621007251 
Si 5.6017208207 0.8094135474 5.9929006124 
Si 5.2528469650 3.5070256381 8.6411976287 
Si 0.5907371657 8.6482176847 8.3402523046 
Si 6.8365956152 5.0304869645 7.1429233461 
Si 9.6551535539 4.0399057514 4.7610063393 

