&CONTROL
   calculation      = 'scf'
   tstress          = .true.
   tprnfor          = .true.
   outdir           = './'
   disk_io          = 'none'
   pseudo_dir       = '/home/ppiaggi/pseudos'
/
&SYSTEM
   ecutwfc          = 30
   occupations      = 'smearing'
   degauss          = 0.01
   smearing         = 'fermi-dirac'
   input_dft        = 'PBE'
   ntyp             = 1
   nat              = 64
   ibrav            = 0
/
&ELECTRONS
   electron_maxstep = 100
   mixing_beta      = 0.5
/
&IONS
/
&CELL
/

ATOMIC_SPECIES
Si 28.085 Si_ONCV_PBE_sr.upf

K_POINTS gamma

CELL_PARAMETERS angstrom
10.86216391898129 0.00000000000000 0.00000000000000
0.00000000000000 10.86216391898129 0.00000000000000
0.00000000000000 0.00000000000000 10.86216391898129

ATOMIC_POSITIONS angstrom
Si 4.2513531984 2.5588542652 3.4939562327 
Si 4.2035162285 4.7844573414 9.9228908806 
Si 0.2819426715 2.7940635627 9.1138334632 
Si 6.9576830632 0.9390688297 9.7143590577 
Si 0.7814457967 1.6452159337 0.4659118832 
Si 7.6361120972 7.8107431065 4.7716725745 
Si 4.2367544501 4.9147924463 2.1433221845 
Si 0.5206723964 8.7670914666 5.0574669693 
Si 8.0543597189 4.9289349837 0.3602121661 
Si 0.4042071886 1.1159787210 6.9401080819 
Si 9.9302662899 0.3091882373 10.3208153936 
Si 2.7496481745 10.0288947383 8.6729490919 
Si 1.0030024403 4.2995920684 7.3496007995 
Si 3.5471808359 7.3399117493 10.3756693214 
Si 9.9241834781 9.0020509343 0.6693927999 
Si 8.1640024015 1.6380686298 0.7685448046 
Si 4.6924765373 1.9464020148 7.7283753175 
Si 3.4368103883 2.6770997816 0.8998716250 
Si 2.9356735937 1.3170373752 8.9787081441 
Si 4.6638547354 9.9299512871 1.7830459316 
Si 0.9473284192 6.8861122651 3.6487855172 
Si 3.6021542475 6.9230327603 6.7156740510 
Si 2.4220018620 4.3594425916 4.9190504145 
Si 7.4966636368 7.7195117918 9.3414609703 
Si 9.6913204080 4.1314457709 5.8360125682 
Si 9.8464212466 3.4622930248 1.2564590870 
Si 5.8769846505 6.2969050455 0.6182863186 
Si 6.3685953273 0.4350970104 4.6170170846 
Si 7.2349832458 3.4771198786 6.8445970746 
Si 3.4191810963 7.3187196675 2.3910229705 
Si 9.2724862294 1.3546530488 8.1042496378 
Si 4.5167375873 8.4868367753 8.1314484962 
Si 7.5933477579 0.3459240757 6.7637717129 
Si 0.5916674997 9.7101554002 7.6281392689 
Si 1.4556494489 4.2941827107 10.3721717046 
Si 8.1979792502 2.8497104285 4.5098401132 
Si 7.3001453672 5.3268269102 8.7506678748 
Si 2.7981477363 0.2464831374 0.2976461019 
Si 9.5743892134 9.3874839588 2.9285588764 
Si 6.4002585352 2.5738983622 2.6713754213 
Si 1.8558441542 4.6926286076 2.1349691804 
Si 5.6523007899 7.3965144855 3.5253913351 
Si 6.0149341323 8.8478407932 0.1985277699 
Si 0.2607886073 2.1772990332 2.8315597526 
Si 1.4693249133 7.0566156521 7.8039542541 
Si 9.7413080863 6.4504308703 7.8430471820 
Si 3.7433080676 8.2807163528 4.6842538792 
Si 4.5016500416 4.3609632945 5.1933960886 
Si 1.4831307237 9.1850892585 2.3238730732 
Si 9.7286753897 8.5954910010 8.9897006540 
Si 1.2468677963 6.6159919728 10.0789584518 
Si 6.1772365856 9.9647645225 8.6343449614 
Si 0.7745179085 2.4531328238 5.2115141780 
Si 7.0516842297 9.5851427557 2.1384124864 
Si 2.5310254013 0.4069325055 2.8126595873 
Si 10.4485870278 6.4751422932 5.6334440733 
Si 5.9489573487 9.4820825444 6.0401017661 
Si 7.4788605502 5.3600216831 5.0008533710 
Si 9.1938333005 0.5185303776 3.8446520570 
Si 4.1802168869 10.8437525511 4.5746329210 
Si 5.0504065628 2.3277508657 10.1618150381 
Si 10.4001309145 6.6134067777 0.9264632885 
Si 5.0829496059 4.2143023573 7.5871237379 
Si 7.5617497230 4.6119770405 2.8708807860 

