&CONTROL
   calculation      = 'scf'
   tstress          = .true.
   tprnfor          = .true.
   outdir           = './'
   disk_io          = 'none'
   pseudo_dir       = '/home/ppiaggi/pseudos'
/
&SYSTEM
   ecutwfc          = 30
   occupations      = 'smearing'
   degauss          = 0.01
   smearing         = 'fermi-dirac'
   input_dft        = 'PBE'
   ntyp             = 1
   nat              = 64
   ibrav            = 0
/
&ELECTRONS
   electron_maxstep = 100
   mixing_beta      = 0.5
/
&IONS
/
&CELL
/

ATOMIC_SPECIES
Si 28.085 Si_ONCV_PBE_sr.upf

K_POINTS gamma

CELL_PARAMETERS angstrom
10.78578757031708 0.00000000000000 0.00000000000000
0.00000000000000 10.78578757031708 0.00000000000000
0.00000000000000 0.00000000000000 10.78578757031708

ATOMIC_POSITIONS angstrom
Si 3.7268671081 3.8091195241 4.9919213464 
Si 5.4722016812 7.3915757225 6.3971368943 
Si 10.1449607876 2.4670547625 7.8344078027 
Si 2.6669046204 0.8733974843 9.8713792859 
Si 0.9070610059 10.3712358251 10.0830935101 
Si 7.8302876319 8.3744414006 6.3636793812 
Si 2.5812654671 3.6174992221 2.4487297095 
Si 0.4182706848 7.8718776287 5.5450273188 
Si 5.6082320340 5.9327655962 3.5360880976 
Si 9.0201541451 7.5847599636 3.9331992243 
Si 10.0533247364 0.5456788791 0.7218830549 
Si 4.1279905478 9.4115919476 7.3244341948 
Si 8.4885981762 1.0067022687 8.1085285938 
Si 6.0584847361 8.1597071558 8.8221270853 
Si 1.7474054443 7.5213395327 9.9634683402 
Si 6.7646194626 2.3841444135 1.6123458123 
Si 3.3884953805 3.2281862198 7.2209445631 
Si 4.8999832932 0.3187620873 3.7321197867 
Si 4.4107291832 0.6681773828 8.4470728941 
Si 4.3332009422 3.6721400220 0.4427285367 
Si 1.0282878653 5.2201054683 9.5069706670 
Si 2.4656741817 5.5777729699 7.6582758917 
Si 1.0551994839 2.8389702895 5.9314820875 
Si 7.2629767773 7.9192703793 0.2315341875 
Si 9.3402655344 6.5279361401 7.9250947046 
Si 10.7416305560 3.2347547644 2.2381479929 
Si 4.8277077307 6.2845764152 9.2576464016 
Si 9.1683508663 1.4789471916 2.6755224647 
Si 5.8453360022 1.9153725141 6.5008638133 
Si 1.9183925346 5.9105900170 2.5843933455 
Si 9.1113264074 2.3603617519 10.3073192479 
Si 3.7198779178 8.6611707774 4.2363122124 
Si 6.3471124115 1.4638039459 9.5903124476 
Si 10.4306763004 9.9969689964 4.5687733285 
Si 2.5633394882 1.8708919262 0.9852126655 
Si 7.6271049656 3.2964494693 5.1752365920 
Si 8.2857175120 5.6778866501 0.5891693317 
Si 3.1976300836 8.5276642988 0.7185383821 
Si 7.3851797504 10.0743138790 3.9707121935 
Si 5.9195422206 5.3747628763 1.2357384677 
Si 10.0510381495 5.2540375560 2.1773808658 
Si 7.3948438161 5.8913158146 4.9828504991 
Si 4.7270116179 9.8476936964 1.8165747000 
Si 0.6306730423 9.7501793910 1.8181278534 
Si 1.9944754801 7.9631038200 7.6334254371 
Si 9.4247182510 4.6295296699 9.4812897068 
Si 3.4389836521 6.4565773696 1.2461575385 
Si 5.2229313446 5.3238863163 6.7984113350 
Si 0.1960457106 7.5169281456 2.5618941926 
Si 7.9243504853 1.1132011351 5.6971500667 
Si 3.2895249937 4.5828056381 9.5541477019 
Si 8.6230645899 9.2933905016 1.2176183446 
Si 0.9862955586 0.4181239981 7.0326678553 
Si 6.6810943236 0.0069579871 0.4837188438 
Si 2.4650809634 0.8728236804 4.4641835464 
Si 9.3860943457 4.9333221626 4.5245947426 
Si 9.2588220524 9.8768800376 7.1647937530 
Si 5.9250429723 8.1912771561 3.2866559742 
Si 0.3437818787 1.6015923821 4.1580613236 
Si 5.4811107417 2.7098859839 4.0027783399 
Si 6.1801699915 3.7019195815 9.2131765994 
Si 10.7577337368 8.9019850564 8.7096528925 
Si 7.6114008589 4.9367736146 7.3639641063 
Si 0.9224900751 5.3264964769 5.8755793505 

