&CONTROL
   calculation      = 'scf'
   tstress          = .true.
   tprnfor          = .true.
   outdir           = './'
   disk_io          = 'none'
   pseudo_dir       = '/home/ppiaggi/pseudos'
/
&SYSTEM
   ecutwfc          = 30
   occupations      = 'smearing'
   degauss          = 0.01
   smearing         = 'fermi-dirac'
   input_dft        = 'PBE'
   ntyp             = 1
   nat              = 64
   ibrav            = 0
/
&ELECTRONS
   electron_maxstep = 100
   mixing_beta      = 0.5
/
&IONS
/
&CELL
/

ATOMIC_SPECIES
Si 28.085 Si_ONCV_PBE_sr.upf

K_POINTS gamma

CELL_PARAMETERS angstrom
10.91122704498155 0.00000000000000 0.00000000000000
0.00000000000000 10.91122704498155 0.00000000000000
0.00000000000000 0.00000000000000 10.91122704498155

ATOMIC_POSITIONS angstrom
Si 4.1119504680 2.9308101404 3.4272164148 
Si 5.1496408937 9.2071225163 7.5906351408 
Si 1.8758908873 2.2982317525 9.8582718127 
Si 4.5269371662 1.4138440668 9.5964460085 
Si 1.7536524107 0.0480854503 0.4817994148 
Si 7.8555269998 8.3280049533 6.4232647817 
Si 2.5636146167 4.3414135728 2.3789311877 
Si 2.2462943118 8.1334795976 4.7228046029 
Si 5.8717568108 5.2172905014 0.4578023531 
Si 0.4834622858 9.7449259861 4.8477381526 
Si 10.4571345091 1.3279072426 0.2941688634 
Si 2.7778347372 8.8920062793 8.5581663766 
Si 0.2781435442 3.9595206262 6.8464567227 
Si 4.9002102434 7.7845276454 9.6165990449 
Si 0.1953327866 9.3029885571 0.0884625550 
Si 7.9487416125 1.2833785250 0.4972093407 
Si 3.1231096059 2.8613383578 7.4076102184 
Si 3.9747636104 10.8457378603 3.5493130455 
Si 3.4146139476 0.1381677769 7.6118902111 
Si 5.3091957668 1.0935013520 0.9628132212 
Si 0.1280159713 6.7429200893 0.0107024953 
Si 3.0071559961 6.2378393893 6.2272991440 
Si 2.3770108117 4.0575361788 5.6999486297 
Si 7.5862815612 7.0579926814 0.2231018594 
Si 9.5072685499 6.0797793544 6.5029494729 
Si 10.1159731730 3.1185159793 2.2091088500 
Si 4.0909354447 5.0880470170 9.8978140995 
Si 7.2711544130 0.9895642765 4.7113478145 
Si 8.7552995156 3.6303834624 7.0205235277 
Si 2.1752185788 6.9514336381 2.4431983150 
Si 9.7748991268 3.0255414136 9.1130350055 
Si 4.4502857962 8.8169806821 5.0896400562 
Si 6.6882111969 1.6704324820 8.8358789273 
Si 9.8399191288 10.1653355642 6.7774759453 
Si 3.3584320395 2.3421821750 1.1633768500 
Si 7.1905313563 3.2321236753 5.2043825198 
Si 7.9755832310 4.1379955670 10.7329048614 
Si 3.7699162339 9.5107819650 0.1086549809 
Si 8.5352746223 8.6965862029 3.9918287695 
Si 6.5495622348 2.6904576311 2.0466079456 
Si 9.7057328586 5.2642742450 1.2988724674 
Si 5.5781029573 5.2054954649 3.0817233217 
Si 5.9951627886 8.7933469643 0.8775605309 
Si 0.5430779570 1.0026839359 2.9262492475 
Si 1.5333438254 6.5425135821 7.9517203774 
Si 8.4923389438 6.0188292401 8.5875284886 
Si 3.8316410453 8.5175766120 2.1482569368 
Si 4.9920609527 5.3924156954 5.7921594095 
Si 10.8038605709 7.5932538353 2.4268860306 
Si 9.1998774616 1.1067257592 8.2419808393 
Si 0.9038358568 4.5532223122 9.3937699662 
Si 8.4760812155 9.5946674785 0.6335942232 
Si 1.2612069117 1.5211778072 6.3775685629 
Si 6.3904438108 10.5066714798 3.0261742648 
Si 2.5346889538 10.6093352151 5.4719258069 
Si 10.1199885046 6.1540411656 4.1694199009 
Si 7.3967317250 10.1261315254 7.8061427862 
Si 6.2963672112 7.5422874938 4.2758043646 
Si 9.2507565133 1.8381380417 3.9033168957 
Si 5.6067121946 0.6372647599 6.0502426628 
Si 5.2375635612 3.5477854737 8.6492096551 
Si 0.6084329336 8.6698755191 8.3976513155 
Si 6.7217632200 5.1026898837 7.1997840769 
Si 9.5196418813 4.0203070721 4.7059031122 

