&CONTROL
   calculation      = 'scf'
   tstress          = .true.
   tprnfor          = .true.
   outdir           = './'
   disk_io          = 'none'
   pseudo_dir       = '/home/ppiaggi/pseudos'
/
&SYSTEM
   ecutwfc          = 30
   occupations      = 'smearing'
   degauss          = 0.01
   smearing         = 'fermi-dirac'
   input_dft        = 'PBE'
   ntyp             = 1
   nat              = 64
   ibrav            = 0
/
&ELECTRONS
   electron_maxstep = 100
   mixing_beta      = 0.5
/
&IONS
/
&CELL
/

ATOMIC_SPECIES
Si 28.085 Si_ONCV_PBE_sr.upf

K_POINTS gamma

CELL_PARAMETERS angstrom
10.61052525116853 0.00000000000000 0.00000000000000
0.00000000000000 10.61052525116853 0.00000000000000
0.00000000000000 0.00000000000000 10.61052525116853

ATOMIC_POSITIONS angstrom
Si 4.5223225778 1.2885952391 5.5171972570 
Si 3.8618173809 3.4742679461 10.5242298493 
Si 1.3225701410 2.7536541237 8.6721944983 
Si 8.1226011219 2.5420696397 9.5888377747 
Si 10.2280900895 2.2227564928 10.4440991626 
Si 6.0880329049 8.4278447123 3.1104224248 
Si 5.1998576677 3.7176946165 2.1545626470 
Si 10.3624087287 8.1091788074 5.0578782294 
Si 8.0457490875 4.7489846182 9.2736839537 
Si 10.5842642012 0.5075449259 6.8710790579 
Si 9.2384888415 0.0840228396 10.1143240378 
Si 2.3033540426 0.2950914399 10.1331895517 
Si 0.5727593362 4.5896251395 7.1786039113 
Si 4.9256498637 6.1526403932 0.4964526828 
Si 10.5651015926 8.3043912510 0.9379248069 
Si 8.0602430649 0.6452483226 1.6820016839 
Si 4.2510857208 3.2296847286 7.2807302168 
Si 1.6754231582 2.0400750795 0.9057950754 
Si 3.0609349350 1.3113123737 7.7855790083 
Si 5.0711201649 10.1431316139 2.1767810869 
Si 1.3716756518 6.2782159595 4.2311803755 
Si 4.1524396676 7.3055906775 8.0767636528 
Si 2.5498365442 4.7032108123 5.6421255813 
Si 7.1617225656 8.2002065035 6.9141047378 
Si 9.2332684630 4.0181953021 5.1742756914 
Si 9.6394393697 4.6264012200 0.9279912332 
Si 7.2901311422 6.5118703361 0.2433534577 
Si 6.2763697281 1.0133560920 3.5751315992 
Si 7.2991182571 3.0322652958 6.0729977907 
Si 3.6400361821 7.9853539777 2.4867675821 
Si 8.3326576902 10.2866601889 7.6427825595 
Si 4.2839040754 9.1231099899 9.6374021488 
Si 7.2501931252 9.9113234687 4.9390615676 
Si 0.5836680172 9.2719013855 8.7249075877 
Si 1.9431054892 4.7145004112 10.5601040352 
Si 7.9770247154 2.6658838588 3.4821833980 
Si 6.8425367450 5.7425648133 7.2472858413 
Si 2.8052955501 0.4562154490 2.0833129699 
Si 8.9356007876 7.8988251443 2.6761124052 
Si 6.3089228196 1.9959883471 0.3856522729 
Si 2.5518843755 4.6613416797 2.2079548100 
Si 3.6615012747 6.4267739236 4.4329076815 
Si 6.7935585605 8.4777247915 9.3911849104 
Si 10.4389955000 1.4435831815 2.6666478166 
Si 1.7989615037 7.2092895503 8.1992621668 
Si 9.5741209762 6.1980428307 8.0461204558 
Si 1.7101089653 9.6811493444 6.2135766397 
Si 5.3748570607 3.5837897878 4.8832289837 
Si 1.5562987912 9.1061013179 3.0601497561 
Si 9.2163340647 8.1639927809 9.2129068651 
Si 2.6958798137 7.7366008237 0.3932260658 
Si 6.4061576730 0.8686020013 6.7423627761 
Si 0.1011715705 2.0193102816 4.8781889842 
Si 7.1181981910 8.7950219386 1.1155481828 
Si 3.1112182141 2.7300138734 3.7381729302 
Si 8.6671757198 6.4295220496 4.3627402780 
Si 4.9103388757 7.8355227507 5.9168002484 
Si 6.4468914795 5.7853040090 3.6460947921 
Si 9.1523950396 10.2822462104 3.6082576590 
Si 3.6168840160 9.6886615963 4.6749549836 
Si 5.1824351853 1.2551933056 8.9744989732 
Si 0.6173224812 6.0118599442 2.0868674959 
Si 4.7710863423 4.9289921791 8.8809141405 
Si 7.3209016654 4.1475482154 1.7650502650 

