&CONTROL
   calculation      = 'scf'
   tstress          = .true.
   tprnfor          = .true.
   outdir           = './'
   disk_io          = 'none'
   pseudo_dir       = '/home/ppiaggi/pseudos'
/
&SYSTEM
   ecutwfc          = 30
   occupations      = 'smearing'
   degauss          = 0.01
   smearing         = 'fermi-dirac'
   input_dft        = 'PBE'
   ntyp             = 1
   nat              = 64
   ibrav            = 0
/
&ELECTRONS
   electron_maxstep = 100
   mixing_beta      = 0.5
/
&IONS
/
&CELL
/

ATOMIC_SPECIES
Si 28.085 Si_ONCV_PBE_sr.upf

K_POINTS gamma

CELL_PARAMETERS angstrom
10.65651239926665 0.00000000000000 0.00000000000000
0.00000000000000 10.65651239926665 0.00000000000000
0.00000000000000 0.00000000000000 10.65651239926665

ATOMIC_POSITIONS angstrom
Si 1.2558593297 2.8041120467 7.8899858718 
Si 9.5283180881 0.2815461232 7.7685868826 
Si 3.6316328605 4.1354621103 9.5659249203 
Si 1.6107957882 7.4816602862 2.8516933746 
Si 7.5561493079 2.5920687630 8.2524351715 
Si 7.6007254992 5.8168786062 3.6709767043 
Si 5.2446025773 0.8741164143 8.6344498280 
Si 2.0865984103 8.7246572055 6.8994097617 
Si 7.5398128744 3.4004291675 4.1501894104 
Si 0.9429319088 9.8830627293 0.4450756343 
Si 1.2022783854 3.7849694175 10.1311889640 
Si 2.8898330324 3.7875163239 1.7149845100 
Si 8.3281070661 10.0494641704 9.5569841064 
Si 0.4702335287 4.8018564566 3.6534680545 
Si 1.0857174528 7.5918699374 9.0872450399 
Si 6.8634973149 0.5517643738 6.6332207385 
Si 3.1534218666 5.0368964941 7.3715891696 
Si 7.8022508052 9.3138664325 2.5154804084 
Si 9.8405539014 2.6264999545 6.5128874005 
Si 5.0916496548 1.9720835281 5.4606633662 
Si 6.2217301687 8.3022650235 0.7021171072 
Si 6.1436712154 5.6581818235 10.6092507668 
Si 2.8777272343 9.7939636292 1.9988207177 
Si 1.3409196117 6.6794913153 5.2293637646 
Si 9.6220208016 3.0264708344 2.3537145501 
Si 7.1572014532 2.5627953234 0.9607613197 
Si 7.4510974086 6.8791943577 8.5796220717 
Si 9.9868784731 8.5737183639 1.9076649106 
Si 8.0275827599 10.1932311792 4.8906145484 
Si 8.8034514582 0.5372779108 0.8401317306 
Si 2.7552945634 3.4966255050 5.5949780485 
Si 6.4425437622 9.0920085009 8.1011872910 
Si 0.7072279706 5.8205231334 7.5109230693 
Si 9.4969559721 4.5488921653 8.8395983482 
Si 0.9471263121 10.1224399674 3.8202637865 
Si 5.5759028913 2.8211411535 9.8238871160 
Si 8.5806877230 5.0785421446 0.2497033985 
Si 2.9904731355 10.3951188066 5.4069758567 
Si 10.4402491366 9.6163941630 6.1277823554 
Si 5.9242429686 0.3844230283 1.8442160358 
Si 4.3833539017 7.9183854773 8.3866432887 
Si 4.8294035412 1.9989272828 2.9069900174 
Si 3.9720977752 7.1632223827 5.3217237575 
Si 9.4315995815 8.0218602127 9.8010928360 
Si 6.6564839051 3.6051940533 6.2939919793 
Si 9.4726591238 6.0643228241 2.2727676820 
Si 1.2942334309 0.0250182942 8.6339170024 
Si 5.7543035654 5.8898863726 6.9596297133 
Si 3.4955172277 5.0656477646 3.7697945438 
Si 0.6463686283 1.6914442741 0.8830966573 
Si 3.7636350796 6.2116597645 0.6474907590 
Si 2.4335744541 1.5205031587 2.5648200608 
Si 3.0825773722 8.2279251930 10.2596532210 
Si 3.2836444481 1.5654842975 7.4541132017 
Si 6.9506888994 7.5487110622 5.3766047964 
Si 1.1092470322 2.3324761209 4.6319490230 
Si 5.2725865789 9.6548322033 4.2736664196 
Si 9.3278264638 5.0608310210 5.6451808784 
Si 9.4831238190 1.1019579777 4.1737935854 
Si 4.3658345953 7.7224548404 2.5290568052 
Si 0.9889307446 6.1518980430 0.5800233134 
Si 5.8717489885 4.4603045777 2.3939641975 
Si 4.6237115389 10.3179017178 10.5995213710 
Si 9.2468795956 7.4845482011 6.6816439309 

