&CONTROL
   calculation      = 'scf'
   tstress          = .true.
   tprnfor          = .true.
   outdir           = './'
   disk_io          = 'none'
   pseudo_dir       = '/home/ppiaggi/pseudos'
/
&SYSTEM
   ecutwfc          = 30
   occupations      = 'smearing'
   degauss          = 0.01
   smearing         = 'fermi-dirac'
   input_dft        = 'PBE'
   ntyp             = 1
   nat              = 64
   ibrav            = 0
/
&ELECTRONS
   electron_maxstep = 100
   mixing_beta      = 0.5
/
&IONS
/
&CELL
/

ATOMIC_SPECIES
Si 28.085 Si_ONCV_PBE_sr.upf

K_POINTS gamma

CELL_PARAMETERS angstrom
10.69562911739653 0.00000000000000 0.00000000000000
0.00000000000000 10.69562911739653 0.00000000000000
0.00000000000000 0.00000000000000 10.69562911739653

ATOMIC_POSITIONS angstrom
Si 5.0455346886 10.6690397834 0.8722713370 
Si 9.0705673162 8.7599341597 2.4410313466 
Si 6.5000119010 8.1638132709 7.8937379400 
Si 6.8718989254 4.0200377688 8.2729942529 
Si 4.7991394806 6.1661799250 9.0170249968 
Si 6.9622876871 4.2333834828 2.8027468277 
Si 0.3907145403 9.1871496736 9.9194152255 
Si 10.2495144269 8.7868229713 6.1610674143 
Si 4.0032563267 10.3928144658 5.5553418505 
Si 4.4408466008 7.7624490926 4.6212283859 
Si 10.3785358010 6.3411925042 3.8780532923 
Si 10.3893276907 4.2892574493 6.7141597872 
Si 7.7860115636 3.3914770368 5.9215281046 
Si 4.7391049144 10.0701487266 9.0598075133 
Si 0.8231313386 2.6293065059 1.3347503401 
Si 1.9895153634 3.8917436975 3.7748618625 
Si 3.7192980693 4.4853083310 6.9571003070 
Si 5.7875011761 2.2494298466 0.4416599610 
Si 5.7411784064 7.9348947209 1.4090528756 
Si 5.5326243342 5.9631554931 6.3904993545 
Si 6.9952088335 8.2718819075 3.3983543264 
Si 2.3472413748 5.0930125862 1.0370621035 
Si 1.9937080500 6.2060746216 4.8178996141 
Si 2.7120585884 1.0675489248 3.6524289960 
Si 3.9741856068 6.5977164730 2.1582282171 
Si 2.1543991819 4.1685037966 9.2851537232 
Si 7.0750624005 0.7819938099 2.1476823268 
Si 2.6170600106 6.7344600913 9.6943684932 
Si 9.1615978156 6.5784857318 6.3135122161 
Si 2.7859119075 0.1382238933 1.2432813199 
Si 0.3702238541 0.8346109574 3.5856882703 
Si 0.4120041901 1.2982247666 10.3764287620 
Si 7.3319714119 6.0736092550 4.6451438126 
Si 10.6466110492 5.4806542723 1.6260244078 
Si 1.6720370043 2.6399486569 6.1202528936 
Si 7.9041661784 2.5381904415 9.9644224328 
Si 7.5467610358 9.3101387128 6.1200603722 
Si 5.1092806381 1.1357474647 7.5449748658 
Si 9.1329228339 2.8935848058 1.7648964563 
Si 10.6051013125 3.3363089818 8.9661993673 
Si 2.4811720427 8.6792784206 3.3617217966 
Si 9.3390703895 7.4741804966 0.2060662688 
Si 5.9887501336 10.4663469160 4.3461475006 
Si 8.6013286755 10.6324286449 9.9126983704 
Si 6.8753429180 8.6807009392 10.0102318123 
Si 0.7174841925 0.6720545078 7.7094736416 
Si 3.7893223531 8.6542827353 7.0574146125 
Si 4.3822131620 4.9060529893 3.8354953840 
Si 2.6629442595 1.1752036405 9.4776108735 
Si 1.3223006278 8.3385156769 7.6416633530 
Si 0.1369147483 8.8815220715 4.0271182753 
Si 9.9753212789 3.2659317423 4.1608457261 
Si 9.5237197306 0.0807105008 1.5524170882 
Si 6.5620572455 2.3672528969 4.1320103100 
Si 1.5566311661 5.8450971389 6.8871401969 
Si 8.6484429218 4.8465532045 0.1424497364 
Si 2.5063709449 8.5562038163 0.9236328176 
Si 7.5133585861 0.9653008495 7.5348033225 
Si 4.6850064223 3.1845807872 9.1655231115 
Si 4.3496770582 2.4891830689 5.2430829584 
Si 9.7391510923 1.2060391393 5.7674254802 
Si 6.1970368150 5.2861328656 0.4987072380 
Si 3.5323277767 3.0017603987 1.6315326568 
Si 8.0295938211 6.2511460027 8.6303031348 

