&CONTROL
   calculation      = 'scf'
   tstress          = .true.
   tprnfor          = .true.
   outdir           = './'
   disk_io          = 'none'
   pseudo_dir       = '/home/ppiaggi/pseudos'
/
&SYSTEM
   ecutwfc          = 30
   occupations      = 'smearing'
   degauss          = 0.01
   smearing         = 'fermi-dirac'
   input_dft        = 'PBE'
   ntyp             = 1
   nat              = 64
   ibrav            = 0
/
&ELECTRONS
   electron_maxstep = 100
   mixing_beta      = 0.5
/
&IONS
/
&CELL
/

ATOMIC_SPECIES
Si 28.085 Si_ONCV_PBE_sr.upf

K_POINTS gamma

CELL_PARAMETERS angstrom
10.70535185472167 0.00000000000000 0.00000000000000
0.00000000000000 10.70535185472167 0.00000000000000
0.00000000000000 0.00000000000000 10.70535185472167

ATOMIC_POSITIONS angstrom
Si 4.0703139447 6.9778660978 8.6519904315 
Si 4.6627052950 5.4068021863 3.0151409392 
Si 10.2055725034 2.9183645584 8.0174199950 
Si 1.0731472913 6.8969443431 7.1243153112 
Si 8.2298677025 0.7184629264 8.5657802330 
Si 0.6720338154 5.8739837413 4.4704157650 
Si 5.3815482613 7.1428355699 4.9075581026 
Si 6.2357282858 8.5815813324 10.1412654548 
Si 2.7616810287 4.5780259618 4.3524427875 
Si 0.3442198835 2.7147166501 4.1973436498 
Si 3.7604582407 10.5321927885 5.7744132637 
Si 3.2369451243 6.5400279123 6.4831717886 
Si 1.1362125191 1.9992137535 6.6364296057 
Si 0.6641985683 1.7795078174 9.9650767740 
Si 8.0711608613 3.6091916189 9.3696772199 
Si 3.3838760785 3.4418348534 6.6088526193 
Si 7.4522202385 5.7438387788 8.4692928968 
Si 3.4289991365 0.9751098201 0.5951544015 
Si 6.7922888234 1.8587381265 1.8622923033 
Si 9.0482062090 1.5466985306 3.5515861206 
Si 2.3005372922 9.0263351752 2.9878744080 
Si 9.6934391760 0.4308508024 6.0332365555 
Si 4.5481794408 10.5097436656 8.8251709085 
Si 1.7142586978 9.9612121419 6.8023304434 
Si 3.8427823964 3.0770821050 1.1962802484 
Si 3.0913309283 8.2154047722 0.7495212932 
Si 3.7675451836 5.8404224632 0.7312055067 
Si 0.9406289523 2.8147046364 1.5332204926 
Si 6.9814309799 10.1765502945 3.3801399107 
Si 5.9984762780 6.1445293934 10.0585023796 
Si 1.4921012362 5.0348340308 0.7620754593 
Si 6.4221941044 0.8034644906 10.2858626423 
Si 4.8714275401 9.7103322212 1.1634255235 
Si 8.8556062238 7.6077582956 7.4738129332 
Si 10.2254416364 10.6699278454 2.4641793006 
Si 7.3037798296 9.3223488593 7.8221115557 
Si 9.4088909237 0.5718338631 0.1073618327 
Si 6.9383847601 2.5336356235 7.3161659217 
Si 1.6376297893 8.0015546635 9.4587243366 
Si 1.2103256700 4.9368372399 9.1999117502 
Si 1.9620875933 10.3987291669 9.1853417663 
Si 7.9948852293 7.0298405810 5.0322433356 
Si 6.9944593932 0.3558287671 5.7303928569 
Si 5.2982285078 3.1740725928 3.2578098550 
Si 9.1095799912 4.6427719298 4.8799918216 
Si 0.1217284149 8.2881583434 3.7322817546 
Si 3.8606710394 4.3211403387 8.8333605026 
Si 10.4265737871 9.0281764957 5.9298977940 
Si 5.3402470139 3.0756582932 9.9584715719 
Si 6.6309270549 6.6416752281 2.1102175469 
Si 10.3195737953 6.3805824017 1.8561260206 
Si 5.0542856551 8.5927577197 7.0690221688 
Si 6.9958510889 3.6130027242 5.1861434739 
Si 8.8667933165 3.1220766989 0.9538125931 
Si 1.8997717401 0.8085249104 2.6837032458 
Si 9.9095267032 5.2990421146 7.1712582790 
Si 3.4673457069 1.7827729497 4.4002421835 
Si 4.8875712107 1.7518880096 7.3198271521 
Si 8.5265986452 8.3330458837 2.9812156792 
Si 8.4504942989 5.1594871478 2.3589456919 
Si 10.1135171828 7.3620918812 10.1520564495 
Si 5.6943907586 5.1249730934 6.7787358479 
Si 4.7289821283 9.0587830967 3.8109125639 
Si 8.6885706188 8.9137255790 0.2800680625 

