&CONTROL
   calculation      = 'scf'
   tstress          = .true.
   tprnfor          = .true.
   outdir           = './'
   disk_io          = 'none'
   pseudo_dir       = '/home/ppiaggi/pseudos'
/
&SYSTEM
   ecutwfc          = 30
   occupations      = 'smearing'
   degauss          = 0.01
   smearing         = 'fermi-dirac'
   input_dft        = 'PBE'
   ntyp             = 1
   nat              = 64
   ibrav            = 0
/
&ELECTRONS
   electron_maxstep = 100
   mixing_beta      = 0.5
/
&IONS
/
&CELL
/

ATOMIC_SPECIES
Si 28.085 Si_ONCV_PBE_sr.upf

K_POINTS gamma

CELL_PARAMETERS angstrom
10.70489030710572 0.00000000000000 0.00000000000000
0.00000000000000 10.70489030710572 0.00000000000000
0.00000000000000 0.00000000000000 10.70489030710572

ATOMIC_POSITIONS angstrom
Si 6.5748044631 9.9940962956 2.8866271958 
Si 10.3239889002 3.6162725191 2.1256058389 
Si 9.9554302318 8.5566864447 0.6285622556 
Si 4.6392853613 8.3965626955 3.6321692812 
Si 5.2720086078 5.7769261689 2.6895822799 
Si 4.6971452934 2.5563706249 6.0236096611 
Si 2.7142570520 9.7499712722 0.6417892181 
Si 4.8132291239 0.3172019571 1.2137311679 
Si 0.6180671812 5.5596061908 2.4300422144 
Si 5.3128584692 8.3852369216 6.6052705809 
Si 2.6609681081 7.0169057278 4.3694150767 
Si 9.9602795471 0.3129339174 8.4280136632 
Si 9.7785105097 7.9176580178 5.9283896619 
Si 6.6544167323 5.0688083800 6.6755374808 
Si 3.7453413815 10.2327511201 5.3563417336 
Si 3.5283318452 6.5368663318 6.7492406506 
Si 2.7181108125 8.7932859303 7.9763850461 
Si 7.9479742672 7.1926800267 7.4091757283 
Si 7.5222193699 0.8014098375 0.8492756840 
Si 0.9147874717 9.3355100341 9.4719010415 
Si 0.5607681853 8.1625537934 2.9529225814 
Si 8.7106869967 3.9968420744 5.3810700302 
Si 0.9193295566 0.9584955388 6.6206428033 
Si 7.4778475996 9.3527342026 10.1835942638 
Si 6.4014494694 6.5357530232 4.6684347776 
Si 8.7426625040 6.1206387869 1.2376780075 
Si 2.8162532469 3.1522690487 4.5102700233 
Si 1.9029013010 6.0926562036 0.1808698266 
Si 4.6012294763 4.5033760740 7.5898100473 
Si 8.2169667508 10.0038163360 7.5662271740 
Si 9.6165455194 1.7591881486 10.4205684205 
Si 9.8995935240 10.5599246826 2.0529196338 
Si 8.9301693627 8.8796851000 3.6598628324 
Si 5.1495874822 6.6681296967 0.1361640637 
Si 6.0322806223 3.3418954756 2.2777972644 
Si 6.7323590386 2.7264927417 4.5380813283 
Si 8.7919799337 6.0409301737 4.0406571904 
Si 2.8120034054 2.0341432562 8.0046138418 
Si 1.4892643395 3.9229997411 8.8885380442 
Si 7.9437672453 3.8208857924 0.7080203744 
Si 1.0998097253 6.8749267677 8.8807341792 
Si 0.8940157025 6.2441304015 6.3768496315 
Si 9.6232360758 3.9151102369 9.2206679709 
Si 1.5055892972 0.4969392064 1.8021896930 
Si 10.1503662843 2.1787877340 4.0163356797 
Si 1.5054822483 9.1420298467 5.7760269581 
Si 5.7073764966 8.2131558099 8.9382515548 
Si 9.3950934536 6.5454730636 9.4844792876 
Si 9.3904368263 0.1155592909 5.0156050751 
Si 5.9488574121 0.2009436369 7.4391708309 
Si 6.7192455480 4.8858296900 9.5734369261 
Si 0.8956728196 3.6906715067 6.2492473390 
Si 4.0381843608 4.3602195759 10.0928167940 
Si 1.8597284784 1.1281027503 4.1300430245 
Si 5.6538306353 1.8806672438 10.2232344726 
Si 2.9085615160 4.6902727538 2.7050722562 
Si 6.9064419648 0.3026015572 4.9417948565 
Si 1.1016295566 2.6352228469 0.6778154559 
Si 4.0464485361 0.1771573707 9.1612344199 
Si 6.8940135871 2.2394416425 7.9674036431 
Si 6.9790425308 8.0889683774 1.2686686650 
Si 3.0454128337 7.7644175131 1.7046146178 
Si 3.5814816256 2.7879816316 1.3395350388 
Si 9.2337814615 2.7496688292 7.3485111149 

