&CONTROL
   calculation      = 'scf'
   tstress          = .true.
   tprnfor          = .true.
   outdir           = './'
   disk_io          = 'none'
   pseudo_dir       = '/home/ppiaggi/pseudos'
/
&SYSTEM
   ecutwfc          = 30
   occupations      = 'smearing'
   degauss          = 0.01
   smearing         = 'fermi-dirac'
   input_dft        = 'PBE'
   ntyp             = 1
   nat              = 64
   ibrav            = 0
/
&ELECTRONS
   electron_maxstep = 100
   mixing_beta      = 0.5
/
&IONS
/
&CELL
/

ATOMIC_SPECIES
Si 28.085 Si_ONCV_PBE_sr.upf

K_POINTS gamma

CELL_PARAMETERS angstrom
10.71748833546970 0.00000000000000 0.00000000000000
0.00000000000000 10.71748833546970 0.00000000000000
0.00000000000000 0.00000000000000 10.71748833546970

ATOMIC_POSITIONS angstrom
Si 2.7681771922 9.6344968567 4.3793586487 
Si 7.7181992248 4.4921387784 2.0588830967 
Si 3.5495892668 9.1471190746 1.8007631076 
Si 5.9358916321 9.7107196337 1.4152550522 
Si 10.5106086581 4.3452556008 2.0054778523 
Si 8.7402296299 9.3095318928 8.8369442447 
Si 4.7605046863 4.1274226504 1.6718531579 
Si 8.5313029123 5.1361848050 8.9739030281 
Si 4.7444070189 5.0088396086 5.1800193323 
Si 7.6750506167 10.2847911789 6.9760774625 
Si 4.2897175762 6.7475055888 3.1791714349 
Si 6.5631004845 6.7646750051 2.5546633896 
Si 1.3212841145 9.5461847528 9.6103717904 
Si 7.0775077721 2.1921014767 6.9140232050 
Si 8.8712937948 2.8897563799 5.3454116122 
Si 7.5525711601 2.3271846997 2.5197350951 
Si 8.8709829876 8.6622277498 4.9055766084 
Si 3.6184598468 2.0481977608 8.2613722511 
Si 6.2785190167 1.2537425030 4.6191195802 
Si 0.3535206397 1.7515055312 10.3585489336 
Si 5.6749100736 3.9946436874 8.0462936952 
Si 2.4040505260 5.1006884836 5.9746139174 
Si 1.1262151093 0.9931692808 8.2888947612 
Si 3.2084730480 6.0300447671 0.8335987405 
Si 4.0729992446 7.9201274225 5.5226359994 
Si 0.4596323483 4.9681774578 4.4109538043 
Si 1.4765590855 3.9901852122 0.4470950304 
Si 6.9916499730 5.8281594393 6.9519845487 
Si 1.9231782594 0.2132790896 0.7426490627 
Si 5.3991490988 0.3097900721 7.7566321380 
Si 4.2381235874 0.6739156665 5.4875362251 
Si 6.1942259709 3.2882433137 10.4385657015 
Si 1.6021787662 6.9286418591 3.3775092740 
Si 4.8737992555 8.7178836668 8.4369997325 
Si 0.4498933666 8.7571418265 3.7543361639 
Si 2.5692284562 7.2950835028 7.1926457493 
Si 1.0763252011 0.2541620206 5.9237272828 
Si 8.9995928477 6.2551548921 0.4690272985 
Si 10.4521983467 7.7182742472 9.1550071460 
Si 9.6872590517 0.4638775454 4.9169371461 
Si 2.0124763722 4.2761063660 8.5589754672 
Si 8.0978126616 8.5374547506 2.1150856055 
Si 7.0460840963 0.8772307073 0.5928518000 
Si 10.6984647937 5.4622536701 7.9317344624 
Si 0.3518830075 8.5538953777 6.7493275618 
Si 6.4129377554 8.1088088047 6.4992671239 
Si 6.2753144877 9.3239147622 4.0986783466 
Si 10.3964674074 2.8080033789 7.1500651681 
Si 2.7568916770 2.6674649543 5.7032256778 
Si 3.4157278374 8.3220868225 10.2730983991 
Si 9.1967731981 0.3193072017 10.3467704139 
Si 4.9662911799 3.1155952941 4.0805122039 
Si 6.1960800964 6.2614139053 0.1054541906 
Si 8.0848230658 5.0918787082 4.7093822670 
Si 4.0726670025 5.8415670172 8.9499172892 
Si 1.0712986990 2.5379012378 4.0291539998 
Si 2.7599032912 2.4443589996 1.7569285803 
Si 10.6868363188 9.5817560966 1.3721385966 
Si 0.6433311701 6.9626806021 0.6870756705 
Si 6.7471411942 8.3858344432 10.1540163862 
Si 8.8120903892 2.7267969698 8.7910948296 
Si 9.9737375149 1.3397610644 2.5308920005 
Si 4.5064144729 1.5637565706 10.5492452036 
Si 9.8000177465 6.2530435469 5.7223135245 

