&CONTROL
   calculation      = 'scf'
   tstress          = .true.
   tprnfor          = .true.
   outdir           = './'
   disk_io          = 'none'
   pseudo_dir       = '/home/ppiaggi/pseudos'
/
&SYSTEM
   ecutwfc          = 30
   occupations      = 'smearing'
   degauss          = 0.01
   smearing         = 'fermi-dirac'
   input_dft        = 'PBE'
   ntyp             = 1
   nat              = 64
   ibrav            = 0
/
&ELECTRONS
   electron_maxstep = 100
   mixing_beta      = 0.5
/
&IONS
/
&CELL
/

ATOMIC_SPECIES
Si 28.085 Si_ONCV_PBE_sr.upf

K_POINTS gamma

CELL_PARAMETERS angstrom
10.60884151274294 0.00000000000000 0.00000000000000
0.00000000000000 10.60884151274294 0.00000000000000
0.00000000000000 0.00000000000000 10.60884151274294

ATOMIC_POSITIONS angstrom
Si 3.6441158419 4.0867379275 2.7768112218 
Si 5.3818122552 10.1456276658 1.8804808112 
Si 8.1192858926 9.7822748440 9.8293144472 
Si 7.6695558832 0.4680175304 5.9137820040 
Si 7.7333680649 1.4360764402 2.0591018757 
Si 5.0880746514 9.3781840707 9.8334412866 
Si 5.3465166395 0.0044924306 4.9253774580 
Si 10.3389419758 0.0454507171 6.2507612458 
Si 1.8480071473 6.4622060660 1.5373696590 
Si 7.5288508182 2.7546917872 10.2713106112 
Si 5.2662819711 1.9633570811 2.6654289947 
Si 1.0826216675 6.6913358250 3.7157573487 
Si 1.8740412444 3.3164617718 9.4811534865 
Si 5.1368965400 4.4937991764 8.5325002696 
Si 2.8589342639 9.1835012201 1.8947284853 
Si 4.1381059381 8.7985487970 4.4339865279 
Si 9.1973033229 5.3440766059 9.9908446681 
Si 5.2618580842 7.6509904106 6.4852272521 
Si 8.5574416559 7.1079025959 7.5719121059 
Si 5.4408080229 2.2645951358 9.0600673491 
Si 7.4839223744 2.8967760016 6.6566130867 
Si 9.9126893327 4.8985795243 3.4670436683 
Si 9.5948166144 1.3478214877 0.5161997059 
Si 0.9255439774 2.1451183627 6.2951698564 
Si 9.7060503177 4.0534898182 6.1136631870 
Si 1.1693277292 3.8236174403 2.2694752029 
Si 2.6345678748 8.8422360064 10.0143114255 
Si 0.3549378887 4.9033004588 8.0276679373 
Si 8.2811449876 1.5271639534 8.4410732734 
Si 0.0849185780 7.9579254132 8.5298268415 
Si 4.0186503827 5.7231092955 4.7108348561 
Si 3.0891249070 0.4496419560 7.1020995595 
Si 10.2600970657 10.3126214400 8.5595209889 
Si 9.1418615172 6.8383213242 5.1732424311 
Si 10.3854087016 8.9799069427 4.3544626520 
Si 8.1782073984 2.8048503899 3.8621911881 
Si 1.3814196887 1.9542546951 4.0831733568 
Si 0.2061499474 7.3515664677 0.3455607337 
Si 7.6292528943 4.8256013035 8.0623800668 
Si 3.9302999506 7.1990431533 8.5076437539 
Si 5.3588016780 5.9226509955 10.5374440094 
Si 4.4374344014 7.0587518331 2.1339366438 
Si 5.3310807751 3.6459405627 5.6199595295 
Si 6.7423325262 6.8717073484 4.4565303161 
Si 7.2820573381 8.2951910938 2.5701403802 
Si 4.3208326244 2.0791525862 0.4650884293 
Si 2.0790571066 1.2662288876 0.4956790238 
Si 2.0763412432 5.3055771201 5.7551798234 
Si 3.9013059867 1.8094333996 4.8012964476 
Si 5.3088870786 0.0362660064 7.9702953224 
Si 8.8056355031 6.4906908055 1.6041310986 
Si 2.1480464030 7.2223613869 7.1432300381 
Si 10.5395339511 3.5354070430 0.3544615517 
Si 6.9428926750 9.0065245260 7.2976947705 
Si 2.9447916183 3.3586955699 7.0944611937 
Si 6.8253467110 4.6361910472 0.8970687859 
Si 8.0899524458 10.3203977209 3.6704894219 
Si 1.7829749488 0.2434601821 8.9197972467 
Si 6.8804808603 7.7418869647 0.0179318065 
Si 9.7739681211 9.5158443982 1.4064247282 
Si 1.0579306498 0.2152141416 2.4535279943 
Si 6.2540924221 4.4778965230 3.1269984712 
Si 3.1168988541 4.7412610135 0.1404939490 
Si 2.1864928446 9.1238264866 5.9301938818 

