&CONTROL
   calculation      = 'scf'
   tstress          = .true.
   tprnfor          = .true.
   outdir           = './'
   disk_io          = 'none'
   pseudo_dir       = '/home/ppiaggi/pseudos'
/
&SYSTEM
   ecutwfc          = 30
   occupations      = 'smearing'
   degauss          = 0.01
   smearing         = 'fermi-dirac'
   input_dft        = 'PBE'
   ntyp             = 1
   nat              = 64
   ibrav            = 0
/
&ELECTRONS
   electron_maxstep = 100
   mixing_beta      = 0.5
/
&IONS
/
&CELL
/

ATOMIC_SPECIES
Si 28.085 Si_ONCV_PBE_sr.upf

K_POINTS gamma

CELL_PARAMETERS angstrom
10.67928500294144 0.00000000000000 0.00000000000000
0.00000000000000 10.67928500294144 0.00000000000000
0.00000000000000 0.00000000000000 10.67928500294144

ATOMIC_POSITIONS angstrom
Si 4.4742679998 3.7380701296 0.5393882590 
Si 3.7815241403 6.3496358806 0.9152670532 
Si 7.8500433857 10.6203994254 9.3980057469 
Si 8.6867119692 7.6291957718 1.1123436466 
Si 7.9598050769 5.3178674393 0.4805646213 
Si 5.5909687947 7.3059124562 3.8873665339 
Si 0.2806366589 9.2835451702 7.7733981572 
Si 4.6885478534 7.8298061406 6.5093659464 
Si 9.8691330840 1.4047531493 8.9096634022 
Si 1.7246297730 10.3401215905 5.9802821295 
Si 0.1309953136 6.6087046555 10.5311953578 
Si 8.3529949922 9.2229722657 7.1703496124 
Si 9.5475798126 3.7627072401 9.9515771643 
Si 0.2543100855 1.6893240568 6.8387684923 
Si 1.2355825956 3.9243275393 0.2052227520 
Si 4.9287570110 9.8511705267 5.5500671332 
Si 2.0715677049 3.4919980445 7.3982775922 
Si 6.9781224823 6.2455662483 6.3534163475 
Si 6.0115831139 6.3923743792 9.8098630523 
Si 6.4801367434 8.0445665620 8.2844446617 
Si 10.1851438066 4.3222376985 7.6753943587 
Si 8.9764516507 10.3443292288 3.8245723381 
Si 2.7424510680 5.7360255229 6.1689530577 
Si 0.2997675300 6.7674629064 7.8758231797 
Si 6.3049217143 1.1217520967 2.9516689405 
Si 8.3185115809 4.2509534711 6.2414974407 
Si 8.5295983283 5.3351999189 3.2976350575 
Si 5.0550715940 4.3842629858 8.7822274943 
Si 8.8701820856 7.5927473721 5.6676780989 
Si 0.1281418087 10.2717848458 1.7962023411 
Si 10.0397880584 1.8717476032 4.9537358586 
Si 3.7412098394 2.3307112348 8.9323889207 
Si 7.9709435712 7.8851461955 3.5150759794 
Si 4.9424905715 5.2258440405 3.0022139965 
Si 9.0564181368 1.6596142859 1.0437217650 
Si 7.9200888160 1.9974214291 6.8146439875 
Si 5.3757705226 10.1172662711 9.3017533511 
Si 2.0848634147 1.7649867910 0.0560943328 
Si 0.1559175610 6.2932172180 5.5609813624 
Si 0.8269045133 10.6743404940 10.1233641428 
Si 4.3578210762 0.5821107387 7.4675434347 
Si 5.9409289643 2.7155072320 5.1240063787 
Si 4.9877387021 4.7419015613 6.4762815215 
Si 6.7251302206 3.9184218947 3.3493655140 
Si 2.3307219140 8.5586887006 10.6319223740 
Si 4.3551726135 9.5856835015 0.5956467324 
Si 2.6027766995 8.2537737552 8.1567844888 
Si 2.7468402542 0.5611611853 3.8314818355 
Si 0.4297856891 8.8362539971 4.4523861449 
Si 1.1149280336 4.0268913925 2.9209125997 
Si 0.9985494573 1.8388233675 2.5129425540 
Si 6.6858411311 2.1827817789 8.9198621194 
Si 1.6584075267 6.2789603725 1.8970041122 
Si 10.1268883069 4.1893980724 4.3650295935 
Si 3.0683401292 4.2954647310 4.2686704050 
Si 4.0145034219 1.2253838784 1.6366645024 
Si 6.7301174467 3.1676147626 0.9183832686 
Si 7.3760646794 0.0365879780 5.4564098037 
Si 2.5842588193 5.4491158520 9.1428989867 
Si 3.2920818293 2.2407809757 5.5045199826 
Si 3.9527130789 9.2025214349 3.1659808320 
Si 6.0320125861 7.8218073561 1.1850375396 
Si 7.8325507168 10.2249027846 1.3074114665 
Si 1.9484141902 8.3827154423 2.7773082543 

