&CONTROL
   calculation      = 'scf'
   tstress          = .true.
   tprnfor          = .true.
   outdir           = './'
   disk_io          = 'none'
   pseudo_dir       = '/home/ppiaggi/pseudos'
/
&SYSTEM
   ecutwfc          = 30
   occupations      = 'smearing'
   degauss          = 0.01
   smearing         = 'fermi-dirac'
   input_dft        = 'PBE'
   ntyp             = 1
   nat              = 64
   ibrav            = 0
/
&ELECTRONS
   electron_maxstep = 100
   mixing_beta      = 0.5
/
&IONS
/
&CELL
/

ATOMIC_SPECIES
Si 28.085 Si_ONCV_PBE_sr.upf

K_POINTS gamma

CELL_PARAMETERS angstrom
10.65536838811970 0.00000000000000 0.00000000000000
0.00000000000000 10.65536838811970 0.00000000000000
0.00000000000000 0.00000000000000 10.65536838811970

ATOMIC_POSITIONS angstrom
Si 2.0923840350 8.7917764231 5.8632549754 
Si 1.7540973994 6.5003607620 4.7658905512 
Si 7.6718865502 2.9702585258 8.4590092684 
Si 5.5099762364 10.0528818934 0.4740978300 
Si 4.2704905087 3.7062035096 5.6938878948 
Si 9.1733984420 2.7547856662 6.3536469947 
Si 0.7902021197 9.2511293544 0.8818883680 
Si 2.6318546811 6.2106093294 10.3509338579 
Si 2.9378981720 6.1878281518 2.4856310607 
Si 9.0995887051 7.2426030686 3.2368451875 
Si 8.5109009124 0.1467723719 9.7105994946 
Si 5.4682178477 1.5154917351 2.6496278356 
Si 6.3664014706 5.6091564054 6.5878306811 
Si 3.3798295759 0.7150796415 10.4900823137 
Si 1.6241019051 3.6046898150 3.7417285078 
Si 7.9590593836 1.8669377507 0.6090033181 
Si 4.8403076440 7.6127386003 8.4698457780 
Si 1.2983992596 8.3652633373 9.5978976632 
Si 1.8075980041 1.1898849879 8.1988371384 
Si 8.7055638375 8.6447110286 5.2818554546 
Si 6.7494619642 9.8077764543 6.0620521834 
Si 8.0595395075 3.6925646381 4.0237761090 
Si 4.8918476609 8.3950237812 5.0418965585 
Si 6.8083222192 7.4473140060 2.5772459181 
Si 6.8052534731 9.1769679904 8.2715280616 
Si 4.2333565499 0.0664088376 4.8337759032 
Si 9.1300950248 8.8379887558 0.7010827495 
Si 1.1016159162 9.9578786288 4.2327278831 
Si 2.3151771326 1.7938738896 5.0873417047 
Si 3.3960790127 10.3951429813 2.3787790265 
Si 3.1485334943 9.4342312047 8.4877894184 
Si 6.9925961601 1.5432702805 4.4658993096 
Si 3.7572640349 4.6238758013 8.7260221448 
Si 6.2116429002 4.7578883695 9.0665677185 
Si 9.7556077707 2.3849911063 2.4085075043 
Si 5.9185563373 3.4920838818 0.8704668787 
Si 1.6681725087 3.8761140139 1.1645784880 
Si 4.1163712603 0.6283172388 7.2212497103 
Si 9.2213902212 10.2188925328 7.3317352251 
Si 4.1574050840 6.6945974724 6.3318354556 
Si 8.6028141201 6.2955858923 6.0245452866 
Si 4.5030652345 8.2419061375 2.7158722609 
Si 8.2976443695 7.5232654719 9.5721756039 
Si 5.0956742028 7.4957746215 0.1896559675 
Si 1.0872418242 0.8754962125 1.8723080563 
Si 0.1631965567 8.5064363131 7.5372985921 
Si 4.1467816817 3.7593631425 2.7853878842 
Si 7.0444878041 5.7377880126 0.6235361750 
Si 10.6496038338 1.1007315206 6.2386009822 
Si 0.0439783282 4.2556902020 7.7725158492 
Si 9.8288740837 3.7371360440 10.2603845373 
Si 7.5478367514 10.2556748645 2.1357407290 
Si 9.1499779422 0.3942145332 4.0312774884 
Si 9.7277226716 6.4327098281 7.9502687047 
Si 0.2159512856 6.0861759374 0.5464179463 
Si 10.2786798049 4.9759504836 4.9947785195 
Si 6.2422664289 5.1845186644 3.9814529858 
Si 2.2522252162 3.3963240861 7.4015598542 
Si 0.7844269100 8.0157139773 2.9055910950 
Si 5.6035623370 0.9812145155 9.0681553684 
Si 0.1665327525 1.2378448010 9.9424390000 
Si 6.0820309991 2.2326086830 6.5620873111 
Si 3.8997689317 3.1160026546 10.6132690276 
Si 9.1771704424 5.2038368473 2.2498703798 

