&CONTROL
   calculation      = 'scf'
   tstress          = .true.
   tprnfor          = .true.
   outdir           = './'
   disk_io          = 'none'
   pseudo_dir       = '/home/ppiaggi/pseudos'
/
&SYSTEM
   ecutwfc          = 30
   occupations      = 'smearing'
   degauss          = 0.01
   smearing         = 'fermi-dirac'
   input_dft        = 'PBE'
   ntyp             = 1
   nat              = 64
   ibrav            = 0
/
&ELECTRONS
   electron_maxstep = 100
   mixing_beta      = 0.5
/
&IONS
/
&CELL
/

ATOMIC_SPECIES
Si 28.085 Si_ONCV_PBE_sr.upf

K_POINTS gamma

CELL_PARAMETERS angstrom
10.65270688343546 0.00000000000000 0.00000000000000
0.00000000000000 10.65270688343546 0.00000000000000
0.00000000000000 0.00000000000000 10.65270688343546

ATOMIC_POSITIONS angstrom
Si 0.9963700455 8.8303270115 9.3863237418 
Si 4.1507739736 6.7928902929 4.4498274139 
Si 6.3120377569 5.8904355766 0.0432466876 
Si 6.3149033351 3.7021991394 10.5057208339 
Si 4.8297348995 4.5195280751 3.9380181117 
Si 1.0194725709 3.3673845621 0.1299864599 
Si 4.6064648159 0.1141000782 0.5696087592 
Si 3.8541493504 8.9597680528 9.6198310767 
Si 7.5812758240 3.4133722977 8.1765064738 
Si 8.6018157961 1.7786398575 5.5750834947 
Si 1.3640897691 4.7346807960 6.1528010944 
Si 9.3658066284 3.8811965732 10.4219692523 
Si 0.0072291826 1.3667529459 4.7776538156 
Si 8.9394746462 1.2438952774 0.3586691839 
Si 6.6350917459 5.9496752796 2.8774878779 
Si 6.3549149021 2.1529653247 4.2059336898 
Si 2.2053553371 9.5352805422 3.7875486270 
Si 10.1700220818 4.3599185678 2.5644154753 
Si 8.8823122211 1.5136537738 7.9432441512 
Si 9.8183442695 6.7593981825 2.1928810174 
Si 5.8154405202 10.3468996269 2.6662447004 
Si 3.8668580297 0.4112573367 7.4815664875 
Si 2.6446410109 8.1001904817 7.5149201128 
Si 5.9249183888 6.1538876705 6.3307439102 
Si 3.5122187649 3.3608864109 5.5300545027 
Si 3.9691666266 4.4379602985 1.7163428276 
Si 4.6502687467 8.8205584793 6.2382571091 
Si 8.1522822183 6.3311593658 4.4649968685 
Si 5.5724842343 2.3864833123 6.7776995329 
Si 0.0058211930 9.5866905056 1.1829724467 
Si 2.3398031507 0.8242499993 1.7654944172 
Si 4.4476862199 3.7035839913 8.5893840872 
Si 5.1670315576 7.9480378693 2.5086698602 
Si 2.1475644023 2.2760680054 3.8268145046 
Si 4.2610294898 0.3542270051 4.5671989384 
Si 8.2659679062 0.7645500994 2.6900641530 
Si 1.7523170188 4.3047481989 2.6710703767 
Si 5.7963082586 7.7791392016 8.9209495889 
Si 8.5636258419 8.7117517312 10.5601242079 
Si 3.8218609959 7.1009665760 0.6962609219 
Si 4.1634826529 5.9626609293 8.2375251788 
Si 8.4738235229 8.6604802529 5.1649862378 
Si 7.7428241239 3.5024608854 2.0063947307 
Si 1.3749768356 6.1186059053 0.2965404668 
Si 2.4937454179 2.4682641430 7.9865793628 
Si 1.8895558416 7.7128154486 2.1650028835 
Si 1.7797264336 6.1797950537 4.2296359627 
Si 0.5662670051 7.8229324796 5.7438862880 
Si 9.8143068936 4.1359880164 5.0910457994 
Si 1.2315168320 0.9816938112 10.2142627735 
Si 8.9554537065 6.3233615844 10.4869401116 
Si 10.2230725621 9.9671093211 3.7928536750 
Si 6.8052793911 10.1892395651 6.2338255830 
Si 3.7726028792 2.5508439268 0.0954308898 
Si 10.6018721662 3.4375219842 8.1660881265 
Si 9.2414469282 8.6700037729 7.6219052480 
Si 1.2192236082 5.9433262663 8.4412688507 
Si 8.2835342199 5.5591363925 7.0760392419 
Si 6.7515258321 0.6547590412 10.0495399670 
Si 0.0863570206 10.6096912530 7.9755538111 
Si 7.9794313965 8.8026619317 2.4039963624 
Si 9.7777894144 6.5799320296 8.4628086240 
Si 7.3129767484 9.5889062686 8.4383500090 
Si 1.6105401429 0.1310879498 6.3201977304 

