&CONTROL
   calculation      = 'scf'
   tstress          = .true.
   tprnfor          = .true.
   outdir           = './'
   disk_io          = 'none'
   pseudo_dir       = '/home/ppiaggi/pseudos'
/
&SYSTEM
   ecutwfc          = 30
   occupations      = 'smearing'
   degauss          = 0.01
   smearing         = 'fermi-dirac'
   input_dft        = 'PBE'
   ntyp             = 1
   nat              = 64
   ibrav            = 0
/
&ELECTRONS
   electron_maxstep = 100
   mixing_beta      = 0.5
/
&IONS
/
&CELL
/

ATOMIC_SPECIES
Si 28.085 Si_ONCV_PBE_sr.upf

K_POINTS gamma

CELL_PARAMETERS angstrom
10.66531052332342 0.00000000000000 0.00000000000000
0.00000000000000 10.66531052332342 0.00000000000000
0.00000000000000 0.00000000000000 10.66531052332342

ATOMIC_POSITIONS angstrom
Si 6.0326729179 6.6374813470 7.5591881478 
Si 6.0074921197 3.1171503067 2.1349605299 
Si 5.9596262061 9.0127633190 8.6305719164 
Si 3.3025240689 0.9604122792 5.0916725704 
Si 9.1160035248 2.1371789145 0.6182755168 
Si 2.8385297345 7.5563938364 7.0821927999 
Si 3.6874777869 9.5380298623 7.4609393072 
Si 9.5141608973 6.0386454918 9.2104021883 
Si 7.4978626122 5.9077714663 0.3962258847 
Si 7.2998611224 3.3365144135 7.5868113020 
Si 4.5754608757 3.2955489558 4.5131754623 
Si 6.9864503073 10.5259895720 6.1567318099 
Si 3.3353092334 8.0288777579 2.9184129104 
Si 5.4378578847 9.0917399434 2.3176999604 
Si 3.7502964659 6.6577027758 9.5547210732 
Si 7.8472155237 8.1892626975 5.2580087533 
Si 3.7204869230 10.1021394664 0.4146107470 
Si 6.1713966118 6.6410008995 3.9603390913 
Si 4.7713932954 4.4707275264 8.1346669730 
Si 0.9948324358 0.0470396720 3.9041542355 
Si 2.2248264364 8.8124901180 9.7466326708 
Si 6.6854645791 3.8385092492 10.1157164067 
Si 1.7192373910 5.0563703926 2.1775684455 
Si 10.1521597728 6.5320014259 4.2567920626 
Si 1.5223984200 9.2326393607 2.0274968611 
Si 1.5542983638 8.4147593579 5.2012906319 
Si 1.6748377033 2.6234317519 1.3872476051 
Si 8.6000904589 4.2074969974 2.1067294530 
Si 5.5159279577 7.4025787280 0.2742989883 
Si 4.7057163132 7.2537869809 5.6639198065 
Si 7.9129351672 4.8549560033 4.5750662593 
Si 9.8664041080 3.3211776970 4.9839955953 
Si 2.8601589843 3.7102268942 6.8399835979 
Si 10.1710480377 8.2227304420 10.3835756805 
Si 6.8611969006 2.9115017891 5.3719675963 
Si 9.9445168422 2.3051362246 8.9217882202 
Si 0.4871849855 0.0501482901 6.4494519225 
Si 1.1986635844 5.1666390381 5.1112434152 
Si 4.4991185830 1.1058540522 9.1564570477 
Si 10.5303730146 1.8750042512 3.1304712795 
Si 0.0909481155 6.7939627830 1.8274582969 
Si 3.3441827718 5.3814170614 4.2403248232 
Si 5.9311924882 0.6975219735 2.4071392545 
Si 2.5688360273 1.2267773429 7.5548153704 
Si 3.4802508034 1.2403116220 2.5384078964 
Si 0.6726600682 6.1059862624 7.2603674775 
Si 8.1249402098 5.7868481756 7.1317758285 
Si 1.0709571562 4.2087448387 8.7922686892 
Si 4.7661033014 9.7080882385 4.7887244250 
Si 10.2383034859 10.5205502636 0.7231229849 
Si 7.8712551337 1.0188827110 3.9307641852 
Si 2.9848684602 4.6276782361 10.5604598556 
Si 8.9101736971 9.2864351870 8.3725567242 
Si 5.1991789005 5.5477212484 2.2775450663 
Si 7.6857747184 8.9457105117 0.1874460320 
Si 9.4362081427 1.5607508767 6.6792147071 
Si 10.3652206811 4.4841338217 0.2829250914 
Si 7.1984553499 0.6072678498 0.1852297805 
Si 8.9775144677 9.7642944250 3.0921828147 
Si 8.1717075964 7.5190759149 2.4018705911 
Si 7.0972095571 1.0384247595 8.4183002410 
Si 0.6620128887 0.0834156333 9.1288125628 
Si 4.2848524946 2.9279903592 0.0925884403 
Si 9.8988373173 8.2473459786 6.4904173802 

