&CONTROL
   calculation      = 'scf'
   tstress          = .true.
   tprnfor          = .true.
   outdir           = './'
   disk_io          = 'none'
   pseudo_dir       = '/home/ppiaggi/pseudos'
/
&SYSTEM
   ecutwfc          = 30
   occupations      = 'smearing'
   degauss          = 0.01
   smearing         = 'fermi-dirac'
   input_dft        = 'PBE'
   ntyp             = 1
   nat              = 64
   ibrav            = 0
/
&ELECTRONS
   electron_maxstep = 100
   mixing_beta      = 0.5
/
&IONS
/
&CELL
/

ATOMIC_SPECIES
Si 28.085 Si_ONCV_PBE_sr.upf

K_POINTS gamma

CELL_PARAMETERS angstrom
10.65517229238362 0.00000000000000 0.00000000000000
0.00000000000000 10.65517229238362 0.00000000000000
0.00000000000000 0.00000000000000 10.65517229238362

ATOMIC_POSITIONS angstrom
Si 3.8353079563 10.4789463978 2.7530194859 
Si 6.0373378278 10.0455685752 6.6463448553 
Si 9.7573141992 6.5032672018 0.5700037694 
Si 0.6885468232 10.3519154338 4.8058556349 
Si 4.5222256036 1.9269879091 4.7877205317 
Si 2.6528289008 1.8740423580 3.0541453100 
Si 6.6361691658 4.8788542203 0.8209011113 
Si 8.3234156983 9.6707622346 9.0934330343 
Si 3.4572837537 4.1842968144 2.2661100776 
Si 1.5348029825 4.7794308076 6.4471783748 
Si 2.7816605890 6.3202752728 3.3688245133 
Si 8.7846461413 4.4188704324 5.7388225208 
Si 2.1599312857 1.7017056013 0.7902664255 
Si 4.8580553240 8.1094172179 7.8613221863 
Si 9.3225192386 6.4955208915 7.5670689483 
Si 10.6049757757 2.5553553847 3.5983262693 
Si 7.1116136086 1.9094814610 5.7902337271 
Si 1.7628449799 2.3515432491 5.6251744531 
Si 2.3343244906 6.0043281040 0.0370650823 
Si 7.8873421170 8.5179578340 6.9658615068 
Si 5.6391220737 8.8561103818 4.4886511558 
Si 10.5849653621 10.3976580884 0.4375770260 
Si 10.5588282245 2.5389144538 1.1194643666 
Si 6.0388082415 10.4691649497 1.6182756023 
Si 2.8218625541 9.5919033045 8.9625555530 
Si 4.9529396332 8.4296158005 0.0400071885 
Si 6.4334864784 6.4253033061 5.4153741107 
Si 4.0845217810 3.9943044372 7.6403871888 
Si 9.7802121644 4.8253652554 9.4134291686 
Si 9.8932741976 0.1037416343 2.7528383479 
Si 4.2639229169 5.0160182532 5.5546372126 
Si 7.3716317781 7.2816595032 10.1087111262 
Si 5.4353738691 4.0097118164 3.6103453037 
Si 3.8639277491 3.1016141026 10.2064510216 
Si 0.6775933061 7.0377732646 6.2276178946 
Si 7.3342853992 4.0605689537 7.8957277376 
Si 3.2331095839 9.5617598221 5.5119632475 
Si 4.4961417419 7.9268408407 2.5856267292 
Si 9.5980619941 7.1711547114 3.1296478609 
Si 8.4466001451 9.1468687234 4.6521334642 
Si 0.6943293852 4.7884983592 1.3621146052 
Si 6.1380185508 10.5620673969 9.6226115110 
Si 1.0910044014 8.2247274925 3.8166720600 
Si 9.4688573749 1.0493874294 8.3027446640 
Si 2.1049612519 7.1509631599 8.5552083163 
Si 1.4035525702 4.1977542970 8.9840683459 
Si 5.9669284493 1.8897907026 8.2024581824 
Si 6.9094423695 7.3678065712 1.9266895643 
Si 1.0982072978 8.4201646627 1.5254157757 
Si 7.6977013606 5.0668967009 3.5878309246 
Si 8.6767305563 2.8912703464 10.0875606092 
Si 2.7976433474 9.9606255417 0.7165635332 
Si 3.3705826168 0.8592607971 6.9754831274 
Si 9.7991783711 1.9863904946 6.2241549636 
Si 7.6896460503 2.6260417977 2.3918624210 
Si 0.0638464317 8.0827047010 9.4414629269 
Si 0.6342992100 10.0651634370 7.2089699179 
Si 1.3981823634 1.6233687746 8.7133950042 
Si 6.0043067937 2.3826670073 0.2781106520 
Si 6.0471299311 6.1808523434 8.4900199722 
Si 7.3110038477 0.7317940365 3.4518602710 
Si 0.0402056944 5.0404612184 3.9649707479 
Si 4.5955331890 5.6962551075 10.6019390516 
Si 3.3526925825 7.2962144686 6.1097503787 

