&CONTROL
   calculation      = 'scf'
   tstress          = .true.
   tprnfor          = .true.
   outdir           = './'
   disk_io          = 'none'
   pseudo_dir       = '/home/ppiaggi/pseudos'
/
&SYSTEM
   ecutwfc          = 30
   occupations      = 'smearing'
   degauss          = 0.01
   smearing         = 'fermi-dirac'
   input_dft        = 'PBE'
   ntyp             = 1
   nat              = 64
   ibrav            = 0
/
&ELECTRONS
   electron_maxstep = 100
   mixing_beta      = 0.5
/
&IONS
/
&CELL
/

ATOMIC_SPECIES
Si 28.085 Si_ONCV_PBE_sr.upf

K_POINTS gamma

CELL_PARAMETERS angstrom
10.68475038774851 0.00000000000000 0.00000000000000
0.00000000000000 10.68475038774851 0.00000000000000
0.00000000000000 0.00000000000000 10.68475038774851

ATOMIC_POSITIONS angstrom
Si 5.6545515460 7.0251058477 5.8651479761 
Si 8.3317546574 10.6091130398 1.6231845399 
Si 10.0201054899 6.1764161244 1.5773362760 
Si 8.5610921397 9.3558986668 8.6608663388 
Si 8.5088543950 4.9907721129 10.1155416803 
Si 0.7020639622 3.0796549195 9.2784876502 
Si 7.2405424698 9.0091678319 5.0832272580 
Si 1.1872574088 9.9094328454 3.2399582296 
Si 5.8924368286 5.4635830023 7.6694710893 
Si 0.0250013543 9.0489578424 0.8688903124 
Si 5.6911361313 6.7485738229 9.7315317514 
Si 3.5203581340 5.2826047002 7.9748305707 
Si 5.3107803870 1.2254767610 4.1098144434 
Si 8.4147431136 2.0346008536 7.4185397265 
Si 6.3987016715 3.9324903260 5.4924531978 
Si 1.8023250649 2.2078433964 4.0108736548 
Si 0.2972380026 4.6343929484 5.1211474371 
Si 0.3465684266 4.0173058745 2.3131629809 
Si 1.3684066669 6.9841832537 8.0359687124 
Si 7.9530764189 1.5498550980 10.2022591145 
Si 3.7969863215 8.6160544957 9.9225216646 
Si 5.2322047326 1.3892739844 10.4668562731 
Si 4.1149644931 8.2736189305 7.4644627836 
Si 5.7458954770 7.0786043929 2.8584271627 
Si 2.6607058568 3.7079075576 1.6549930418 
Si 8.9646765313 3.1450135376 4.7011833231 
Si 0.7116300192 0.8593808845 0.4616410514 
Si 5.8109869764 3.0564262722 1.8707181521 
Si 10.0789357255 9.6355506387 4.8910299680 
Si 8.0603833670 3.9105545334 2.5006482960 
Si 3.3424677248 6.7664387256 1.7737754119 
Si 6.3247311445 1.0372360341 6.2425654140 
Si 4.1783250629 5.7827578659 4.4085600642 
Si 4.0078819247 3.4661330258 3.5899372285 
Si 9.1887571165 5.9954271376 5.9733310738 
Si 6.0516716636 2.9179198529 8.3971025907 
Si 1.1737946233 10.3490355306 6.6682351847 
Si 3.2806030201 1.3379871826 1.1121222441 
Si 3.9376083214 1.7279698870 7.4087418104 
Si 0.4809419845 2.4556761816 6.8128639660 
Si 8.5862547268 0.6881043358 4.6225969840 
Si 6.2972285970 9.5803104792 7.2106785924 
Si 9.7905649973 8.1095759578 7.0724606614 
Si 10.1746710890 1.5864503681 2.6702045999 
Si 6.6466306195 5.5196886266 0.9465481467 
Si 7.4983868661 8.1310736756 0.6022512980 
Si 0.8730488172 5.3118488620 9.8299276177 
Si 9.4603207323 3.0937160510 0.2682930138 
Si 4.4276109742 9.1325660142 1.7880502384 
Si 7.7102013578 5.8745185022 4.2814756431 
Si 1.1518588308 8.9965170875 9.4491979072 
Si 2.7279556757 3.7124485765 6.2417640578 
Si 3.5798401394 10.2249535243 6.1230778505 
Si 10.2776293437 0.3314633950 8.7372302498 
Si 2.9587142299 2.9038480366 9.5141825590 
Si 1.1691253874 7.3656395273 3.0765670266 
Si 8.3556350745 4.6681994987 7.8736352997 
Si 9.4617738584 7.1189072713 9.7432315531 
Si 3.2518610415 0.0439805695 3.4906758974 
Si 2.0290982071 6.6725518239 5.3859048670 
Si 6.2794278029 9.9147324816 10.1119516042 
Si 8.7023124856 7.8260561063 2.8202184953 
Si 6.4552346858 9.9171899741 2.9238819436 
Si 3.6089667690 5.2967085707 10.4315431731 

