&CONTROL
   calculation      = 'scf'
   tstress          = .true.
   tprnfor          = .true.
   outdir           = './'
   disk_io          = 'none'
   pseudo_dir       = '/home/ppiaggi/pseudos'
/
&SYSTEM
   ecutwfc          = 30
   occupations      = 'smearing'
   degauss          = 0.01
   smearing         = 'fermi-dirac'
   input_dft        = 'PBE'
   ntyp             = 1
   nat              = 64
   ibrav            = 0
/
&ELECTRONS
   electron_maxstep = 100
   mixing_beta      = 0.5
/
&IONS
/
&CELL
/

ATOMIC_SPECIES
Si 28.085 Si_ONCV_PBE_sr.upf

K_POINTS gamma

CELL_PARAMETERS angstrom
10.67739159599828 0.00000000000000 0.00000000000000
0.00000000000000 10.67739159599828 0.00000000000000
0.00000000000000 0.00000000000000 10.67739159599828

ATOMIC_POSITIONS angstrom
Si 6.6534457348 4.3235214372 0.4941347347 
Si 2.2310730062 2.8460373751 3.5128725125 
Si 0.1346024017 6.0322350917 0.0391248457 
Si 7.3391478231 0.0844220779 5.7255270181 
Si 10.2523566687 9.5618177220 7.2680897820 
Si 8.7978396760 8.9115111869 10.2115156459 
Si 6.3213575014 1.6558392113 8.2786194774 
Si 7.2955733880 1.3227259483 2.1587230007 
Si 9.9631595174 9.7152838715 1.8945323004 
Si 6.9328090085 0.2932972698 10.3965655196 
Si 5.4975006432 2.4099727023 2.8930178982 
Si 6.8851664872 8.5748316751 4.5708098266 
Si 9.6340289214 3.2989296171 2.1398560498 
Si 4.6556310254 8.3041277660 6.6342477847 
Si 1.8471994235 0.9556254801 0.0076440301 
Si 4.5765329085 2.9858257859 0.7450096599 
Si 9.2462580908 4.6568268933 8.5724826489 
Si 5.6340965139 6.4666981558 4.1039622338 
Si 4.4035698420 7.8971162757 10.5441057167 
Si 5.7862706989 3.1262014532 5.4389137955 
Si 4.1227117335 0.8744004268 10.4164254680 
Si 0.7073366191 8.4910888928 5.1408223769 
Si 1.5689893081 6.9224092291 8.1506722939 
Si 0.2221538095 2.2194666815 5.9386157222 
Si 2.1177218170 0.7327199822 6.2292116119 
Si 8.8918541090 4.4922349018 4.6403623554 
Si 9.7049054468 7.2316371671 8.4062036296 
Si 2.9456360839 2.7241656275 8.3034444129 
Si 0.8940115919 4.6716150806 7.4604963786 
Si 8.4478561342 6.5852065251 5.8487334398 
Si 6.1625206240 5.4337672928 6.1994216893 
Si 0.8080799443 4.0798633610 1.0516889046 
Si 1.9820228472 6.5130380353 5.0638917705 
Si 6.6577487236 7.7734720810 7.7109666306 
Si 0.5951385883 4.3292124869 4.8469058185 
Si 9.4430744501 8.3445844027 3.9562939081 
Si 3.7657878872 5.9269560106 6.7914830533 
Si 2.9473337892 4.6621442343 1.8875492863 
Si 9.4741883692 1.9317323328 8.4288503772 
Si 9.1293406528 1.3827115343 4.3950813157 
Si 6.4321034070 4.0302668770 8.7912090158 
Si 4.2121455655 4.7369820720 8.9634460196 
Si 3.4013791894 6.6847838791 3.3885236099 
Si 3.8397928884 0.3387594677 7.9444918622 
Si 2.6883323013 8.6588627469 2.4250385019 
Si 0.4063783209 1.1980033371 2.2299412026 
Si 3.8418002380 0.5442672237 3.7990693168 
Si 4.9118243594 0.2278790269 5.6558143284 
Si 9.3153728466 6.2663582573 2.0310854616 
Si 7.8913504842 9.9459475621 7.8067108011 
Si 3.0796159937 6.1677311911 10.4850383864 
Si 6.2846913386 6.8362106467 9.9940065017 
Si 0.8959527417 2.7950955398 9.6692429589 
Si 7.6177957116 7.5510833689 0.9342909840 
Si 3.4689564008 3.3623426458 5.8427754552 
Si 8.1430593137 2.9324281505 6.3570520215 
Si 7.1467625813 5.0503101284 2.7745842706 
Si 8.3650529624 2.5192985149 0.0422964581 
Si 0.8756614267 9.7396069695 9.2058334862 
Si 1.6861736808 10.2641445091 3.8864530896 
Si 1.0291019504 8.3617429710 0.6172183663 
Si 4.6732700763 10.0025270602 1.6820522077 
Si 6.9947485571 9.4917740332 2.3995195360 
Si 3.0594357236 8.7701318448 8.4450266255 

