&CONTROL
   calculation      = 'scf'
   tstress          = .true.
   tprnfor          = .true.
   outdir           = './'
   disk_io          = 'none'
   pseudo_dir       = '/home/ppiaggi/pseudos'
/
&SYSTEM
   ecutwfc          = 30
   occupations      = 'smearing'
   degauss          = 0.01
   smearing         = 'fermi-dirac'
   input_dft        = 'PBE'
   ntyp             = 1
   nat              = 64
   ibrav            = 0
/
&ELECTRONS
   electron_maxstep = 100
   mixing_beta      = 0.5
/
&IONS
/
&CELL
/

ATOMIC_SPECIES
Si 28.085 Si_ONCV_PBE_sr.upf

K_POINTS gamma

CELL_PARAMETERS angstrom
10.68633990062093 0.00000000000000 0.00000000000000
0.00000000000000 10.68633990062093 0.00000000000000
0.00000000000000 0.00000000000000 10.68633990062093

ATOMIC_POSITIONS angstrom
Si 2.1834650275 5.7410010121 4.1357097186 
Si 5.7732951313 6.1080447287 9.9043456057 
Si 7.5190476765 4.4976774237 10.1112865779 
Si 10.1655411256 9.3285869845 4.4066191214 
Si 0.1716546778 7.0353839326 6.9366635246 
Si 1.4613035497 0.1311929891 4.1202145257 
Si 8.6134036867 8.0893348916 5.6712619579 
Si 8.6305445759 2.8209693206 7.2007977879 
Si 10.0218312266 5.1995562284 2.9512358040 
Si 4.0224452020 9.3937095399 1.2218867906 
Si 4.4666549790 1.4117937370 6.9590300340 
Si 5.7536963839 10.4913676291 7.6829547579 
Si 1.6816345058 1.8185051472 7.0826603003 
Si 7.3068490251 8.0744381338 1.2533580616 
Si 1.7532864148 7.6664550491 5.1168760166 
Si 9.1790316576 10.6701180367 8.0081080220 
Si 7.3309574079 3.8382661338 5.3284655466 
Si 5.3466857561 6.0463097431 7.6299184530 
Si 10.2506898819 7.6809243533 10.0116471447 
Si 5.9440628429 7.5854312200 4.2958658947 
Si 3.6617598577 9.1315308768 5.7606425049 
Si 3.2941390787 4.7749772578 6.7237595748 
Si 4.6752843929 5.5480163999 4.1108532920 
Si 2.0701791382 1.4770979601 0.7478343408 
Si 0.4200896392 2.5618255780 3.7415868167 
Si 3.5513379075 5.3433836771 10.5042446687 
Si 4.0987349825 10.5675719190 4.0925369054 
Si 7.3275484655 5.5543747721 1.9252616828 
Si 10.5918833422 2.1209819981 8.4977454300 
Si 4.4507537052 1.5855429374 10.5679566272 
Si 0.4849963305 4.2390252528 9.2450518655 
Si 1.8196699583 6.2247823058 1.6963495958 
Si 8.2407068963 5.3586437705 7.9142178397 
Si 1.6842419727 10.0803709966 1.8073806674 
Si 6.3164817885 8.3996341433 9.7300193429 
Si 5.7173521419 0.4601922669 1.3731198729 
Si 3.2888920859 3.3959798980 9.1307935193 
Si 5.5640138507 3.5285973762 7.0378631635 
Si 6.5288193623 2.4604442714 9.2389179064 
Si 0.5155688803 9.6235620248 8.3761776272 
Si 2.5277254674 10.2882951120 7.3911108152 
Si 7.5754074331 10.4463995108 6.0253324579 
Si 4.5737534775 7.2617312980 1.8699385012 
Si 6.8138881655 9.6798576634 3.0499241530 
Si 8.4273865680 7.6751109844 8.2459859482 
Si 6.4451880662 2.3287992502 2.4880043420 
Si 8.8500847428 10.5242815560 2.8978254772 
Si 10.0277300862 0.8606436193 0.3745818607 
Si 9.7312375857 5.4589030114 0.0580168874 
Si 2.3485369200 7.7037290027 10.3086632759 
Si 8.6189605834 2.9211323845 1.3589284135 
Si 1.3352474842 3.7302379238 5.5977933711 
Si 5.9630845279 1.4657704398 4.6756156694 
Si 7.4497574486 0.0545522691 10.1772426678 
Si 9.4335909604 9.1171791223 0.6292341347 
Si 5.1317193427 4.3830771146 1.9892194271 
Si 1.7142385288 5.9838908317 8.3956053932 
Si 5.6817131984 8.0378481060 6.6908563342 
Si 0.8328559297 3.5920742352 1.5592866003 
Si 0.3066520039 8.0323018956 2.5430603652 
Si 9.9957138119 4.9634736073 6.2223671930 
Si 8.0335415110 5.9110634253 4.5352826538 
Si 8.8211461344 1.9304659304 4.0719870738 
Si 4.0641433003 9.8232683449 9.4333451746 

