&CONTROL
   calculation      = 'scf'
   tstress          = .true.
   tprnfor          = .true.
   outdir           = './'
   disk_io          = 'none'
   pseudo_dir       = '/home/ppiaggi/pseudos'
/
&SYSTEM
   ecutwfc          = 30
   occupations      = 'smearing'
   degauss          = 0.01
   smearing         = 'fermi-dirac'
   input_dft        = 'PBE'
   ntyp             = 1
   nat              = 64
   ibrav            = 0
/
&ELECTRONS
   electron_maxstep = 100
   mixing_beta      = 0.5
/
&IONS
/
&CELL
/

ATOMIC_SPECIES
Si 28.085 Si_ONCV_PBE_sr.upf

K_POINTS gamma

CELL_PARAMETERS angstrom
10.66412500475955 0.00000000000000 0.00000000000000
0.00000000000000 10.66412500475955 0.00000000000000
0.00000000000000 0.00000000000000 10.66412500475955

ATOMIC_POSITIONS angstrom
Si 8.2260074332 7.2500587051 1.7954547423 
Si 6.3721666065 5.8808170469 0.0157734139 
Si 8.2966892537 9.8169242579 10.5355796420 
Si 2.9226314271 9.4052037197 2.0391086704 
Si 8.2356904587 1.5565890063 7.8393475887 
Si 5.1136185658 5.5398423140 8.4491649130 
Si 9.6749207693 5.0610977501 7.3424953407 
Si 2.1821359150 8.2611777174 5.9212020883 
Si 3.7987212886 6.3983363692 1.1538369973 
Si 1.7638462758 4.4083999792 9.7148045968 
Si 6.0870505603 3.2588392961 2.6209646589 
Si 2.6270858667 5.2559633063 7.9156494032 
Si 1.4093174400 5.1994221156 2.3118436674 
Si 6.1427066287 8.0032125336 7.3079755680 
Si 3.1500545569 0.5765463207 3.6233604170 
Si 5.4937306375 2.6806197742 5.6650391415 
Si 2.1596985960 3.8448969498 5.0505722588 
Si 3.4750331023 3.1007436429 7.0567821035 
Si 6.9771850745 7.8562715551 9.6091017898 
Si 1.5742594615 1.6159668543 8.5138534953 
Si 4.1856157437 7.1860952833 5.9195704771 
Si 9.3353643650 4.4494248681 2.8579321807 
Si 0.6572236256 9.6027459713 10.6452814959 
Si 10.4964209749 8.6188524701 7.1440253102 
Si 6.8687095949 1.2239322909 3.1216879844 
Si 2.2519859338 7.7557728411 8.5353097148 
Si 5.1102806947 0.3134740873 4.7052465629 
Si 8.0741396290 9.5343676018 2.8124923440 
Si 8.9189942684 10.5720936060 5.7792092638 
Si 10.1188043085 10.3674597113 8.6305083587 
Si 2.4761991620 0.1500506373 6.7617697494 
Si 7.1870123981 9.1055737994 4.9979661301 
Si 0.0801571089 9.2325195435 3.3621426750 
Si 9.0009907255 7.0991720004 8.4111792998 
Si 4.2647862078 5.7707206203 4.0778654247 
Si 1.2406856313 6.9821758850 0.1192537107 
Si 1.0349394683 5.8142089221 6.1678739638 
Si 8.4759531950 2.1377198343 4.6598813751 
Si 9.5384946181 6.1274142735 10.6409198687 
Si 5.9758770572 7.0076098231 2.4280079811 
Si 9.9474958044 2.9823185347 8.7085484255 
Si 10.0729912275 6.7527159073 3.7596479346 
Si 6.9023229170 5.0163830740 3.8746391945 
Si 0.3547015946 2.7287469703 4.0968369031 
Si 5.7748796291 0.4011182651 0.9625225947 
Si 3.3664723098 1.7412063384 1.1234975616 
Si 6.5362448338 3.3402172340 0.1047645773 
Si 1.2814225888 2.5823925188 1.8888298208 
Si 6.6128025872 3.6605995415 7.8232447600 
Si 8.1350424469 4.1617067755 5.9345642369 
Si 3.7448674573 3.8958821315 0.1704990970 
Si 4.2258621515 8.9795558343 9.3584202033 
Si 6.4944307996 0.2732266132 9.0076664678 
Si 8.2304863657 6.9543211905 5.4540707566 
Si 4.5294164698 1.9891259165 8.9904972265 
Si 3.8408872388 2.9852618332 3.3878858728 
Si 5.1847802719 8.8964929646 0.9654339008 
Si 5.0024450626 10.2987294256 7.0552784619 
Si 9.9984170013 3.5798827793 0.5411904806 
Si 2.6617016164 10.6254248951 10.1599891593 
Si 2.2201108641 7.4912918768 3.5812584515 
Si 10.5958852689 0.2578585426 1.6742996181 
Si 8.3816716659 1.4227435734 0.9280465450 
Si 0.7908173852 0.4422753891 4.9670614958 

