&CONTROL
   calculation      = 'scf'
   tstress          = .true.
   tprnfor          = .true.
   outdir           = './'
   disk_io          = 'none'
   pseudo_dir       = '/home/ppiaggi/pseudos'
/
&SYSTEM
   ecutwfc          = 30
   occupations      = 'smearing'
   degauss          = 0.01
   smearing         = 'fermi-dirac'
   input_dft        = 'PBE'
   ntyp             = 1
   nat              = 64
   ibrav            = 0
/
&ELECTRONS
   electron_maxstep = 100
   mixing_beta      = 0.5
/
&IONS
/
&CELL
/

ATOMIC_SPECIES
Si 28.085 Si_ONCV_PBE_sr.upf

K_POINTS gamma

CELL_PARAMETERS angstrom
10.58811349921452 0.00000000000000 0.00000000000000
0.00000000000000 10.58811349921452 0.00000000000000
0.00000000000000 0.00000000000000 10.58811349921452

ATOMIC_POSITIONS angstrom
Si 0.8945674745 1.9215837784 2.7199169481 
Si 6.2298765731 3.9063256538 8.9200832748 
Si 6.1285059745 7.7561001935 10.4179942796 
Si 8.9253455672 10.0232164678 8.3904340732 
Si 5.3107647927 7.7090572052 4.4147245116 
Si 4.4457476842 5.6144001235 7.8419592058 
Si 7.4631270929 8.0253982722 8.2834094220 
Si 1.0316517800 3.1217464435 6.0536586002 
Si 4.5158939361 2.9227746147 4.2325136664 
Si 0.6132254167 8.5495204785 7.5933608890 
Si 9.4551535905 6.8425259964 9.1166198375 
Si 6.9712245160 2.5495224376 1.1412609897 
Si 2.1731891195 3.8176925557 3.9680967080 
Si 5.5522478973 1.1781076247 4.9450619406 
Si 2.4727268504 7.7322981143 6.4516234341 
Si 7.0864443671 7.4196417108 5.9449504389 
Si 7.7748940949 2.1006711301 6.6806655054 
Si 2.2179662515 7.9131536810 3.7667637298 
Si 4.2473793778 3.4777823481 1.6357788307 
Si 0.6898018299 6.0044344605 4.4935424285 
Si 5.9111002400 9.8210046762 8.1156937041 
Si 2.8390332250 1.6577491662 8.8815107773 
Si 3.4860516647 2.9244475366 6.7760749961 
Si 8.2594696973 7.8269452609 2.1371683574 
Si 9.4762768769 3.2553790240 1.1438656657 
Si 0.4240422987 5.8760429962 7.3224428289 
Si 8.7400324047 4.6459689104 3.5456945080 
Si 2.4585493664 0.6778012621 5.2166576399 
Si 5.8974521617 5.1051965691 0.5283119228 
Si 2.8236275199 10.4760806703 1.5626149664 
Si 7.5001007853 1.2134613357 9.7821462997 
Si 2.3923948333 4.6176351187 8.2108490801 
Si 2.6261380269 8.4221137088 0.1859124497 
Si 3.7596061651 9.8959685198 7.2439002029 
Si 8.6662967823 0.3045310852 1.8716502351 
Si 9.6396514682 9.5713051955 0.2270197415 
Si 5.8161778025 6.5868865841 2.4073876020 
Si 3.9022492301 5.9960380865 5.3799475263 
Si 2.2222332612 4.9540406608 1.6555997792 
Si 9.0491417902 7.0998595069 4.2111574415 
Si 10.3791464912 1.0409947313 7.1836432490 
Si 3.7705966269 9.7748405013 3.9484239931 
Si 6.0125873079 10.2353281455 0.7123576881 
Si 6.7197674085 5.1429537819 6.3591997914 
Si 5.5828898978 1.8260789946 8.1662625342 
Si 7.5929267763 2.0185497218 3.7897717004 
Si 0.0751123948 5.4226176237 1.9640632898 
Si 4.1769366586 7.3913926240 9.1969306784 
Si 9.6567618596 9.4134893638 5.5870510264 
Si 6.7029746605 9.8177647135 3.0617118400 
Si 8.5468205096 4.6092175685 8.5595791864 
Si 9.4164963881 2.6122675982 9.2679875081 
Si 3.6987351006 7.0110146465 1.8486740288 
Si 0.6494113534 9.5761545515 3.0968220244 
Si 6.1901287950 4.4436830020 3.9696955131 
Si 9.9989802760 1.1024979062 4.4558275682 
Si 9.2733027411 4.2276537223 6.0326835473 
Si 1.3038944131 3.5258417952 10.3535020803 
Si 0.9281529705 0.8058189660 0.3847551036 
Si 0.4943516076 7.5660329680 1.1351728245 
Si 4.3199503077 1.4445363247 0.2641903728 
Si 8.3071903249 5.7268247127 0.5676838229 
Si 7.1829761979 10.0081178180 5.6751864831 
Si 1.7385470603 10.0087319285 8.8336630924 

