&CONTROL
   calculation      = 'scf'
   tstress          = .true.
   tprnfor          = .true.
   outdir           = './'
   disk_io          = 'none'
   pseudo_dir       = '/home/ppiaggi/pseudos'
/
&SYSTEM
   ecutwfc          = 30
   occupations      = 'smearing'
   degauss          = 0.01
   smearing         = 'fermi-dirac'
   input_dft        = 'PBE'
   ntyp             = 1
   nat              = 64
   ibrav            = 0
/
&ELECTRONS
   electron_maxstep = 100
   mixing_beta      = 0.5
/
&IONS
/
&CELL
/

ATOMIC_SPECIES
Si 28.085 Si_ONCV_PBE_sr.upf

K_POINTS gamma

CELL_PARAMETERS angstrom
10.54700645425726 0.00000000000000 0.00000000000000
0.00000000000000 10.54700645425726 0.00000000000000
0.00000000000000 0.00000000000000 10.54700645425726

ATOMIC_POSITIONS angstrom
Si 0.7459159375 0.5224670587 5.7033886632 
Si 2.9177449595 0.6191145524 0.0750238101 
Si 3.2496170646 10.2689240821 5.2942702828 
Si 6.3931101503 9.1848816647 3.1351082155 
Si 2.6876198257 0.6848297855 2.8821488127 
Si 10.5068012657 3.7371524380 3.5972463973 
Si 5.9294004645 6.4683208533 7.7434961216 
Si 10.3018729302 6.3566175079 1.7815792362 
Si 4.5623607699 3.8061509542 4.0323736956 
Si 8.8306393589 8.4531303569 4.1442774341 
Si 4.3309278073 4.5345166729 7.2969358684 
Si 7.1003818561 0.2865400166 4.2842045687 
Si 8.9272182970 9.4201010026 6.4306680403 
Si 7.1610482372 5.1518751487 4.9771850808 
Si 1.5733496878 3.3149874106 0.7279522761 
Si 2.8673619097 5.6885595721 9.2358553469 
Si 7.4478529837 7.2535349368 9.9791239857 
Si 3.3162846924 10.2261559709 8.2705089402 
Si 7.9178275913 5.2150411704 7.2717390700 
Si 3.6140794196 6.4632266492 5.2977191539 
Si 0.5545658182 0.7629092743 0.1818282819 
Si 8.5150729258 4.2584382320 1.8757429099 
Si 1.6107388257 7.6789378951 4.7963144671 
Si 6.3469459030 2.3209004113 1.2459284194 
Si 9.4494533216 6.5824078221 8.8309557691 
Si 1.3775234190 7.9839784158 9.6633255185 
Si 1.1774572535 4.6612811435 7.5701982586 
Si 1.2791620368 8.9629621019 7.1168351862 
Si 2.5554025528 2.0595877794 8.2122050885 
Si 5.4540679776 10.1900219268 6.4433139010 
Si 5.6976299977 9.8508723873 9.6926145554 
Si 4.9112873845 7.5366904191 10.1341333396 
Si 2.7137236667 7.2649995328 1.3660799170 
Si 3.8259793263 2.8965243825 2.0200470522 
Si 7.8253725327 1.1264202893 7.3089489087 
Si 6.8217721336 3.3538847704 8.6179062387 
Si 0.3059960795 5.1722097771 10.3104370995 
Si 0.1516163819 1.1236358796 8.3381785336 
Si 6.5676209191 8.3124965728 5.8958820780 
Si 9.4693449758 6.1082987880 4.4023837760 
Si 7.7468184287 6.8097590932 2.1253378176 
Si 9.3047905811 9.2594595473 8.9374699873 
Si 3.7927035210 7.6689182390 7.4725329788 
Si 2.1490474881 4.3329317385 5.0249208320 
Si 0.1645860357 8.8397519725 1.2434920610 
Si 9.1396982891 2.0781505107 5.3755455146 
Si 6.8865413002 4.8397259457 0.1223241809 
Si 0.3147015786 9.5039391570 3.5412734341 
Si 4.1379070422 3.2473178172 9.5939789511 
Si 9.6011720095 3.3004641827 7.8995285351 
Si 7.6905923373 0.7170614372 9.5863007304 
Si 3.6193951109 8.9137497698 2.8129077154 
Si 4.8432275518 5.5553930686 1.3200844218 
Si 5.7747708029 6.5613349032 3.7185264246 
Si 5.2019417883 0.0471367867 1.2915758634 
Si 8.2777547336 0.9616106571 2.2353852829 
Si 5.4019130307 2.1439427370 6.1948053349 
Si 2.8587344584 2.1691184414 5.9314043957 
Si 1.9191332944 5.3631316880 2.6501252177 
Si 0.2908252654 1.5249811162 2.6772099303 
Si 8.4461165976 9.4948054494 0.9734190855 
Si 7.1041260434 3.1097215710 3.9973787282 
Si 0.1664802781 6.6272747876 6.4664329391 
Si 9.1437905276 2.8640712437 10.3169235085 

