&CONTROL
   calculation      = 'scf'
   tstress          = .true.
   tprnfor          = .true.
   outdir           = './'
   disk_io          = 'none'
   pseudo_dir       = '/home/ppiaggi/pseudos'
/
&SYSTEM
   ecutwfc          = 30
   occupations      = 'smearing'
   degauss          = 0.01
   smearing         = 'fermi-dirac'
   input_dft        = 'PBE'
   ntyp             = 1
   nat              = 64
   ibrav            = 0
/
&ELECTRONS
   electron_maxstep = 100
   mixing_beta      = 0.5
/
&IONS
/
&CELL
/

ATOMIC_SPECIES
Si 28.085 Si_ONCV_PBE_sr.upf

K_POINTS gamma

CELL_PARAMETERS angstrom
10.87187084585909 0.00000000000000 0.00000000000000
0.00000000000000 10.87187084585909 0.00000000000000
0.00000000000000 0.00000000000000 10.87187084585909

ATOMIC_POSITIONS angstrom
Si 6.1407479380 8.1363559348 5.8618192196 
Si 6.9485823012 3.8897814387 6.3430190951 
Si 3.3092235355 3.0795878795 0.2584613344 
Si 10.7206105068 7.9868350951 2.1989228535 
Si 10.0471959547 2.2964652788 6.9877536519 
Si 1.1021793945 7.1231301876 8.8942666671 
Si 7.2383502749 2.3239602401 4.6224041994 
Si 7.1687376858 3.0541477018 2.1475423919 
Si 6.9605957185 9.0931349286 8.3122954207 
Si 8.1715481808 6.9457447429 2.9610953592 
Si 10.6405391780 4.2722429832 2.3304507470 
Si 2.2669916369 5.1684656564 8.8552149070 
Si 6.5901584632 9.1642478358 1.6894343701 
Si 5.1294356400 5.1873609679 0.3199287178 
Si 2.1489122477 1.6672013942 8.2820063886 
Si 7.8714628017 9.1344480379 10.5701546861 
Si 4.7653040698 8.1842247822 9.6783677363 
Si 7.9301817761 2.7754364208 10.4450846839 
Si 6.0709831428 10.7334284425 10.1268541524 
Si 9.1726844076 0.9762918276 5.4038416602 
Si 1.1173239106 3.4016018221 4.4632943696 
Si 1.7857482739 9.8785514942 8.2530002372 
Si 4.2635563584 8.1183521167 4.5904408991 
Si 3.5595809774 5.9667653888 4.9890254281 
Si 2.7508333770 3.6586345927 7.0476141727 
Si 9.8715500093 9.7147232724 5.2775866241 
Si 9.2294899328 5.5483288237 1.0211198126 
Si 10.2570774214 8.3081641098 10.3456288094 
Si 1.0114895094 2.5613584119 0.6366252283 
Si 7.1581484836 10.8454413278 3.0674766154 
Si 6.5393107232 6.6874725791 9.4225961028 
Si 2.8869818156 5.4524063073 0.4253945625 
Si 0.4012818401 3.0697597083 9.0963964899 
Si 1.3131263045 9.9851284441 0.0062865397 
Si 4.2739063794 0.7297601971 6.0049256555 
Si 2.6542911639 7.9360743301 1.6274647063 
Si 5.6714745048 5.2010051658 2.5649461293 
Si 10.7119999851 0.4441333190 1.2862075523 
Si 7.8990447380 5.3990906526 7.9828668622 
Si 9.5308038333 5.4432739358 5.8586011458 
Si 6.8851231911 0.7609439842 6.6976595221 
Si 8.5224595561 1.6131790680 8.2298322804 
Si 5.6569714291 10.2976403715 4.8016596059 
Si 0.3796870430 4.3963671326 7.2052889156 
Si 6.5828199503 5.9584484077 4.6857437190 
Si 3.5063088102 4.0192328049 3.3568749455 
Si 8.3292120518 8.5302329437 6.2255376587 
Si 0.8729275155 6.2418454650 1.1460908808 
Si 8.4586851617 0.4550628108 1.1749230823 
Si 0.3007746557 10.1006964311 3.2663774925 
Si 9.7763341645 4.8863732235 9.7193655612 
Si 2.3862125726 9.1796967643 4.1306694810 
Si 10.1220487855 7.6718987404 7.5576462497 
Si 1.1819028234 10.4013580194 5.8848675858 
Si 4.3995960783 2.1621433145 1.9161237491 
Si 4.3704159769 1.4666153771 9.7312920035 
Si 1.4871088537 6.4273848128 4.4501394059 
Si 4.7233712640 10.5756014934 1.2216721269 
Si 3.9632861575 9.5735302857 7.6513943920 
Si 5.0503319078 7.2315879712 1.3168336125 
Si 4.6077815331 4.5883208843 8.2025221408 
Si 9.3860883605 3.0192055089 4.0919003896 
Si 5.9401401771 3.1505377087 9.7944575732 
Si 2.4279605567 1.5106355822 4.5072819590 

