&CONTROL
   calculation      = 'scf'
   tstress          = .true.
   tprnfor          = .true.
   outdir           = './'
   disk_io          = 'none'
   pseudo_dir       = '/home/ppiaggi/pseudos'
/
&SYSTEM
   ecutwfc          = 30
   occupations      = 'smearing'
   degauss          = 0.01
   smearing         = 'fermi-dirac'
   input_dft        = 'PBE'
   ntyp             = 1
   nat              = 64
   ibrav            = 0
/
&ELECTRONS
   electron_maxstep = 100
   mixing_beta      = 0.5
/
&IONS
/
&CELL
/

ATOMIC_SPECIES
Si 28.085 Si_ONCV_PBE_sr.upf

K_POINTS gamma

CELL_PARAMETERS angstrom
10.68488525485506 0.00000000000000 0.00000000000000
0.00000000000000 10.68488525485506 0.00000000000000
0.00000000000000 0.00000000000000 10.68488525485506

ATOMIC_POSITIONS angstrom
Si 1.7710090461 2.6040454401 7.8970384186 
Si 6.4052040544 0.1317852378 10.2055078779 
Si 8.8239735842 6.0875744704 2.7755164787 
Si 4.1251457050 10.2500211099 9.8629504566 
Si 3.2834118144 8.8142823933 1.0878067980 
Si 0.7213205762 3.6239177377 4.1504261435 
Si 6.7033123530 3.1368792980 8.1234831918 
Si 5.9698484047 1.4553668508 1.3925290406 
Si 8.2686053033 6.4595366959 8.4475985011 
Si 4.8084013775 6.8034724674 3.8736341910 
Si 10.0964258843 6.2255483937 0.5365212118 
Si 6.1322159210 9.9377767081 6.3158143044 
Si 0.3298370654 8.3431644326 6.2463946049 
Si 0.7400148515 7.9919522543 0.2241977418 
Si 10.2791801617 9.7741376904 1.7093893128 
Si 5.2451460623 5.2606391459 8.0109179256 
Si 8.4119430390 10.0285020688 5.3996281333 
Si 0.3013703941 9.4399251645 3.8831971633 
Si 4.1442075403 9.6780805719 5.0336814982 
Si 5.8123531961 3.9481505808 0.6931402599 
Si 8.7589346877 8.4560395605 3.1060747738 
Si 8.4001789804 2.4122196951 3.3452986698 
Si 2.3799833963 0.1769919188 5.8902353247 
Si 5.6953964421 7.1221171155 6.6400044079 
Si 2.6768843029 6.3198104515 8.7229800488 
Si 2.3875589800 5.2417162141 3.8858363299 
Si 1.7488806487 7.6974127074 4.3471883055 
Si 10.4834858527 5.6532232000 4.8638025076 
Si 8.4133000194 3.8608230136 6.5846460174 
Si 6.9854574331 7.4913546952 4.4305197256 
Si 6.0619521156 8.1926678238 1.6903381624 
Si 3.1621704214 7.5719614696 6.5946470700 
Si 3.9778438769 5.5528921274 1.1468194193 
Si 2.5556963343 3.7325402812 1.9494786845 
Si 5.1460971760 6.9840897678 9.8871837764 
Si 1.3755507579 1.2424384574 4.1750334343 
Si 2.6741489723 9.8779520355 7.9377798861 
Si 5.4925118408 1.0367234301 4.2615275804 
Si 10.4491018919 2.8324989718 2.1344874727 
Si 1.5651647317 0.7446980367 9.9325624841 
Si 7.3263693820 8.9079460974 9.0815220584 
Si 6.4456249753 5.7447606119 1.9170286880 
Si 0.1459085191 6.3473881403 8.5520432545 
Si 3.5825886015 2.5054773736 5.6769756999 
Si 1.5760526297 4.9814644640 0.1469673912 
Si 0.1236935742 9.0789790557 8.9655055743 
Si 7.7325232403 4.2663892032 10.0484293798 
Si 5.0221418221 10.2458005802 2.3937348436 
Si 7.8559977743 9.2995898816 0.9188210638 
Si 4.4550629070 4.5897779403 4.5165330519 
Si 5.8289681926 1.5001685747 6.6865905076 
Si 3.3014158460 1.7043460470 2.9071328953 
Si 7.5367013482 0.2957191583 3.2221874219 
Si 9.7646708821 3.1674487547 10.5151985921 
Si 10.0503312893 0.7236071417 0.2545075558 
Si 9.2217077529 1.5874427174 6.8573242891 
Si 0.1129777027 3.8500099097 7.3108869833 
Si 3.9524993290 2.8774823387 8.4204375228 
Si 8.0226606145 1.6789694445 9.2542325437 
Si 3.3944384571 1.6592451463 0.5092459052 
Si 9.5376811797 10.0861149701 7.3871022698 
Si 8.2430363729 5.9044996465 5.6828951263 
Si 2.0677176247 6.9779245890 2.0976246186 
Si 7.7857446538 6.6443211015 0.0190145013 

