&CONTROL
   calculation      = 'scf'
   tstress          = .true.
   tprnfor          = .true.
   outdir           = './'
   disk_io          = 'none'
   pseudo_dir       = '/home/ppiaggi/pseudos'
/
&SYSTEM
   ecutwfc          = 30
   occupations      = 'smearing'
   degauss          = 0.01
   smearing         = 'fermi-dirac'
   input_dft        = 'PBE'
   ntyp             = 1
   nat              = 64
   ibrav            = 0
/
&ELECTRONS
   electron_maxstep = 100
   mixing_beta      = 0.5
/
&IONS
/
&CELL
/

ATOMIC_SPECIES
Si 28.085 Si_ONCV_PBE_sr.upf

K_POINTS gamma

CELL_PARAMETERS angstrom
10.73986510643824 0.00000000000000 0.00000000000000
0.00000000000000 10.73986510643824 0.00000000000000
0.00000000000000 0.00000000000000 10.73986510643824

ATOMIC_POSITIONS angstrom
Si 9.5849644521 1.3490774155 0.3292660064 
Si 7.2666893898 1.7876612868 0.8739801507 
Si 2.6695330905 4.1298218091 1.6080585227 
Si 9.1264688708 9.4068223096 8.3257045285 
Si 0.8406887169 10.5278923888 0.9524166076 
Si 1.2631584946 4.8963689412 8.8985152339 
Si 4.0835437304 2.2374468375 1.4686121141 
Si 5.7567395349 1.3951621767 9.2031085482 
Si 1.2975690224 4.4403327891 5.1778285861 
Si 8.1718237412 6.2897590401 6.2840132123 
Si 8.1929383160 6.9503251834 9.0690965114 
Si 8.0701494383 4.6421885537 1.0207404074 
Si 2.8642683246 9.5817317527 1.7452280798 
Si 0.5024710329 8.7540533084 8.7667585688 
Si 4.2347610311 3.7939540076 3.6799395997 
Si 5.4741522042 0.6905711784 4.4785559690 
Si 9.6589406429 9.0751752751 1.8379453353 
Si 8.0941315571 2.5129780768 2.9224139542 
Si 6.1285321851 10.0162774348 6.8706031647 
Si 8.8040151609 3.0063567399 6.3897794039 
Si 10.1665066679 0.4791880794 5.1367486020 
Si 4.7334559274 5.8504663377 2.6726583912 
Si 6.0450726934 6.7520887532 7.9810729971 
Si 1.0562711032 6.7790780342 10.1625114380 
Si 5.0768631142 0.1366475997 1.9649442401 
Si 4.6687482401 6.3873092349 0.2084113783 
Si 4.0050567962 0.0064802842 6.3123234967 
Si 2.4003705912 8.5010650459 7.4739258269 
Si 10.5910750153 7.2153743143 6.2643377794 
Si 1.7813462461 1.6846230210 6.1129056814 
Si 2.8951776563 1.2089006961 3.9953586980 
Si 7.7939630672 3.3126469529 9.3042028985 
Si 4.4474962791 4.4049556734 8.5556343006 
Si 2.7660952176 6.2840346920 7.6825799262 
Si 6.7367951853 10.4087443253 0.0402916779 
Si 5.6359912315 3.4894895717 0.2270074548 
Si 10.1103479132 5.6663206106 4.5220631625 
Si 8.4111616351 9.5287842177 6.2669368268 
Si 10.1393240693 1.6562375575 8.7745234913 
Si 0.4891041968 3.5582247084 7.3825617944 
Si 4.9353224320 8.3213119237 2.0488118468 
Si 10.4634317185 3.2850777192 3.3872782755 
Si 10.0268884215 3.7974766834 10.3388385434 
Si 7.2027764526 5.4107440406 3.0814176571 
Si 4.9816112506 9.3597602207 8.8864436256 
Si 3.0903639648 8.0554143434 10.4730975971 
Si 4.0706021929 7.7338735219 5.9611191679 
Si 2.1630947514 5.9139174607 3.4830134331 
Si 2.7081321656 8.5391056482 4.1717932019 
Si 3.7582654359 0.3146909355 10.5594998118 
Si 6.4674071489 3.1861206021 4.7528521238 
Si 3.8629576409 3.1682494665 5.8446668105 
Si 8.1743476095 1.0509559439 8.1230754935 
Si 8.1988667216 10.6991717575 3.5620266207 
Si 8.9333875759 7.0148717727 3.2121755148 
Si 7.7005477205 8.0402603937 4.6643663752 
Si 1.2000832669 0.1921340388 8.0744776039 
Si 10.3889292742 9.0785368529 4.2302610276 
Si 9.7682724697 6.4785766086 0.6231548971 
Si 3.8820423812 2.0217688664 7.7566849954 
Si 8.1489585684 8.8704841860 10.4711966409 
Si 0.9553292590 1.9753833890 1.4774402832 
Si 5.2526102668 8.7841356706 4.1506678873 
Si 0.6876338253 7.7778962290 2.8500809628 

