&CONTROL
   calculation      = 'scf'
   tstress          = .true.
   tprnfor          = .true.
   outdir           = './'
   disk_io          = 'none'
   pseudo_dir       = '/home/ppiaggi/pseudos'
/
&SYSTEM
   ecutwfc          = 30
   occupations      = 'smearing'
   degauss          = 0.01
   smearing         = 'fermi-dirac'
   input_dft        = 'PBE'
   ntyp             = 1
   nat              = 64
   ibrav            = 0
/
&ELECTRONS
   electron_maxstep = 100
   mixing_beta      = 0.5
/
&IONS
/
&CELL
/

ATOMIC_SPECIES
Si 28.085 Si_ONCV_PBE_sr.upf

K_POINTS gamma

CELL_PARAMETERS angstrom
10.79915031539581 0.00000000000000 0.00000000000000
0.00000000000000 10.79915031539581 0.00000000000000
0.00000000000000 0.00000000000000 10.79915031539581

ATOMIC_POSITIONS angstrom
Si 4.0144545399 2.7481029774 3.5137627347 
Si 3.2335895789 8.9057028931 6.7065855212 
Si 7.6968676051 9.0736404797 0.5216313577 
Si 6.2796735110 2.6375844730 1.2836302031 
Si 6.0417574304 10.3323138464 5.7305367174 
Si 8.1714794624 8.4770090231 5.5314867788 
Si 0.0244049998 8.1746976091 3.8724349141 
Si 10.6382753731 5.3442511106 10.0414495318 
Si 7.6984550802 1.0913297334 6.5162180995 
Si 1.6174427385 1.5013194751 9.6354878732 
Si 3.6422726235 4.7783864333 6.9749444066 
Si 5.9024591904 4.3281590575 6.6652355747 
Si 1.5975183062 0.2139786840 2.2302405231 
Si 0.6078323353 10.0593761213 7.9795029672 
Si 2.1012554718 4.2811395570 9.3659626796 
Si 1.0320434781 4.2257183176 1.2531658000 
Si 5.9363901207 7.0960676765 2.3922385770 
Si 6.9696312246 4.5171225897 4.1864310087 
Si 10.1917413068 10.0997757427 5.4643376621 
Si 9.0817290433 2.5563748627 1.8135445091 
Si 7.5580553270 0.6135288871 0.8901825998 
Si 6.9934541502 9.7427342349 8.0108852980 
Si 8.8897525481 6.9204302958 10.4482535242 
Si 1.3144725764 2.4472926453 2.8776387854 
Si 3.8641195684 9.9597431605 2.6277788445 
Si 4.6300385054 0.1176405440 7.9544057419 
Si 6.2133991255 2.3593983609 7.8291787948 
Si 2.0578428875 8.4939312916 9.0671501904 
Si 3.6802424360 3.5950803366 0.1607043157 
Si 9.0561782536 0.9288025212 3.9542492769 
Si 10.0296892571 5.6159577326 4.5287640737 
Si 3.8930828895 6.8402898013 10.6860724124 
Si 9.5270428057 2.4401976036 6.2079563537 
Si 9.7744621386 9.8856285919 2.1608667815 
Si 10.7475627743 4.7059997287 6.8052357594 
Si 6.1033665829 5.0734624165 0.8325680530 
Si 5.1232249011 8.9909945823 9.3933277265 
Si 9.1684678186 3.8209877620 9.8174643551 
Si 7.8893840578 6.3385936751 6.1385718129 
Si 4.5839909284 5.1441752527 3.2160733571 
Si 5.4903528152 7.8631745200 4.6288397997 
Si 8.0766521234 4.1523488903 7.8600427664 
Si 7.7286063079 8.9541154840 3.2618293570 
Si 0.1101405341 7.1992751561 8.2153672092 
Si 1.7041923130 6.3440580451 0.0138505582 
Si 2.4944741331 1.7215681458 4.9195313279 
Si 1.6005852648 2.6887724455 7.1017588287 
Si 6.7272118983 1.0752962349 9.6676477428 
Si 10.1811905369 2.0844195964 8.6392986540 
Si 5.8249320903 3.4294861657 10.1118599919 
Si 2.4031133214 0.4660060143 7.1877524627 
Si 3.7722619958 6.7806568932 7.9117490981 
Si 8.1049350981 5.7377505498 2.7206407381 
Si 4.4468201211 0.6617211753 10.2981669331 
Si 3.0312243012 6.5837235881 2.4124437873 
Si 9.9787496651 4.3541958089 2.7288480923 
Si 6.9384864751 1.9157692660 3.3195940121 
Si 0.4234087659 9.8244190079 10.5064393461 
Si 2.3133615831 9.8866221137 4.6422091478 
Si 0.4458893571 7.9298484740 1.4167837265 
Si 8.4649679705 6.8201493859 8.0775808504 
Si 3.8825429188 1.2462111472 1.6764600950 
Si 8.9284351046 0.1044115848 8.8246336717 
Si 3.5908578688 6.6294687888 5.1357195180 

