&CONTROL
   calculation      = 'scf'
   tstress          = .true.
   tprnfor          = .true.
   outdir           = './'
   disk_io          = 'none'
   pseudo_dir       = '/home/ppiaggi/pseudos'
/
&SYSTEM
   ecutwfc          = 30
   occupations      = 'smearing'
   degauss          = 0.01
   smearing         = 'fermi-dirac'
   input_dft        = 'PBE'
   ntyp             = 1
   nat              = 64
   ibrav            = 0
/
&ELECTRONS
   electron_maxstep = 100
   mixing_beta      = 0.5
/
&IONS
/
&CELL
/

ATOMIC_SPECIES
Si 28.085 Si_ONCV_PBE_sr.upf

K_POINTS gamma

CELL_PARAMETERS angstrom
11.02632003433754 0.00000000000000 0.00000000000000
0.00000000000000 11.02632003433754 0.00000000000000
0.00000000000000 0.00000000000000 11.02632003433754

ATOMIC_POSITIONS angstrom
Si 8.6792354992 8.3898938352 8.0574833651 
Si 0.1692937073 4.8841856435 9.6935466791 
Si 3.2409883003 2.3438538234 8.4821510549 
Si 3.8839330215 7.7404325588 9.8143400151 
Si 6.8526814802 6.2144449977 8.2026228157 
Si 9.5494437026 10.4632830544 6.1512311049 
Si 10.4332253060 2.6392709897 6.0446948007 
Si 7.8538492867 10.6460002037 0.4971117151 
Si 6.0643216504 6.3437506527 4.7548910147 
Si 7.5945984501 4.4228885185 9.5565997843 
Si 1.2139647568 2.2778282190 4.3253827704 
Si 5.2800084800 4.1341974074 10.3947765281 
Si 4.5177589761 6.2639200957 2.4357251219 
Si 10.6079924786 9.1230228279 9.7844586878 
Si 2.0950228592 5.7612411916 2.1391281393 
Si 7.9205585229 10.8774757402 7.8721970832 
Si 10.1010133097 6.1208205143 0.2125830397 
Si 3.0511260957 7.2771396699 4.3735677890 
Si 4.7721692582 1.1101960590 4.6031467984 
Si 0.4109763082 7.5714431780 4.9928500274 
Si 6.6241609975 10.7571785886 3.8103543879 
Si 2.5651630928 5.3492206909 9.8522815824 
Si 0.5442646701 7.9217934707 2.0726945611 
Si 5.3147744671 3.2422783798 3.9451511504 
Si 1.5116312925 0.9098500292 2.2957900943 
Si 8.2931378769 8.0854350864 0.2254165736 
Si 9.6390325529 0.2045580840 9.6801276477 
Si 6.1155168543 2.8008617098 6.1006644012 
Si 2.9063725663 10.3151444448 6.0842572370 
Si 4.5229192938 6.0916007662 7.1214259784 
Si 3.4862798158 4.5654698629 4.6406914181 
Si 2.9641835622 8.0747946875 1.4289338922 
Si 2.2350019920 3.8430474268 0.9564362314 
Si 7.2745925900 4.8619124770 3.3420004182 
Si 2.0693646124 1.5668841822 10.9836261232 
Si 4.0857367308 10.8737488440 8.5026269312 
Si 9.7047604466 7.0559627164 3.1767158809 
Si 10.9404691066 0.3363281216 0.6949106649 
Si 6.1842880124 0.0185689845 9.7094245800 
Si 8.6220860825 3.8302017640 4.8994460704 
Si 10.9957991805 4.1914681136 4.2144249119 
Si 8.0121651898 1.9363320612 3.7612431585 
Si 6.4238348151 7.6836690633 1.9913203192 
Si 7.9603745645 5.8271565328 1.3612322872 
Si 9.1543486031 2.4405215711 10.3649282797 
Si 9.6339714720 9.4557420350 2.0123916168 
Si 8.1910451797 7.1549129124 5.5226757314 
Si 6.0377812981 7.0573740853 10.7124668609 
Si 8.1468627153 3.3234872268 7.4711587973 
Si 4.5992434811 9.2038898591 4.7813982881 
Si 4.3937128757 2.9144107536 1.3106545572 
Si 8.3460862657 8.9193446443 4.0432523197 
Si 1.7968270602 10.4144474830 9.3627019465 
Si 3.9702139758 3.5813707998 6.8812837544 
Si 9.6507425048 2.4905479851 2.0071210359 
Si 10.4895918540 4.4641049028 1.6898607295 
Si 2.7810694654 1.5740512902 6.0984370846 
Si 3.8170804432 8.3554806903 7.6207749338 
Si 2.1784369702 5.7112478566 7.5561827511 
Si 1.1744133469 3.3159672766 7.1925898479 
Si 0.7239198103 10.2480051821 7.0659305097 
Si 6.1840013281 10.7661099078 6.2012575189 
Si 0.1289770707 2.6015389226 9.1882324846 
Si 2.9217212037 9.9874091344 2.7165765195 

