&CONTROL
   calculation      = 'scf'
   tstress          = .true.
   tprnfor          = .true.
   outdir           = './'
   disk_io          = 'none'
   pseudo_dir       = '/home/ppiaggi/pseudos'
/
&SYSTEM
   ecutwfc          = 30
   occupations      = 'smearing'
   degauss          = 0.01
   smearing         = 'fermi-dirac'
   input_dft        = 'PBE'
   ntyp             = 1
   nat              = 64
   ibrav            = 0
/
&ELECTRONS
   electron_maxstep = 100
   mixing_beta      = 0.5
/
&IONS
/
&CELL
/

ATOMIC_SPECIES
Si 28.085 Si_ONCV_PBE_sr.upf

K_POINTS gamma

CELL_PARAMETERS angstrom
10.73487418328656 0.00000000000000 0.00000000000000
0.00000000000000 10.73487418328656 0.00000000000000
0.00000000000000 0.00000000000000 10.73487418328656

ATOMIC_POSITIONS angstrom
Si 7.3640485456 1.3919589307 8.5449383801 
Si 9.0127427273 2.7079686266 3.4866119906 
Si 10.1061218675 6.0056146270 8.3129362793 
Si 1.1320354221 7.2192887673 9.8539274683 
Si 3.0739741619 4.6824018305 10.6902278416 
Si 7.4752725770 5.9684719623 10.2733497375 
Si 2.7917221150 4.0359047677 2.1413927021 
Si 4.3196274924 2.1144589028 2.0223644171 
Si 0.2437514206 4.3648535173 6.9120781379 
Si 0.6709897518 3.3096583246 3.3625919892 
Si 8.0286660761 7.4065264428 1.6343631247 
Si 0.8856238997 1.3018396620 0.8327696731 
Si 1.9354656106 0.2122520793 8.0910249602 
Si 2.8325790461 0.4387622185 2.7172220881 
Si 4.0183961879 6.8050407074 7.8512400755 
Si 5.1496050247 5.9671086333 10.5749030882 
Si 6.1198658929 3.8057812698 2.9633942229 
Si 10.0364310643 10.4631637828 7.6777859785 
Si 5.3660093534 7.3772846455 5.9734529439 
Si 10.0884844692 8.6068786042 1.9787915628 
Si 6.8987990985 0.8990016999 6.1894278776 
Si 5.3242614277 6.7769153370 2.1383010583 
Si 1.2690875608 9.9314439948 10.1366196451 
Si 3.4177477727 5.9084532807 3.4142911432 
Si 6.9473099949 3.8949558697 0.8323005591 
Si 7.8957468639 7.6220827164 7.6778396529 
Si 5.0522182461 4.3269272068 8.2120821363 
Si 10.4911281301 0.3314875473 3.2369939612 
Si 9.8995721533 8.9041487401 4.5332944281 
Si 4.5798301077 0.3467160399 6.7874569835 
Si 8.7584013533 1.0047369901 1.2634195473 
Si 10.1464420549 4.7781032339 2.2114806956 
Si 3.1957720444 2.1514727489 8.4751509631 
Si 6.2985908132 9.8963838957 4.6034683006 
Si 9.6208626149 0.4769966199 9.9059808732 
Si 5.4045153471 2.1402548054 0.0346229750 
Si 7.0794777659 3.8388446823 9.1520813942 
Si 7.7066413203 5.1923405588 7.2965369219 
Si 7.7578896097 9.5310117180 9.0859438344 
Si 9.6837367730 5.7279571062 5.3614470318 
Si 6.3047633658 1.3694908391 3.1734113014 
Si 1.3552134564 6.2918600471 4.5798515774 
Si 9.9744264310 4.8938037078 10.4642480051 
Si 8.7509191460 6.0382486445 3.2994065197 
Si 1.9751417056 8.1020067365 6.0670288422 
Si 5.5114668986 8.5722264303 9.3892899090 
Si 1.3735486215 6.5578916991 1.5235899580 
Si 7.0072964719 5.2180398476 4.6621451229 
Si 4.7905556879 8.2240622559 3.8457364715 
Si 3.8168059856 9.2762731536 1.6688435405 
Si 6.4357288309 3.1148525628 5.4292377623 
Si 10.0478959099 7.9233354906 6.7207290056 
Si 8.9750096446 3.3728115894 8.0231054112 
Si 0.8153695156 0.9336764170 5.6932619929 
Si 5.6823446258 10.5342501197 0.3158275129 
Si 9.1738087796 7.9944325623 10.6067963994 
Si 3.2690268258 9.2818660231 7.6568529738 
Si 1.8913452777 9.0525583757 3.1628052457 
Si 9.3367963743 1.7297532166 6.0395368294 
Si 1.9782870237 3.8568685361 5.3177453590 
Si 4.3966824192 3.0350387732 6.4569409423 
Si 1.4233477028 3.2349543351 9.8426343807 
Si 2.8162513025 10.4843973640 4.8715932531 
Si 3.7092854858 0.0144789836 9.9231137324 

