&CONTROL
   calculation      = 'scf'
   tstress          = .true.
   tprnfor          = .true.
   outdir           = './'
   disk_io          = 'none'
   pseudo_dir       = '/home/ppiaggi/pseudos'
/
&SYSTEM
   ecutwfc          = 30
   occupations      = 'smearing'
   degauss          = 0.01
   smearing         = 'fermi-dirac'
   input_dft        = 'PBE'
   ntyp             = 1
   nat              = 64
   ibrav            = 0
/
&ELECTRONS
   electron_maxstep = 100
   mixing_beta      = 0.5
/
&IONS
/
&CELL
/

ATOMIC_SPECIES
Si 28.085 Si_ONCV_PBE_sr.upf

K_POINTS gamma

CELL_PARAMETERS angstrom
10.72680960097855 0.00000000000000 0.00000000000000
0.00000000000000 10.72680960097855 0.00000000000000
0.00000000000000 0.00000000000000 10.72680960097855

ATOMIC_POSITIONS angstrom
Si 7.5702420665 10.0212644263 4.4174503690 
Si 8.7866622753 6.5509055306 0.2102776486 
Si 8.1319085440 8.2541083590 8.9193207296 
Si 0.2853674612 0.6564775295 7.3956632403 
Si 8.9021578342 1.0764567971 9.3828261725 
Si 9.1786306249 5.7145254592 4.4165385902 
Si 8.2867393138 5.5098042979 6.8103119671 
Si 1.3743188461 2.2549684607 10.7051199920 
Si 8.6059048067 7.6777246987 5.6033635313 
Si 0.2106852674 8.3254845501 10.6367151271 
Si 5.1677156129 6.9692403782 9.5590676542 
Si 6.2505119545 8.9849688044 10.4707606558 
Si 4.4557021721 4.2187362212 3.6520388699 
Si 2.9526830644 10.0179498421 3.6044761962 
Si 5.5509630664 3.0510693620 10.2702336771 
Si 5.0176153662 9.3228311264 2.0821488312 
Si 3.7359439746 5.4810671750 7.1468870720 
Si 10.2062268042 1.2159375023 0.5126235040 
Si 9.0576643930 2.5025646799 3.7514978486 
Si 2.6401145594 7.9408533382 4.7910007866 
Si 1.5138531854 3.8444242001 4.7762943306 
Si 10.6010163048 4.0951311941 6.4741337542 
Si 9.5893923449 7.1418561983 2.2861834766 
Si 1.4214524475 9.9649057686 9.2303982080 
Si 9.9361579189 9.7928477426 8.8652897896 
Si 6.4020817742 0.8055598021 9.8364414969 
Si 4.7483831720 0.5462273805 8.2288252688 
Si 6.4689741588 6.9704310541 0.9713834063 
Si 9.7963661362 4.2619545370 0.1364954341 
Si 4.9733350962 8.1168373765 4.1806775007 
Si 2.9907417848 5.6366273678 4.9487814290 
Si 8.2169614174 1.4957141503 1.4586744768 
Si 7.4450172912 3.7746033964 1.1484015091 
Si 5.5345295941 3.6304350754 5.5956402284 
Si 10.4891035002 8.5716541036 6.8671426044 
Si 8.7000861950 0.8605239744 6.0649596020 
Si 5.9181310322 5.9791236716 6.4861263274 
Si 5.6034707994 8.4259303952 6.5002857160 
Si 1.8723217086 3.3130609597 2.3479377195 
Si 0.5370205598 2.7614025956 8.6467417708 
Si 2.1583413598 7.3018358367 7.1290483876 
Si 10.4124282652 4.2075803392 2.5850752994 
Si 3.3678642300 3.7110577764 8.7740260935 
Si 3.5774017287 8.9731264066 7.9576622489 
Si 10.7127682072 9.3536492503 1.9361676794 
Si 7.5523390213 5.8368325422 8.9422761021 
Si 10.0231308912 10.0312832665 4.8041089479 
Si 5.7398514566 0.1243955929 6.0741202974 
Si 4.1547508019 2.0944739354 1.9713301612 
Si 0.9755175187 6.2473904529 9.9837634999 
Si 4.3184311896 1.2551976255 4.7367767640 
Si 1.3080057091 0.6207186371 2.1564105341 
Si 3.6291264046 5.4625312480 10.2172968717 
Si 2.8130307302 10.0054745626 0.5929104558 
Si 6.9414793949 4.7167283569 3.3903583497 
Si 3.3053483836 2.4824090047 6.4858045231 
Si 1.3925115152 0.4889118914 4.8304861727 
Si 0.0878472072 7.6295720504 4.4769734355 
Si 0.2408436926 6.0377564129 7.8004394005 
Si 6.2347757248 2.1802562318 3.3853703833 
Si 3.5891797657 1.2281660653 10.3679870930 
Si 8.0709802655 9.8216063192 1.8314954713 
Si 5.1455754779 6.3539398527 2.7120592714 
Si 3.0166470300 5.5527222631 1.6456105877 

