&CONTROL
   calculation      = 'scf'
   tstress          = .true.
   tprnfor          = .true.
   outdir           = './'
   disk_io          = 'none'
   pseudo_dir       = '/home/ppiaggi/pseudos'
/
&SYSTEM
   ecutwfc          = 30
   occupations      = 'smearing'
   degauss          = 0.01
   smearing         = 'fermi-dirac'
   input_dft        = 'PBE'
   ntyp             = 1
   nat              = 64
   ibrav            = 0
/
&ELECTRONS
   electron_maxstep = 100
   mixing_beta      = 0.5
/
&IONS
/
&CELL
/

ATOMIC_SPECIES
Si 28.085 Si_ONCV_PBE_sr.upf

K_POINTS gamma

CELL_PARAMETERS angstrom
10.85168655768017 0.00000000000000 0.00000000000000
0.00000000000000 10.85168655768017 0.00000000000000
0.00000000000000 0.00000000000000 10.85168655768017

ATOMIC_POSITIONS angstrom
Si 4.9192105885 6.5733765773 8.3149311978 
Si 7.6628967593 10.7734024909 9.9283925103 
Si 2.0943755056 5.2962741413 1.6524839773 
Si 9.0367636843 7.0617024724 7.0453598324 
Si 5.8638282000 9.7150592043 1.6070479657 
Si 1.4990085743 1.3212036901 0.2287698302 
Si 7.0382628294 7.1888299804 5.7950502106 
Si 3.8427883921 1.9948655399 7.3827713225 
Si 6.1580065709 0.4820796643 5.9449771121 
Si 5.1459999859 7.5768103299 3.9872677469 
Si 8.2824738033 5.9632947590 9.9884348920 
Si 6.1717448061 9.1019389137 7.9514539566 
Si 1.7800347011 0.8298892405 3.9991937505 
Si 0.2955858346 10.1307222062 10.4331261555 
Si 4.7344497732 2.9479040601 2.8865052176 
Si 8.4537459723 10.8344215244 7.5961263319 
Si 2.1507825724 2.4541740251 8.9269337646 
Si 7.5329152577 3.9645226119 0.8223375518 
Si 3.4880467585 3.8634065966 5.9459863189 
Si 7.2241739235 4.5617126266 8.2937270023 
Si 5.9844772511 9.7584550988 3.9598672384 
Si 2.4191664843 3.4947422492 3.8893963859 
Si 7.3537864677 6.7960314820 3.1893106793 
Si 10.5288054758 9.1282651053 6.9472822893 
Si 2.7668328182 10.7122857922 8.2369184232 
Si 0.1406953717 6.1767582853 10.7187533973 
Si 5.5412509654 4.7784316588 1.4755146729 
Si 5.5007958779 5.2902080486 6.4975992500 
Si 9.1250313027 3.3448587544 2.6654780658 
Si 6.0451815857 7.4384513263 0.9621778107 
Si 8.2977746814 2.6403238563 7.7486576382 
Si 5.4632924492 5.2650863942 3.7069903865 
Si 2.0644574058 8.0900516973 5.3069847560 
Si 3.8917620536 9.9777459808 10.7277602972 
Si 0.3172675044 1.3505357988 2.3657110763 
Si 9.3725040147 8.3264014305 2.3972786325 
Si 10.3247286584 7.4432477717 4.2191465853 
Si 1.0030680508 4.3060685946 6.9777429735 
Si 3.7357039492 5.4617732130 10.0090639482 
Si 10.2650877891 3.0211095377 10.2738668035 
Si 8.6913870562 3.0382769058 5.2781301214 
Si 3.8563638520 3.0944560871 0.0854736347 
Si 2.9279912153 0.5466244108 1.7562369525 
Si 1.3408560944 8.4476039177 8.9890705219 
Si 0.5005264463 3.8204013628 2.1212551332 
Si 3.5015571083 8.5814920264 7.5239192096 
Si 8.2022147296 5.0517422365 4.4182858853 
Si 0.7423573664 6.4339975151 7.2261380788 
Si 0.3163885178 10.0985795106 5.1429181069 
Si 10.7214771707 2.6296892035 7.8890133521 
Si 6.8596223653 1.8342497272 3.6354018103 
Si 7.9707048485 2.0802791648 10.2181759481 
Si 5.1924452044 0.5558038524 9.1421335608 
Si 9.8863530766 4.9834308696 8.8469676864 
Si 5.8648048518 2.9629662011 6.6019273646 
Si 8.7833116930 10.4291761416 3.8777525262 
Si 5.7230926770 2.9795475781 9.4901254453 
Si 3.0790032854 7.4346966427 3.2279752385 
Si 7.3469716086 8.3401613691 9.9954884883 
Si 7.7426023971 9.5300162451 5.7826033261 
Si 6.1458635336 1.3471934794 1.0076962951 
Si 0.3643236728 2.5253827923 5.3702609403 
Si 0.9001235262 9.7285587023 2.3477081283 
Si 0.0639413927 0.3231990363 8.1705061014 

