&CONTROL
   calculation      = 'scf'
   tstress          = .true.
   tprnfor          = .true.
   outdir           = './'
   disk_io          = 'none'
   pseudo_dir       = '/home/ppiaggi/pseudos'
/
&SYSTEM
   ecutwfc          = 30
   occupations      = 'smearing'
   degauss          = 0.01
   smearing         = 'fermi-dirac'
   input_dft        = 'PBE'
   ntyp             = 1
   nat              = 64
   ibrav            = 0
/
&ELECTRONS
   electron_maxstep = 100
   mixing_beta      = 0.5
/
&IONS
/
&CELL
/

ATOMIC_SPECIES
Si 28.085 Si_ONCV_PBE_sr.upf

K_POINTS gamma

CELL_PARAMETERS angstrom
10.94510887012211 0.00000000000000 0.00000000000000
0.00000000000000 10.94510887012211 0.00000000000000
0.00000000000000 0.00000000000000 10.94510887012211

ATOMIC_POSITIONS angstrom
Si 0.1235199316 9.9991231105 2.9882007884 
Si 3.4100471745 4.4833683307 10.1024230480 
Si 4.1893060907 7.0740865454 5.1429534265 
Si 3.2756084022 4.0605587751 1.3483389068 
Si 9.1543796079 9.2016515331 4.4930328618 
Si 6.9104681129 7.6301418564 3.2369612228 
Si 4.5184145693 2.2747876471 4.3901926189 
Si 9.5078518988 7.3610235195 2.9920315765 
Si 10.5927310900 7.7940995873 10.2825248145 
Si 0.6951348095 10.8024722113 7.9623040204 
Si 4.4273731537 9.4623859166 9.9230546038 
Si 1.4162970878 3.4417223195 10.6336220168 
Si 6.0482014910 3.8289383811 10.6328011336 
Si 3.7690139101 4.2391063361 7.1993861517 
Si 2.6411861117 8.0676288031 0.0444729325 
Si 0.6513302947 6.7914619441 4.4896289330 
Si 5.4164279168 1.9988942878 1.2746783241 
Si 6.1719359468 0.1357116884 2.3051603242 
Si 5.9077319637 4.0561041157 2.6613360571 
Si 0.8363409425 10.7410154250 0.7470430828 
Si 10.1451965335 1.0014479098 9.5229233138 
Si 1.7801781773 4.8302407210 3.8811684407 
Si 6.6818028984 0.9189491517 5.0574940165 
Si 2.5678867176 3.2978379183 5.4688878236 
Si 9.1578382623 6.0689753076 5.3423514199 
Si 2.7860227373 1.3786787486 7.3368019936 
Si 6.1049737707 5.5831109798 7.3550365450 
Si 6.8686468519 5.2881621859 4.5253975488 
Si 6.5314389927 6.9954021577 9.4556984551 
Si 6.8128486869 9.6625610127 10.5683453875 
Si 6.0915879025 6.0116229371 0.4191998587 
Si 8.5124489726 7.1746283155 0.9827449078 
Si 2.4866849549 8.8431335469 5.5592725326 
Si 8.8052196898 3.9391009019 3.8219554017 
Si 8.5431609481 2.4417115025 5.8798109910 
Si 3.3193122219 10.8020891325 4.5044705006 
Si 7.7995283613 7.9259443687 6.1099975757 
Si 5.6008530012 0.6974048250 7.4504450590 
Si 1.2059102051 5.7174403009 0.4244710232 
Si 8.4226115190 6.8445457221 8.1502534299 
Si 8.8919596776 2.1150547283 1.1082688889 
Si 0.3214698871 2.7655772740 8.1754709608 
Si 0.3196540936 1.9945381345 1.9235481584 
Si 2.2969733828 6.1298629483 8.0094227141 
Si 0.2281135810 4.2331631419 1.9155472838 
Si 4.5292940075 9.5174945398 7.1499689852 
Si 6.0892565943 3.0259833042 6.9680503306 
Si 8.5400197019 0.1426082015 2.1190825283 
Si 2.6514964042 10.3267649445 2.2093030608 
Si 3.0105507007 7.7109386501 3.3148575626 
Si 9.1888129204 10.0591570326 0.2298669875 
Si 8.1582652496 4.5894373808 1.2456190601 
Si 8.0425316684 4.1296224120 8.0206305056 
Si 10.8032055336 6.2288614580 7.8512987262 
Si 0.5906528002 10.8481023702 5.4691395611 
Si 8.5815563901 0.1674711108 6.3851028871 
Si 5.0016630161 9.0536408258 1.6603401803 
Si 0.8524904507 2.3059264819 4.2858310058 
Si 1.0459769907 8.5055207187 8.6282482245 
Si 7.7443212321 1.8593222595 8.4732107573 
Si 4.1462370873 7.4595842249 7.9271154954 
Si 2.2401573227 10.5877401204 9.5513258713 
Si 5.6767354410 0.7522562381 9.8113488227 
Si 3.3000816656 1.8904939296 2.3947788757 

