&CONTROL
   calculation      = 'scf'
   tstress          = .true.
   tprnfor          = .true.
   outdir           = './'
   disk_io          = 'none'
   pseudo_dir       = '/home/ppiaggi/pseudos'
/
&SYSTEM
   ecutwfc          = 30
   occupations      = 'smearing'
   degauss          = 0.01
   smearing         = 'fermi-dirac'
   input_dft        = 'PBE'
   ntyp             = 1
   nat              = 64
   ibrav            = 0
/
&ELECTRONS
   electron_maxstep = 100
   mixing_beta      = 0.5
/
&IONS
/
&CELL
/

ATOMIC_SPECIES
Si 28.085 Si_ONCV_PBE_sr.upf

K_POINTS gamma

CELL_PARAMETERS angstrom
10.64413488852751 0.00000000000000 0.00000000000000
0.00000000000000 10.64413488852751 0.00000000000000
0.00000000000000 0.00000000000000 10.64413488852751

ATOMIC_POSITIONS angstrom
Si 6.5678250592 10.5684657336 4.4630112498 
Si 10.3372325473 0.2713498663 6.1390260852 
Si 6.0038029956 8.4126026533 4.7276457314 
Si 6.6594497723 4.4113552632 1.6828803024 
Si 0.5411318515 6.3356977656 8.3736983403 
Si 9.7220867038 6.4390629595 6.1585900052 
Si 4.4064589612 3.7543566813 1.4667511435 
Si 8.1494583506 7.9480074537 6.0988764084 
Si 5.6841809132 5.3241430506 8.5537651702 
Si 9.0784465112 6.4504947603 1.1093849588 
Si 7.6993391744 7.1309955920 9.7417570651 
Si 0.6977358149 2.1327865959 4.5826726142 
Si 8.7388240993 0.1350091425 8.3746243800 
Si 1.7708008566 9.9375346381 3.4418129486 
Si 4.5701231792 7.3897545112 2.8941083438 
Si 2.8525536412 4.6555104293 7.1410968760 
Si 7.8945632524 8.5278573459 2.2272745813 
Si 2.3634130665 8.4956162613 7.2052916536 
Si 3.4093909137 1.8676092634 4.8133416614 
Si 7.5989969148 1.8678753668 2.1113173758 
Si 5.2010223423 1.4203959361 2.8751937161 
Si 8.9230314977 5.2662283126 8.7564827191 
Si 4.8070403335 0.5775997221 6.2096605643 
Si 5.7739854792 6.8319379782 0.7912019634 
Si 0.3105554083 0.5622774899 9.1224387207 
Si 10.1743240628 0.3823330675 2.5617558760 
Si 1.8423507313 9.3660936125 9.3896810154 
Si 9.0329854111 2.3609968479 4.1605900894 
Si 0.5338384903 3.4837508401 6.9270220352 
Si 1.3920931814 6.6625365715 1.3577871347 
Si 1.9615863303 1.9354124026 0.8343735101 
Si 7.8843235946 1.2963491881 6.3601686317 
Si 3.8780415287 9.3633687139 0.3535428115 
Si 5.7629155789 2.2110209873 7.6453627664 
Si 6.1824222232 10.1525142304 1.3735830308 
Si 7.3429841825 1.1093104498 9.9983020042 
Si 10.3114950291 7.4255507368 3.5612294979 
Si 9.1860267826 9.5868423259 4.4484926498 
Si 2.3348867850 7.7106219574 3.3835363101 
Si 0.0796340952 7.8390540889 10.1778153391 
Si 3.7919517658 2.0340409565 9.4564516735 
Si 3.2465995148 6.9760382763 0.1704381455 
Si 8.9544210515 4.8195578362 3.5236450576 
Si 6.9600082092 3.4342236804 9.6905481321 
Si 1.3922421993 4.2117883782 1.4602688654 
Si 5.0220412142 10.3708680135 9.1923387545 
Si 7.2624932344 8.9483645388 8.2698435162 
Si 2.9462646047 4.3176975203 9.8755751289 
Si 3.6209537388 6.7552363422 8.3437244564 
Si 9.2241434296 9.7076745452 0.3207184283 
Si 4.4539637352 3.9546260793 5.6221256068 
Si 0.7195978036 4.8461575293 4.1563430795 
Si 6.6817173025 5.9907426421 3.7960604018 
Si 6.4847156540 5.1803940089 6.2852339221 
Si 8.6496901138 4.2387180394 6.5245885833 
Si 1.7237218480 6.7525327319 5.4856571534 
Si 2.0040670727 1.4081445368 7.7412770659 
Si 5.0139623158 8.7800701220 6.8418050912 
Si 3.5619532991 4.7523188361 3.4167566551 
Si 9.3159597371 3.8556356248 0.7023724001 
Si 3.0444993256 0.3022732070 1.9259816991 
Si 10.1453720159 1.4738827139 0.4827679311 
Si 2.1465175299 10.2973383297 5.8868558856 
Si 0.5406358348 3.8443528418 9.3921610988 

