&CONTROL
   calculation      = 'scf'
   tstress          = .true.
   tprnfor          = .true.
   outdir           = './'
   disk_io          = 'none'
   pseudo_dir       = '/home/ppiaggi/pseudos'
/
&SYSTEM
   ecutwfc          = 30
   occupations      = 'smearing'
   degauss          = 0.01
   smearing         = 'fermi-dirac'
   input_dft        = 'PBE'
   ntyp             = 1
   nat              = 64
   ibrav            = 0
/
&ELECTRONS
   electron_maxstep = 100
   mixing_beta      = 0.5
/
&IONS
/
&CELL
/

ATOMIC_SPECIES
Si 28.085 Si_ONCV_PBE_sr.upf

K_POINTS gamma

CELL_PARAMETERS angstrom
10.69215454987538 0.00000000000000 0.00000000000000
0.00000000000000 10.69215454987538 0.00000000000000
0.00000000000000 0.00000000000000 10.69215454987538

ATOMIC_POSITIONS angstrom
Si 9.5232561380 5.6824952257 5.1090856693 
Si 0.6891799290 7.7503579156 7.9707873738 
Si 4.0518561196 4.5303086514 5.5462985610 
Si 6.6292534346 8.9956731561 9.9626929979 
Si 3.5445882313 4.0088201975 1.1025322086 
Si 9.5907236332 1.2085769974 3.5576540442 
Si 8.8903661259 0.3849432250 7.0952068378 
Si 9.3058418674 9.9127499440 9.1084433101 
Si 9.0076483692 7.3381218970 8.7699403892 
Si 3.9935411087 6.2221389580 8.6922618864 
Si 0.9630220452 3.1419858439 4.5369591715 
Si 9.7110103719 1.5604558036 10.6250719722 
Si 1.4883479133 5.2793261541 9.1230808697 
Si 2.9263785474 7.1286732815 6.8230166594 
Si 1.5226697294 1.4688668078 7.5934291633 
Si 10.2913912130 8.9330919755 2.9113453781 
Si 5.7699891264 5.8066204479 6.8265343782 
Si 8.0828090771 9.7412264007 3.9363594662 
Si 1.4520052800 7.0770836358 0.2731631644 
Si 8.4753715314 2.9210966230 4.6974911799 
Si 4.3906370365 0.1261032708 8.2351402029 
Si 0.1246993909 5.9589729580 2.7409658953 
Si 7.7371424126 0.5573296251 1.6755889238 
Si 4.4612587173 9.1443047965 6.6152146357 
Si 1.8305930883 5.3991745144 5.3579776430 
Si 6.4704749396 2.1469097885 5.3775442858 
Si 6.5999996998 7.9543535323 7.5719058562 
Si 5.5510138012 0.5454730949 10.4652456460 
Si 7.3778646354 8.5954765034 1.7620991463 
Si 2.8089679983 1.5331052723 4.7889411778 
Si 5.6210367213 0.4560513988 3.7379772306 
Si 1.2608295567 10.0998091878 8.7148437168 
Si 3.1022110289 9.1241180087 10.1786531355 
Si 0.2172709957 9.7703090610 0.3485631691 
Si 6.9479758696 5.7535232084 10.1662716205 
Si 8.2965238622 3.0925880899 8.9519208596 
Si 5.1855773430 4.3619820623 3.6568237776 
Si 3.6750111325 2.4423660952 7.1200554049 
Si 1.7962605801 10.1666137694 3.2622725826 
Si 0.1319700560 5.0467397162 7.2348036076 
Si 8.1669563334 5.2949473919 7.6536473777 
Si 5.5302817135 7.3874982667 2.6262283848 
Si 2.1605529777 7.6671943376 3.5969370200 
Si 0.6853446531 1.5033810826 1.8403336411 
Si 3.6741664523 3.7913310818 9.0759391603 
Si 10.1252351313 2.6998545611 7.0287230208 
Si 5.9657731683 3.2244758162 10.0628891782 
Si 8.6646547434 5.1110744101 1.1611252155 
Si 8.4444498204 8.7827068217 6.1601993067 
Si 0.2033915099 4.1026652380 10.5636776208 
Si 4.3550428540 9.2396467386 4.2592732257 
Si 1.1229007630 3.8633855114 2.1911646162 
Si 6.9390051519 2.9731032628 1.4614036839 
Si 6.5068175729 1.8288288828 7.7145391979 
Si 9.4459946292 7.4487856966 0.6969638175 
Si 1.9980108443 2.1967886895 10.0225369869 
Si 0.2131694853 0.3560017010 5.4571580686 
Si 10.6808743268 8.4542759104 5.7361377651 
Si 3.1911590626 0.5204235153 0.8371443789 
Si 3.3452009332 6.3716259707 1.8111547514 
Si 5.0912832320 7.2400641476 10.6474613439 
Si 7.5527668996 4.8666945257 3.4340099689 
Si 4.5397819003 2.2940338351 2.7509844441 
Si 7.2867354022 7.0847392184 4.7108136045 

