&CONTROL
   calculation      = 'scf'
   tstress          = .true.
   tprnfor          = .true.
   outdir           = './'
   disk_io          = 'none'
   pseudo_dir       = '/home/ppiaggi/pseudos'
/
&SYSTEM
   ecutwfc          = 30
   occupations      = 'smearing'
   degauss          = 0.01
   smearing         = 'fermi-dirac'
   input_dft        = 'PBE'
   ntyp             = 1
   nat              = 64
   ibrav            = 0
/
&ELECTRONS
   electron_maxstep = 100
   mixing_beta      = 0.5
/
&IONS
/
&CELL
/

ATOMIC_SPECIES
Si 28.085 Si_ONCV_PBE_sr.upf

K_POINTS gamma

CELL_PARAMETERS angstrom
10.61610943557992 0.00000000000000 0.00000000000000
0.00000000000000 10.61610943557992 0.00000000000000
0.00000000000000 0.00000000000000 10.61610943557992

ATOMIC_POSITIONS angstrom
Si 1.3930564962 9.1956739931 8.4470578040 
Si 9.4012443362 5.4353631021 5.5083807028 
Si 3.0092848450 10.5573705021 10.1188402535 
Si 1.6714002695 1.0979711184 1.9531942784 
Si 6.7920912719 2.0067737827 7.2789354345 
Si 4.6023276108 3.5981392032 6.4459742560 
Si 1.7327401499 6.5659150604 1.3592335716 
Si 10.4058149238 0.4297454180 7.4916079548 
Si 0.6164849062 2.7405804991 8.1617923274 
Si 7.0845863191 5.4965118925 4.4394871082 
Si 10.0625642574 1.4935273559 4.1464294072 
Si 2.1530956191 6.3587947653 9.5333405859 
Si 0.1456487750 4.9004385799 2.2152317076 
Si 2.8864458428 6.0114675129 5.6726862286 
Si 1.0393054360 6.8746846033 7.1701309289 
Si 5.0237977715 9.9841218248 4.1767596319 
Si 1.3446045728 4.7347423438 4.4774927800 
Si 2.7253994626 1.3735016227 8.1275022939 
Si 5.1831137258 5.5912500531 9.1818836669 
Si 4.4712398915 0.4071946783 6.4617285624 
Si 5.4097358140 5.9397450775 6.1720043198 
Si 7.5478733348 0.3366994652 0.3450978694 
Si 4.7980886688 2.6919056374 9.0652444726 
Si 3.2190910158 4.7914005199 1.9865076298 
Si 8.4632155226 5.4667230894 2.2216013733 
Si 5.5544015372 7.9208915721 9.4560871576 
Si 3.3681305762 8.3396758571 10.5843035717 
Si 5.4200546723 8.2108706013 7.0110485290 
Si 7.6211881866 0.2837548043 2.8269743977 
Si 10.4445849554 5.4085998903 10.3287950498 
Si 3.7233137496 3.1884847723 4.1312271385 
Si 8.0728187142 10.1590222277 8.2986021297 
Si 10.1367708623 4.9306732596 7.8517276191 
Si 5.5670134753 5.3346268397 0.9092527874 
Si 9.5558573540 7.8234356875 6.2177172870 
Si 0.0058356860 8.5602892273 10.5691437674 
Si 8.1071087477 2.8115173424 2.5245108238 
Si 5.0437772895 6.3857915316 3.0040086387 
Si 7.8983641879 6.4472588052 10.5708529611 
Si 2.6238139114 0.8984402799 4.1527566085 
Si 1.4098511814 8.7885249640 2.5329081663 
Si 9.4922987068 1.7016137170 10.0073711044 
Si 2.8925182574 7.9723053901 4.3026773059 
Si 10.3848374915 2.5406048457 1.4541628222 
Si 3.1638872468 9.1068702377 6.4918889293 
Si 9.7997412361 10.1973357667 1.4137260613 
Si 5.4953228882 10.6088480167 9.0012399488 
Si 8.9220650046 8.0883500823 8.7974531121 
Si 0.8541668571 2.8940575932 5.3974848237 
Si 10.0529460622 8.6291559292 3.8061618676 
Si 7.8830451419 3.5203443533 8.9501658463 
Si 7.4765118472 8.2328034834 3.5805058454 
Si 4.4907416846 8.7652332199 1.9773459274 
Si 0.8143766174 10.2305641892 5.3286818184 
Si 3.0835232983 4.4098363146 8.0150989272 
Si 6.8331331510 8.5124742704 0.9035391973 
Si 8.3100144473 0.9843585768 5.4291951426 
Si 7.2606757263 5.7911301615 7.8468866732 
Si 5.3207409686 1.8639127980 2.8979006248 
Si 6.6445167346 3.1167411048 4.8267627804 
Si 6.7325879785 3.0792450062 0.5074808177 
Si 7.3027579841 9.2259723694 5.8710057689 
Si 3.6276201391 2.2203699046 0.8533313693 
Si 1.7309247951 3.3231925849 10.3495601599 

