&CONTROL
   calculation      = 'scf'
   tstress          = .true.
   tprnfor          = .true.
   outdir           = './'
   disk_io          = 'none'
   pseudo_dir       = '/home/ppiaggi/pseudos'
/
&SYSTEM
   ecutwfc          = 30
   occupations      = 'smearing'
   degauss          = 0.01
   smearing         = 'fermi-dirac'
   input_dft        = 'PBE'
   ntyp             = 1
   nat              = 64
   ibrav            = 0
/
&ELECTRONS
   electron_maxstep = 100
   mixing_beta      = 0.5
/
&IONS
/
&CELL
/

ATOMIC_SPECIES
Si 28.085 Si_ONCV_PBE_sr.upf

K_POINTS gamma

CELL_PARAMETERS angstrom
10.64522728760201 0.00000000000000 0.00000000000000
0.00000000000000 10.64522728760201 0.00000000000000
0.00000000000000 0.00000000000000 10.64522728760201

ATOMIC_POSITIONS angstrom
Si 1.7506608536 0.6457107452 10.4290865928 
Si 10.0846389734 4.6695608854 0.5571637446 
Si 4.4304052091 0.1901056625 8.0281513851 
Si 6.0156818116 7.9257975247 8.3703528615 
Si 7.5995638893 4.5617140877 1.9974278673 
Si 0.9968861481 2.8705706999 2.2886599955 
Si 3.0916507802 0.2138445193 1.7380994854 
Si 1.3105658671 4.0802411027 8.7405193499 
Si 2.3831257424 7.4034468669 7.0676431721 
Si 8.0222858648 0.4938906426 6.0880693571 
Si 1.4528925559 10.0775279616 3.8190498060 
Si 5.4675271229 1.1402848114 2.1589159653 
Si 2.1634508321 3.3433465342 0.4353866025 
Si 2.6438805848 3.6676640288 6.8325859084 
Si 7.9811314162 2.8783417158 10.3733588279 
Si 10.0115807785 6.6177652217 1.9390175052 
Si 0.4078346252 4.6506230260 3.7911593105 
Si 9.9728853773 0.8947281600 10.5175803672 
Si 10.1496813121 2.7338434006 8.6398580807 
Si 2.0081582564 5.9864819531 0.2504428107 
Si 7.4623682000 6.8557712134 1.6063860882 
Si 4.7096401661 4.4651299406 7.3510084773 
Si 2.7039516024 1.7728561525 3.7097978384 
Si 9.6602669876 0.1602032190 3.7869650910 
Si 7.7645223313 5.9602095322 6.0830661003 
Si 7.5223008296 2.1866680728 3.8700297995 
Si 0.1544547963 1.7306478263 5.3707726521 
Si 5.0751546903 9.6513888680 5.9087611487 
Si 5.3085619438 6.4401070235 5.7255567871 
Si 1.8640218790 8.2656251154 10.0973813105 
Si 4.5432659088 9.3362688499 10.1827347429 
Si 3.8336444126 8.6509610528 1.9941491373 
Si 4.0156458636 5.4682935792 3.8977819070 
Si 10.4544328789 0.1480964020 7.2949081295 
Si 8.3576850410 9.6489085301 1.5190526435 
Si 3.8693697954 6.4094168333 8.9135681647 
Si 5.8375978043 7.9525276904 3.1908004272 
Si 8.9853276419 5.2451376796 8.1265239304 
Si 2.1063285425 5.4252655705 5.5800365301 
Si 0.3405663695 6.6978599119 8.7012703969 
Si 3.2253122541 8.5008420576 4.9726411515 
Si 4.8637511216 5.9927413468 0.8587707112 
Si 5.1629352345 1.3450138226 4.9650617497 
Si 5.2466386566 3.8220624053 2.6191517218 
Si 6.7020860671 0.4226527816 0.3806381986 
Si 5.7843823131 4.2141261263 9.5106696085 
Si 6.8132861113 10.0375657783 3.4986710456 
Si 8.4802861237 10.3303308192 8.8749579254 
Si 9.3798929913 3.2307839009 6.2256482746 
Si 8.7773944173 7.9587019223 4.4486937096 
Si 7.3625691942 6.4541587236 9.5607660481 
Si 6.7099528901 3.1657202717 6.1809596105 
Si 4.6214444580 2.7261469013 0.3654325559 
Si 9.1524151294 8.0406275915 9.9715334335 
Si 10.2813840641 8.4017137011 7.0113299198 
Si 7.5942412756 8.7647372420 6.6736846007 
Si 2.7206646093 1.3906712024 6.4001448403 
Si 6.6532244738 1.5239813837 8.4464449461 
Si 0.4910803026 7.4494874750 4.3538660249 
Si 2.3347857653 6.8314681595 2.4522877841 
Si 0.1760550270 9.1829243508 1.3639410367 
Si 9.3510231349 2.1179637759 2.0783315947 
Si 2.0188034837 10.3048780808 8.2261313222 
Si 8.8311953960 4.5159609009 4.4249229171 

