&CONTROL
   calculation      = 'scf'
   tstress          = .true.
   tprnfor          = .true.
   outdir           = './'
   disk_io          = 'none'
   pseudo_dir       = '/home/ppiaggi/pseudos'
/
&SYSTEM
   ecutwfc          = 30
   occupations      = 'smearing'
   degauss          = 0.01
   smearing         = 'fermi-dirac'
   input_dft        = 'PBE'
   ntyp             = 1
   nat              = 64
   ibrav            = 0
/
&ELECTRONS
   electron_maxstep = 100
   mixing_beta      = 0.5
/
&IONS
/
&CELL
/

ATOMIC_SPECIES
Si 28.085 Si_ONCV_PBE_sr.upf

K_POINTS gamma

CELL_PARAMETERS angstrom
10.70273487280179 0.00000000000000 0.00000000000000
0.00000000000000 10.70273487280179 0.00000000000000
0.00000000000000 0.00000000000000 10.70273487280179

ATOMIC_POSITIONS angstrom
Si 6.3002398020 2.2094083707 5.4841883762 
Si 0.9267433910 1.7610279960 5.5681085203 
Si 10.3323560298 4.9094943244 2.9521246572 
Si 9.9211141450 1.8602423482 3.5506536995 
Si 7.9399094873 7.1542324230 4.8793661258 
Si 1.8916441724 1.6855094987 9.7391569495 
Si 3.7375020449 2.4178120242 6.0573519368 
Si 6.1703621143 8.3250581044 3.1321018469 
Si 2.4708654809 1.4323148998 3.4316606932 
Si 1.9188077135 10.1865526726 8.5730404714 
Si 2.9197274788 5.9764285584 8.9200124332 
Si 0.2574831847 4.7189749410 9.5246741426 
Si 3.1117666506 3.1074106375 1.8129790710 
Si 6.5497954710 2.7957362953 7.6463655779 
Si 7.5846429059 8.4588636958 8.9352317222 
Si 4.1514410189 7.4401987961 3.6752121280 
Si 1.6059560704 5.5852328961 6.4632638596 
Si 8.2600710983 3.4240296432 2.3979477483 
Si 7.7831358269 4.7964092278 8.6519089247 
Si 5.8563117650 6.5588178765 8.5762191837 
Si 4.1821899762 3.8896093129 8.5589984832 
Si 9.0222449567 0.4680038392 8.4896233558 
Si 1.9885467339 9.5645632355 4.8056456880 
Si 6.6296271705 5.8071005900 6.2601366545 
Si 0.7561289538 7.2027051092 9.9613564282 
Si 9.7384719744 6.9237383248 0.9238408093 
Si 3.8985246911 10.5948834135 7.2147777942 
Si 1.8797106230 3.3879079130 7.7858008078 
Si 6.1797698183 0.3284005763 8.2438136440 
Si 7.5566445515 1.5056607419 0.7379310937 
Si 2.7821652274 7.3570813570 1.2434651430 
Si 3.4915317921 5.2593025110 0.3276417524 
Si 9.2989106532 4.0834893552 5.3853807278 
Si 3.6275849578 8.5449671978 9.6549478315 
Si 6.4363357787 8.3128248784 0.7279133339 
Si 8.5711888983 1.0640412848 5.8399686888 
Si 4.2696313201 4.8927124362 3.1725367792 
Si 1.7860081792 4.3296950682 4.5293224790 
Si 5.7037228739 6.0018475538 0.3077303844 
Si 2.1498155430 10.4971139304 1.5832448670 
Si 9.6104244544 3.2352119946 7.6402115054 
Si 10.0488940967 6.2109468850 6.4777767681 
Si 2.7466321477 7.7060226221 5.7932084402 
Si 0.3136992997 1.5702410441 1.1546538490 
Si 10.4843562705 10.0400643404 10.1601383230 
Si 9.2450544913 2.3056901736 10.2630879297 
Si 6.9834060717 4.0452591862 4.2551933307 
Si 4.0239393383 2.3682262535 10.3929121037 
Si 0.4354536116 9.0244604229 2.4469341658 
Si 9.3044011562 9.2374555496 4.9820695696 
Si 8.8471910252 9.1115806847 0.8082052509 
Si 8.1911668911 4.8956984992 0.0843934191 
Si 10.0012241156 7.9459458297 8.1889407223 
Si 6.9545193903 9.2255220002 6.4782155802 
Si 4.2467488729 10.6880293151 4.7572265154 
Si 0.1527141131 7.1499085181 4.1821364625 
Si 0.3392156899 10.0001431393 6.5526423985 
Si 6.3573174871 10.4743599161 4.1802955921 
Si 4.4825943386 9.9029301985 0.8550404187 
Si 8.4039586659 0.0923423403 2.6583024768 
Si 1.0103392423 3.9316175473 1.2277642309 
Si 4.3688563751 5.0187692475 5.5664067855 
Si 5.6697523934 0.7326225372 10.4619982573 
Si 4.5503212448 8.3694423459 7.3856041455 

