&CONTROL
   calculation      = 'scf'
   tstress          = .true.
   tprnfor          = .true.
   outdir           = './'
   disk_io          = 'none'
   pseudo_dir       = '/home/ppiaggi/pseudos'
/
&SYSTEM
   ecutwfc          = 30
   occupations      = 'smearing'
   degauss          = 0.01
   smearing         = 'fermi-dirac'
   input_dft        = 'PBE'
   ntyp             = 1
   nat              = 64
   ibrav            = 0
/
&ELECTRONS
   electron_maxstep = 100
   mixing_beta      = 0.5
/
&IONS
/
&CELL
/

ATOMIC_SPECIES
Si 28.085 Si_ONCV_PBE_sr.upf

K_POINTS gamma

CELL_PARAMETERS angstrom
10.66417706220707 0.00000000000000 0.00000000000000
0.00000000000000 10.66417706220707 0.00000000000000
0.00000000000000 0.00000000000000 10.66417706220707

ATOMIC_POSITIONS angstrom
Si 0.3926166084 5.2807085260 4.6771694252 
Si 10.4436525447 7.0249519905 9.2714035454 
Si 9.9226435102 4.6286794121 7.4063242906 
Si 3.2017058794 7.4591759521 6.0002205524 
Si 0.9219532988 1.2412568892 1.5697242068 
Si 0.0958158180 9.6662127085 5.3440537378 
Si 4.8926391227 8.8273898692 8.0443833326 
Si 9.3546907682 9.2104471093 2.0659816864 
Si 3.3322567350 0.2397552280 7.5462169653 
Si 8.6084009932 6.1957055821 2.2919236059 
Si 8.1923274610 8.4175228880 8.1236501607 
Si 5.5118972205 4.8485534147 7.9780414871 
Si 3.5887941784 3.1462948154 9.6272777981 
Si 3.3431555239 3.0939870269 4.1122773020 
Si 8.7133898164 7.5579475601 5.5394854466 
Si 1.7668728482 0.6622421963 10.1764615884 
Si 2.1451845295 2.3518776093 6.5581489679 
Si 3.8931924485 8.2942023444 0.8129302175 
Si 6.4164540473 0.7566169641 1.5569378586 
Si 10.5597214479 7.5419512945 3.7460907901 
Si 0.6412924205 8.9012606237 0.5220029359 
Si 9.2193623613 1.1462070790 1.8946296894 
Si 0.1796881842 9.7866006034 8.7081750338 
Si 6.4229378670 10.4811264629 9.2248757408 
Si 8.2982334034 2.8515689539 7.2575270280 
Si 5.4467710912 4.2508902755 5.4970953428 
Si 8.1513663569 3.7409719851 2.0258630523 
Si 6.6080039957 1.9655144743 5.2813697050 
Si 4.9961029686 4.9405852628 0.6645499242 
Si 5.5008811256 7.6262196216 6.0250574208 
Si 7.8106885564 5.9796493549 7.4962552958 
Si 4.2932590509 0.2702569072 0.0149551220 
Si 1.0460405967 2.7196530836 8.6176574989 
Si 5.7545818980 8.4117215757 2.0033723029 
Si 3.7583439295 5.9540766583 4.1127785183 
Si 2.8585753182 5.6625927066 8.4712383478 
Si 2.3433462676 0.8131211062 3.3128372686 
Si 7.8867987881 1.6606363163 10.3437078773 
Si 10.3260799926 3.6681036632 1.3305160512 
Si 1.6685064790 4.2088414253 2.9093901219 
Si 9.0367276649 1.7876999860 4.2860394031 
Si 7.1433030275 4.0141988656 9.9215237716 
Si 2.9739723782 9.0108883639 3.9307410159 
Si 8.0934705396 10.0666312289 4.3863146600 
Si 7.2001430913 5.9225320225 4.5572080974 
Si 9.5616397883 1.3073427944 8.5398303347 
Si 8.9346181696 4.1271325007 4.6178872649 
Si 5.7199019941 2.7968510614 2.8008074711 
Si 8.2703679087 10.3168874720 6.7961414074 
Si 5.6272516238 2.0756007741 8.1238954367 
Si 1.8657510979 4.9468451347 6.3402478380 
Si 0.7436887822 1.2687704660 4.8141081228 
Si 7.6776316192 8.9604361422 0.5449095882 
Si 3.7630255032 2.4488576355 1.2449360302 
Si 5.7263111646 6.9011302306 9.6512508681 
Si 1.8380988868 7.6145316836 2.0095255331 
Si 2.6433508968 7.8894115115 9.2812145882 
Si 0.8389358796 4.8119113024 9.9174820485 
Si 2.5217899424 5.4932242465 1.2673201379 
Si 8.2037487946 6.7426605595 10.5446423015 
Si 4.8488840042 0.6073046218 5.7647341945 
Si 5.8495997156 6.1461704797 2.5954367492 
Si 5.8195587288 9.5022829787 4.3208259486 
Si 1.7888197246 9.2390804247 7.0249199980 

