&CONTROL
   calculation      = 'scf'
   tstress          = .true.
   tprnfor          = .true.
   outdir           = './'
   disk_io          = 'none'
   pseudo_dir       = '/home/ppiaggi/pseudos'
/
&SYSTEM
   ecutwfc          = 30
   occupations      = 'smearing'
   degauss          = 0.01
   smearing         = 'fermi-dirac'
   input_dft        = 'PBE'
   ntyp             = 1
   nat              = 64
   ibrav            = 0
/
&ELECTRONS
   electron_maxstep = 100
   mixing_beta      = 0.5
/
&IONS
/
&CELL
/

ATOMIC_SPECIES
Si 28.085 Si_ONCV_PBE_sr.upf

K_POINTS gamma

CELL_PARAMETERS angstrom
10.65742226072518 0.00000000000000 0.00000000000000
0.00000000000000 10.65742226072518 0.00000000000000
0.00000000000000 0.00000000000000 10.65742226072518

ATOMIC_POSITIONS angstrom
Si 9.4993334708 7.3780588291 0.1595629261 
Si 9.8593092225 8.4576024170 3.3459403484 
Si 1.7933351012 6.1507927113 0.1050978499 
Si 4.6575493061 3.9668311119 8.8858602732 
Si 2.3945735781 1.3125148385 8.4099424247 
Si 3.2065732375 8.3868584481 1.6525398957 
Si 5.2571145676 0.7191191587 6.0270387240 
Si 0.6649560073 8.3569963509 1.4055967645 
Si 0.0590782480 4.4265070489 7.8636962467 
Si 9.9425863200 0.9783513635 7.2373488830 
Si 7.4174806341 1.2757680466 4.6590200303 
Si 0.3116880372 10.5805183017 0.3862089966 
Si 5.0639274743 0.2918844151 0.4929217657 
Si 9.2730444239 3.3992274597 4.0134360195 
Si 2.8404694680 10.2625647660 4.6908430932 
Si 7.6655641095 6.2321941025 5.2258989778 
Si 4.5022919786 9.5336930001 7.8428609862 
Si 9.3682471770 3.5934056933 0.3733891834 
Si 9.3756967151 10.4309307228 5.2539706280 
Si 7.3524383860 3.3497876779 9.6073677602 
Si 0.6937267844 1.0364321834 4.3223414037 
Si 6.4865334848 2.0302709129 0.9462927716 
Si 1.2159479354 5.7325954618 6.2860993443 
Si 1.0176271618 4.3214142080 4.3511057864 
Si 4.7027580913 4.5135568739 1.0118295241 
Si 6.5800949948 6.4763982762 1.6547886118 
Si 6.9658936806 5.9798583156 9.7012489929 
Si 5.7543152883 5.4507705875 3.8590312858 
Si 8.5179767142 9.7146134004 8.3688474045 
Si 3.5198375075 2.5547013475 5.7854136465 
Si 5.7219913266 3.0268784408 2.9825009345 
Si 2.0435074314 1.3309095493 1.6651476263 
Si 4.7301370091 7.0232732421 5.5733309435 
Si 10.1726907240 2.0546977248 2.2170635529 
Si 3.7080262698 0.0053916006 2.6220988859 
Si 6.3335675031 8.1506793134 7.7645822197 
Si 0.7131456735 4.1838375440 10.2205745223 
Si 5.0957718520 8.6171866580 10.5106588988 
Si 1.4569229102 8.0089569121 4.3546653654 
Si 4.8631309815 4.3199647985 6.4481347924 
Si 0.5385962803 7.4799757582 8.9776526511 
Si 8.8257950413 5.7026267904 1.5686020380 
Si 2.2867844093 8.9266782004 7.0057737547 
Si 2.6838160182 5.0318379759 2.1888533562 
Si 8.5950298771 3.0329105418 7.4411294541 
Si 3.2352630183 6.6684556828 3.6032318367 
Si 7.6700721991 8.7309652980 5.7255615631 
Si 7.4943632783 8.8749151005 2.7072943195 
Si 9.6911457566 6.0199835105 3.5160434651 
Si 3.1770841501 2.8887475909 3.6126849702 
Si 4.2031594506 6.4569591380 9.4521637198 
Si 7.7331001943 8.8042670483 0.0583837038 
Si 8.8473763214 0.7939950103 10.3290777383 
Si 4.5936367448 1.1057501892 9.1198226641 
Si 1.1832616213 2.5027997011 6.7503579728 
Si 3.1817947308 6.6643845475 7.1326290519 
Si 8.6816427478 6.0915694158 7.6359684479 
Si 7.3279263148 3.7438991531 5.6686935579 
Si 10.1646123980 8.0905927667 6.4352286540 
Si 2.6598048459 2.9684757668 10.2811939401 
Si 5.4302443922 9.3649433761 4.3633191923 
Si 8.1730599001 0.5531713710 2.2709155076 
Si 0.9268216612 10.1687048481 8.7311038445 
Si 6.8832986581 0.9883895896 7.7108581541 

