&CONTROL
   calculation      = 'scf'
   tstress          = .true.
   tprnfor          = .true.
   outdir           = './'
   disk_io          = 'none'
   pseudo_dir       = '/home/ppiaggi/pseudos'
/
&SYSTEM
   ecutwfc          = 30
   occupations      = 'smearing'
   degauss          = 0.01
   smearing         = 'fermi-dirac'
   input_dft        = 'PBE'
   ntyp             = 1
   nat              = 64
   ibrav            = 0
/
&ELECTRONS
   electron_maxstep = 100
   mixing_beta      = 0.5
/
&IONS
/
&CELL
/

ATOMIC_SPECIES
Si 28.085 Si_ONCV_PBE_sr.upf

K_POINTS gamma

CELL_PARAMETERS angstrom
10.62508582221509 0.00000000000000 0.00000000000000
0.00000000000000 10.62508582221509 0.00000000000000
0.00000000000000 0.00000000000000 10.62508582221509

ATOMIC_POSITIONS angstrom
Si 3.3755897657 8.1258956355 3.8097520226 
Si 3.8403841450 2.9260742598 3.6936092095 
Si 4.2102433825 0.5531483430 3.3621702823 
Si 1.2638008331 7.5018630949 8.7216123223 
Si 0.1918465496 3.0692791665 4.6456275242 
Si 3.2791671119 7.9890126548 6.2891370494 
Si 6.3801515345 2.7071868668 4.2170009371 
Si 4.3064747848 9.1925692513 10.4720208359 
Si 5.5383259848 5.5323121863 7.3744895661 
Si 8.5843574636 10.1203623704 7.9437285390 
Si 5.2766938715 9.9381527736 6.4870398979 
Si 3.8847863787 7.1173624892 1.1765263782 
Si 8.5322732929 8.9223201934 5.8407903029 
Si 6.7622296207 1.3342345270 6.0244980368 
Si 9.4517788450 1.7150482280 10.5865592610 
Si 9.0595113016 10.3653874745 3.6385606398 
Si 8.3236816080 10.0612656431 0.4197822657 
Si 0.8338471728 3.2168191083 9.1905292348 
Si 1.9147148408 6.2086626494 0.2294997287 
Si 1.0228430118 9.8657853141 1.7707661780 
Si 6.2449366924 8.1702128684 7.3222672693 
Si 8.8997525111 4.1613467375 3.7486259038 
Si 9.0790508344 3.8095713961 7.5063362561 
Si 9.9439859458 8.1983374706 0.5502668197 
Si 6.2681843801 5.3187054609 3.4209482571 
Si 0.8656533672 8.8766535746 6.3141591265 
Si 1.3837049266 0.8900156264 9.5502415154 
Si 3.2580231911 2.8488617612 5.8349465057 
Si 9.5601972208 7.8793936444 8.8065386332 
Si 3.1607824057 4.0660397177 10.2063299398 
Si 1.0299554443 8.8802236034 3.7710023346 
Si 1.6300581665 0.7763813961 4.6146660241 
Si 6.9402210584 7.3357611283 5.0043835470 
Si 10.0481011617 7.0543769805 4.1287489742 
Si 7.2703212247 9.2264526500 2.4285333660 
Si 5.0230199475 5.6649451326 10.1641589742 
Si 0.2233648042 0.2920772342 7.4516276892 
Si 9.1727853415 1.3572803382 5.5801356975 
Si 3.3202543188 0.3597728435 6.8673754700 
Si 5.4998206738 9.3037182741 4.2405673774 
Si 4.0295000476 5.8183394966 3.7757942483 
Si 2.5633975804 2.7354708453 1.6287406559 
Si 1.3876149582 4.8490660425 3.0299025985 
Si 9.9861144110 5.8791256126 1.7911450927 
Si 3.0199468931 0.1830245408 1.1190127886 
Si 9.5437920883 5.1140875581 9.3087758150 
Si 7.6387992010 1.8976828282 8.6524642637 
Si 9.5387026722 6.5093313280 6.4988656184 
Si 3.7528546880 5.7120142628 6.0398619109 
Si 6.1419371104 0.7548549722 1.6058754712 
Si 0.1438689746 1.6267218896 2.3135274371 
Si 6.5401122016 8.5846018406 9.7542856635 
Si 7.5988595034 6.7444857274 1.7929619823 
Si 3.9575575915 1.6637609387 9.0201453586 
Si 1.4373403599 5.9876289890 7.0125141423 
Si 2.7078774974 9.4019578176 8.8995506345 
Si 5.9331966743 4.1634823798 1.2509869796 
Si 7.9575624008 1.9960073724 2.6331300186 
Si 5.2796688956 2.8495736419 7.2408897370 
Si 5.8937882310 2.0999632121 10.4939191377 
Si 0.8691660205 3.7660829199 6.8489515712 
Si 7.3321485991 4.5979952645 5.8757574604 
Si 7.3330411063 6.4446351804 9.9550572852 
Si 8.5283951366 3.9409399572 0.8702954672 

