&CONTROL
   calculation      = 'scf'
   tstress          = .true.
   tprnfor          = .true.
   outdir           = './'
   disk_io          = 'none'
   pseudo_dir       = '/home/ppiaggi/pseudos'
/
&SYSTEM
   ecutwfc          = 30
   occupations      = 'smearing'
   degauss          = 0.01
   smearing         = 'fermi-dirac'
   input_dft        = 'PBE'
   ntyp             = 1
   nat              = 64
   ibrav            = 0
/
&ELECTRONS
   electron_maxstep = 100
   mixing_beta      = 0.5
/
&IONS
/
&CELL
/

ATOMIC_SPECIES
Si 28.085 Si_ONCV_PBE_sr.upf

K_POINTS gamma

CELL_PARAMETERS angstrom
10.63234632614830 0.00000000000000 0.00000000000000
0.00000000000000 10.63234632614830 0.00000000000000
0.00000000000000 0.00000000000000 10.63234632614830

ATOMIC_POSITIONS angstrom
Si 0.1081458474 1.9899605707 2.2147390044 
Si 9.5043500721 1.4839140474 4.4265541136 
Si 8.4424019534 5.1553695572 0.5662458051 
Si 5.1139565683 3.9263553807 6.9989546161 
Si 8.7774697155 7.9326979028 7.3568606581 
Si 10.5692539830 9.1530786141 0.6098756382 
Si 5.8409113513 4.0991203762 1.4258827011 
Si 7.1781202841 6.1122807266 6.9416994311 
Si 4.3591981996 6.4769914703 6.4012360027 
Si 0.2937026187 8.0285804020 7.4626099747 
Si 8.7152811218 7.3967532216 1.8682627347 
Si 3.8441460789 2.6576293906 2.2084871848 
Si 8.1331069987 8.4795301067 10.1457782612 
Si 5.4767853867 8.6738362358 0.0265273851 
Si 2.6212667662 6.4465191657 1.7770372032 
Si 5.8879701161 6.6173490741 1.8084451543 
Si 0.5169212872 7.1958763024 9.8628089961 
Si 5.9832359392 4.0140935026 4.3896067101 
Si 8.2058322476 10.3942242978 8.6161557570 
Si 8.1713728132 2.6684424869 1.7798335103 
Si 1.0366782212 6.7467553613 5.7368951072 
Si 4.1214164064 1.7267568374 8.7036705996 
Si 7.1109770170 9.2426561319 2.8630144246 
Si 4.1213419800 8.9423455100 2.6142813147 
Si 3.0562998485 7.9791825210 10.3351084523 
Si 0.9828604738 3.8751712655 3.2717430821 
Si 4.8687533973 10.1957609213 4.6440281254 
Si 0.0253296513 4.5074769015 10.2072651200 
Si 3.4823060687 0.4246750505 1.2243572088 
Si 1.6935520199 0.0891338300 2.5996512061 
Si 6.1136097699 1.5194792458 3.2048549914 
Si 2.6113042577 7.9471259968 4.3981551166 
Si 6.1221475440 0.4843320825 0.9531271173 
Si 2.1526354695 4.8536342008 8.8499078910 
Si 5.0402318789 10.0146176369 8.6465323705 
Si 2.3407642054 0.4867403089 4.9987550959 
Si 6.0632124483 3.8167146254 9.2929152330 
Si 0.7564733661 2.3961374651 5.6194608420 
Si 3.2136266771 3.4631253160 4.2831131293 
Si 2.5045980300 4.9617013689 6.3090854571 
Si 8.4694931718 3.9382636086 6.8574912482 
Si 2.5801621153 10.2573009418 9.7811525763 
Si 6.5275801741 0.3534787330 7.0050469506 
Si 0.4324270942 5.8086102832 2.1333802903 
Si 6.9315987021 6.1975734088 9.5690691641 
Si 9.6170104137 2.8612707198 8.8611569134 
Si 7.5717616421 2.2375879167 5.6494653234 
Si 3.2360077661 4.8809805956 0.3145983690 
Si 1.4218317772 10.1916781003 7.4529239072 
Si 0.3641684940 8.3477209093 3.0771392473 
Si 0.2587083773 0.7045322278 9.9978823238 
Si 10.0839086380 4.6853985849 5.0116096026 
Si 4.4223756015 6.2630048681 8.8914591004 
Si 4.3909570181 1.9917149079 5.9094474557 
Si 4.1588103684 5.8606981478 3.3781197071 
Si 7.4737420413 9.1075083778 5.4558396644 
Si 3.7813089121 8.8816241801 6.7045768434 
Si 7.6611477777 1.9235084062 9.8554514124 
Si 1.7909974739 2.5370373186 0.3717546731 
Si 8.1458445496 4.8370477406 3.3076910450 
Si 10.0022096888 0.8244151224 7.2857515259 
Si 1.8919409700 2.5340602616 8.1123632910 
Si 9.9069757627 9.8492846516 5.1203678731 
Si 6.6511280384 6.8316759114 4.6781047953 

