&CONTROL
   calculation      = 'scf'
   tstress          = .true.
   tprnfor          = .true.
   outdir           = './'
   disk_io          = 'none'
   pseudo_dir       = '/home/ppiaggi/pseudos'
/
&SYSTEM
   ecutwfc          = 30
   occupations      = 'smearing'
   degauss          = 0.01
   smearing         = 'fermi-dirac'
   input_dft        = 'PBE'
   ntyp             = 1
   nat              = 64
   ibrav            = 0
/
&ELECTRONS
   electron_maxstep = 100
   mixing_beta      = 0.5
/
&IONS
/
&CELL
/

ATOMIC_SPECIES
Si 28.085 Si_ONCV_PBE_sr.upf

K_POINTS gamma

CELL_PARAMETERS angstrom
10.60223506590287 0.00000000000000 0.00000000000000
0.00000000000000 10.60223506590287 0.00000000000000
0.00000000000000 0.00000000000000 10.60223506590287

ATOMIC_POSITIONS angstrom
Si 10.2707137776 0.0101502194 2.1419165392 
Si 5.9446944059 9.0871438683 5.0072765881 
Si 8.3033524366 0.9399814383 4.2226475798 
Si 2.4876236180 4.2947745850 8.5193305671 
Si 8.6909807528 8.4634885950 5.7819394954 
Si 5.2312700083 3.3628169182 6.8536452226 
Si 7.7946253914 2.0663968188 0.0003178752 
Si 8.1597875715 8.4701255941 3.0417918426 
Si 10.3669396631 9.6862019562 4.3936086203 
Si 10.2421195497 2.4040355967 5.2228200270 
Si 10.4663250146 6.5729192425 5.1675399734 
Si 3.6212145912 8.2832824056 3.5206948006 
Si 1.8063027882 4.1508598462 1.0801026973 
Si 7.6943600544 3.3737266181 6.9073455432 
Si 8.2475528734 3.9258910203 4.5105512730 
Si 3.5242359471 10.0254416716 10.2998699241 
Si 7.6808316024 6.4013220680 1.0437338504 
Si 5.3289271955 8.3741011512 8.4052611200 
Si 7.8522273345 9.1343344166 9.9249854944 
Si 7.9140065582 0.0924047339 1.2019435827 
Si 1.8287265153 2.0148487519 9.2764573776 
Si 2.9581084013 2.8880170252 4.2197319652 
Si 5.0925821714 2.7349313531 0.6216058612 
Si 1.4011383751 3.8917306189 5.5146147405 
Si 3.2626682058 0.7228253994 6.8940927494 
Si 0.9827709988 9.9189104137 0.2450812658 
Si 0.7849810025 5.1992618607 2.9742874120 
Si 3.0067938647 1.5815142003 1.0448439044 
Si 6.0888635983 2.8652540266 3.3846681247 
Si 7.2118947455 6.2738726002 4.8688538071 
Si 8.9696180926 5.3535137786 2.6177978601 
Si 4.6942668022 5.1133095410 9.1300829203 
Si 1.1550498970 10.0693773337 8.1215135029 
Si 0.6731380248 7.8063726678 7.6977315651 
Si 6.3526154001 0.2503049870 8.3990906192 
Si 6.9763554912 0.3807103579 6.0515437309 
Si 10.4630807307 5.0030781030 7.4613123254 
Si 2.6020111321 6.1144785983 6.6977181515 
Si 0.6490857943 7.6787323599 2.5905183093 
Si 10.3903918071 3.1867986116 9.6327136803 
Si 5.5443009987 9.1138615006 0.6769113602 
Si 6.1177334844 10.5367874688 2.8491598337 
Si 9.3449796228 3.3015041928 1.3261487665 
Si 0.4563445824 2.1670438363 2.6344751759 
Si 1.0072282346 5.9619866513 9.9426382157 
Si 1.8748568401 0.4871440752 4.8749500922 
Si 8.7811103531 7.7557469954 8.0640387867 
Si 8.2672200195 5.3889146415 8.3571269728 
Si 6.9728885604 4.5415204017 10.2624864432 
Si 3.6977945351 0.2386404080 3.1103458946 
Si 3.9797927834 5.4799772385 0.9929735296 
Si 2.7863203865 7.7945405735 1.4130870941 
Si 9.8714866162 7.8783830484 0.4367993620 
Si 4.9541593904 1.4313229384 5.2728201676 
Si 3.2189021794 7.3014518251 9.1705516515 
Si 10.1355564850 0.5735385081 7.0181813086 
Si 4.7199666200 5.4722694136 5.3138402150 
Si 4.2768462055 4.7638280665 3.2791970902 
Si 4.4872051514 1.9247509583 8.6401536379 
Si 4.1483577187 9.1143173968 6.7960432795 
Si 5.7674462401 7.2955993913 2.6612458194 
Si 6.4225583448 6.3860442472 7.4922390451 
Si 8.4009142036 1.6154943637 8.4015609400 
Si 2.0501435925 8.2406932273 5.1804428934 

