&CONTROL
   calculation      = 'scf'
   tstress          = .true.
   tprnfor          = .true.
   outdir           = './'
   disk_io          = 'none'
   pseudo_dir       = '/home/ppiaggi/pseudos'
/
&SYSTEM
   ecutwfc          = 30
   occupations      = 'smearing'
   degauss          = 0.01
   smearing         = 'fermi-dirac'
   input_dft        = 'PBE'
   ntyp             = 1
   nat              = 64
   ibrav            = 0
/
&ELECTRONS
   electron_maxstep = 100
   mixing_beta      = 0.5
/
&IONS
/
&CELL
/

ATOMIC_SPECIES
Si 28.085 Si_ONCV_PBE_sr.upf

K_POINTS gamma

CELL_PARAMETERS angstrom
10.70442024499983 0.00000000000000 0.00000000000000
0.00000000000000 10.70442024499983 0.00000000000000
0.00000000000000 0.00000000000000 10.70442024499983

ATOMIC_POSITIONS angstrom
Si 5.9436828631 9.4280037661 9.6686498377 
Si 2.6062480147 7.4479964490 6.4752322592 
Si 3.3569918242 0.7021221918 6.2480737572 
Si 0.7441295482 5.6317453528 6.3601276283 
Si 0.6700453261 3.4521648246 4.2563236911 
Si 7.9259809262 9.1134329684 0.7047404930 
Si 10.3985200277 2.6041820616 0.6692253675 
Si 7.5300244213 0.7313431182 8.1527968868 
Si 10.5771339839 10.1303421873 6.1445834223 
Si 1.1852041139 1.5245663490 1.9784337674 
Si 6.1149428826 1.8405180169 6.5725354393 
Si 2.7500083786 6.1415968890 10.0221633163 
Si 9.5980970038 6.7392888978 4.5239127884 
Si 0.5766974294 8.4096815638 3.1381078390 
Si 2.4603467668 5.1711127408 3.3582335369 
Si 1.3934264966 6.8104304748 1.7766447413 
Si 5.7228078558 10.5497092592 5.0659311075 
Si 9.8776857562 10.6332893725 2.5414006369 
Si 6.1019156032 3.7609552354 0.8332962984 
Si 4.1298830791 6.0701341795 4.8847909081 
Si 0.7067914599 6.3724484161 8.9485527834 
Si 10.1169402531 7.1329546568 0.1521472772 
Si 3.0536820766 8.5217247305 1.5534896925 
Si 3.8401786496 0.0251106431 10.0613843120 
Si 0.9334436429 8.8347005696 7.8873058559 
Si 1.7465867293 3.1215373965 6.6255223195 
Si 9.5614664778 1.0461269339 6.9972654258 
Si 8.0814626303 4.9357760617 0.6181406628 
Si 7.7616787799 4.7883868994 5.2428858785 
Si 9.5436008004 4.5334290180 9.1024716421 
Si 6.7450799892 9.2171480962 7.0037630088 
Si 3.0916399507 10.3443770701 8.0129971584 
Si 9.2956971319 0.6502442896 10.2126056568 
Si 1.9646143608 1.1669958951 4.6564121022 
Si 8.6220679659 2.7771869016 2.4353305367 
Si 4.2027266589 3.1436099110 7.8907740880 
Si 8.7664705950 9.0130683242 5.2486448566 
Si 5.6277097863 1.7558888705 9.7034927256 
Si 1.8951212646 10.4320783851 0.7211492988 
Si 9.4067876052 2.6665995361 5.2940744161 
Si 0.9803043834 4.5489932450 0.5609576498 
Si 6.1159169849 7.6309671043 2.2379089141 
Si 3.1655967902 3.4790757371 1.1768653706 
Si 4.5619134802 8.3014812840 7.6247050184 
Si 0.0848815567 2.1641875719 8.6487112679 
Si 4.6347035379 4.9351016832 9.3709170930 
Si 6.8845906983 2.3466658238 4.0031641523 
Si 4.6723295751 7.7246628947 0.1326855707 
Si 8.8543324764 8.2172160878 8.0736698123 
Si 6.5577205217 5.3275150250 3.0180149483 
Si 2.5168661057 2.1902528352 9.8847399692 
Si 7.1858987193 10.2595659485 3.2087998303 
Si 4.2604448929 8.5637181711 3.7624645587 
Si 7.4490775955 6.9833389750 9.8570476340 
Si 9.9587289219 5.2792487941 2.6706458069 
Si 6.1537249972 6.1962001367 7.8887402482 
Si 3.8534842440 1.6234323744 3.0736137070 
Si 5.1454114278 10.6998066399 1.6788919756 
Si 7.3561418189 1.3521502521 0.9534105980 
Si 8.8224118952 5.9882025469 7.2193286237 
Si 2.0024651908 9.2228428477 4.8888478834 
Si 4.9083085194 3.8232335524 3.5453682117 
Si 0.0896006004 9.4833242100 10.4212241030 
Si 5.6214477005 4.4451282554 6.3842446872 

