&CONTROL
   calculation      = 'scf'
   tstress          = .true.
   tprnfor          = .true.
   outdir           = './'
   disk_io          = 'none'
   pseudo_dir       = '/home/ppiaggi/pseudos'
/
&SYSTEM
   ecutwfc          = 30
   occupations      = 'smearing'
   degauss          = 0.01
   smearing         = 'fermi-dirac'
   input_dft        = 'PBE'
   ntyp             = 1
   nat              = 64
   ibrav            = 0
/
&ELECTRONS
   electron_maxstep = 100
   mixing_beta      = 0.5
/
&IONS
/
&CELL
/

ATOMIC_SPECIES
Si 28.085 Si_ONCV_PBE_sr.upf

K_POINTS gamma

CELL_PARAMETERS angstrom
10.70296895944261 0.00000000000000 0.00000000000000
0.00000000000000 10.70296895944261 0.00000000000000
0.00000000000000 0.00000000000000 10.70296895944261

ATOMIC_POSITIONS angstrom
Si 10.1913991521 10.5370087228 9.1888734556 
Si 2.9551111356 9.8595857084 7.7940197289 
Si 9.2671121587 8.5706485626 3.5430145176 
Si 7.5839311512 3.8008918517 3.6051559554 
Si 3.0808068031 6.7933991609 0.4528383355 
Si 2.0611670592 0.4709498996 2.0519625059 
Si 2.3582386657 2.8674538199 1.3386845456 
Si 2.6039788330 1.8356448003 7.9367010081 
Si 2.9339085541 4.1935302680 3.2838421243 
Si 7.8037273218 10.6355295520 10.2134900800 
Si 7.8540633848 7.4023552828 7.3574670310 
Si 5.9700625707 5.8697329397 10.1665575611 
Si 10.3540414684 3.4527777863 1.1408294614 
Si 5.8421620917 6.9780467814 3.6107107963 
Si 6.2272549148 8.6810603903 5.3957626623 
Si 10.1336673375 2.9204335162 6.8111553864 
Si 3.5232568369 8.7975086926 5.9192234682 
Si 1.1272473938 8.7127090696 3.4617040624 
Si 4.2582190124 3.5671176037 0.2044962764 
Si 7.2520106778 4.9218351968 1.4355785236 
Si 6.7164662200 9.8766355380 8.0623966756 
Si 5.4377290036 6.9770514053 7.0579551476 
Si 5.2736203805 4.6783961678 7.8114548654 
Si 8.7167547918 2.2399815616 4.9827350902 
Si 1.6049530073 3.5264677276 9.7267297547 
Si 5.1657023445 0.9356910068 7.6775714266 
Si 2.8273926070 6.6911108866 4.0954161515 
Si 3.3522126900 3.7193138223 6.4371829480 
Si 8.9728875420 6.6228901624 5.3433716293 
Si 10.0914976398 4.9999989791 3.6111175091 
Si 0.5758925102 0.7228250087 6.6136963121 
Si 0.3404079278 5.5267241905 6.5560073094 
Si 8.1060326800 10.5936274286 4.6171751854 
Si 5.6354663551 8.3114547633 9.5312721356 
Si 0.1681682592 5.7179862458 8.8855299093 
Si 2.5377488611 6.2943090154 6.6307568446 
Si 7.7647578118 2.7934213836 0.0957585000 
Si 6.8057824960 5.5130136873 4.9350212545 
Si 4.3300038252 10.6021469918 0.9222352343 
Si 10.1779027082 1.9848441876 9.3438417432 
Si 7.7136511350 7.5182256248 2.2803531606 
Si 1.1473689754 6.9635442585 1.5521552615 
Si 6.6027792837 2.6661095678 6.6863052535 
Si 5.4713577321 1.6536515161 10.2721637559 
Si 4.4524136812 2.8133182029 4.6591094177 
Si 6.7611511154 9.2588173577 1.1889821187 
Si 9.4443426217 10.4052230660 1.7286793285 
Si 7.9409607898 3.6517887911 8.6352516832 
Si 9.1065783273 9.8653546087 6.9080065525 
Si 2.0631899204 0.1325733953 4.5215120488 
Si 3.1468227156 8.8318010052 10.0475833582 
Si 10.0522712586 5.8318551326 1.3585706619 
Si 1.0201213775 8.0646121902 8.6455158304 
Si 4.4806374103 5.6215953074 1.8486703135 
Si 0.8690436191 9.3095280247 0.6764950669 
Si 8.3456400461 5.9409504952 9.0857075378 
Si 1.1883506436 3.3571146498 4.6531585670 
Si 0.3290884678 8.4733906836 6.2390923985 
Si 5.7891609894 0.0273538989 3.3887205171 
Si 3.2014827781 5.6702724102 9.1657978545 
Si 4.4177467647 0.5695392278 5.2729996083 
Si 10.4374604085 1.7718872142 3.1236186789 
Si 9.3768711054 7.9369043645 10.3677840805 
Si 5.7799243272 2.5782060837 2.5309845847 

