&CONTROL
   calculation      = 'scf'
   tstress          = .true.
   tprnfor          = .true.
   outdir           = './'
   disk_io          = 'none'
   pseudo_dir       = '/home/ppiaggi/pseudos'
/
&SYSTEM
   ecutwfc          = 30
   occupations      = 'smearing'
   degauss          = 0.01
   smearing         = 'fermi-dirac'
   input_dft        = 'PBE'
   ntyp             = 1
   nat              = 64
   ibrav            = 0
/
&ELECTRONS
   electron_maxstep = 100
   mixing_beta      = 0.5
/
&IONS
/
&CELL
/

ATOMIC_SPECIES
Si 28.085 Si_ONCV_PBE_sr.upf

K_POINTS gamma

CELL_PARAMETERS angstrom
10.61301201481156 0.00000000000000 0.00000000000000
0.00000000000000 10.61301201481156 0.00000000000000
0.00000000000000 0.00000000000000 10.61301201481156

ATOMIC_POSITIONS angstrom
Si 0.3419682279 7.8056899157 1.5302159113 
Si 7.6089883510 0.9945665819 8.7437634347 
Si 0.8980274407 3.0895751537 5.5024858873 
Si 7.4525207149 6.5635748285 9.4579766912 
Si 9.1062614730 6.7292227200 7.0335932916 
Si 1.6696815022 7.3417527085 7.7799109095 
Si 1.5005313167 5.9385427119 0.6880627949 
Si 5.5175563643 3.5214822906 4.2572718006 
Si 9.9101652941 6.0780825939 9.8350251691 
Si 2.1213712936 5.1989112916 5.4601824214 
Si 8.3862853510 8.3489275487 0.6914674492 
Si 10.1521207420 1.0007879296 9.5158494457 
Si 9.5840486609 3.6128390980 3.8205251302 
Si 3.1842538338 4.6293109368 3.0615780280 
Si 0.3945514573 2.7139275934 0.3426782384 
Si 3.7223972211 6.2459379919 7.9317088204 
Si 8.3950092468 7.2389869131 2.9731928639 
Si 2.9659972418 9.8018595065 6.5732857345 
Si 0.1575066500 0.1674287549 3.3724437629 
Si 7.2408335772 3.7498106311 9.1511226748 
Si 5.7319498200 7.2426908543 5.0821363204 
Si 1.9488143312 1.8080857919 3.5221509104 
Si 6.0238288765 9.0690840920 0.8456044679 
Si 5.4716763134 10.4001892849 2.8788644131 
Si 7.3144029765 0.6677707160 0.5754491858 
Si 1.9163809665 2.9436356254 9.2668681839 
Si 4.3054867142 3.9634611760 6.1961841916 
Si 2.8721782155 2.1583258014 6.8603570965 
Si 7.4400822648 3.5440349411 6.6138168274 
Si 9.2620604894 8.9949097510 8.8937359074 
Si 0.9686856908 8.4952066933 9.5699333550 
Si 0.6984996310 5.2011294111 7.9750629744 
Si 3.2529518606 7.7478383872 5.2599467237 
Si 7.4944102733 3.6947397118 2.3929688840 
Si 8.6770288151 5.4092505767 5.1446469612 
Si 1.0738670077 0.0024421920 7.4777690705 
Si 8.9609056605 4.1597488332 0.3092875800 
Si 8.0503729077 1.4479226162 3.0434085514 
Si 3.7008103546 0.4429765085 4.7550326771 
Si 2.2058402562 1.0942015387 1.0870908207 
Si 6.2862037595 6.0479098007 7.0737210900 
Si 6.3247608322 5.8037362333 3.0239230613 
Si 5.8345351942 5.4758047751 0.4632993652 
Si 6.1764439892 0.9891454554 5.5116555297 
Si 4.9206805686 7.9208623221 9.6234229355 
Si 3.0103277929 9.9527340853 9.8125892617 
Si 3.4949497606 4.9790521347 9.8950629780 
Si 9.7693412377 2.6817383280 7.4189411449 
Si 10.0970285967 10.2095583631 5.7612629592 
Si 0.5985229352 6.4839772384 3.7980255447 
Si 7.1019410890 9.0587788573 4.4792535599 
Si 8.7401762366 1.4149798269 5.4744781486 
Si 3.9688101340 1.8065044531 9.8167814014 
Si 4.4272179620 2.3586782422 2.3049764014 
Si 9.6955489652 0.1601991712 1.1869804898 
Si 7.9610325726 9.2628034003 6.8459764652 
Si 5.3627125190 0.6167327412 7.8982778325 
Si 5.4307737651 8.7815669835 7.4543461529 
Si 0.3348638777 7.9560550699 5.8788657454 
Si 4.0713106041 6.6130526905 1.9665380613 
Si 0.7648840211 4.3130644047 2.5138404779 
Si 1.7146700601 9.2299985801 3.4441134330 
Si 3.4787755303 9.0935789237 1.7175992515 
Si 5.7318118509 2.7914874852 0.3567001499 

