&CONTROL
   calculation      = 'scf'
   tstress          = .true.
   tprnfor          = .true.
   outdir           = './'
   disk_io          = 'none'
   pseudo_dir       = '/home/ppiaggi/pseudos'
/
&SYSTEM
   ecutwfc          = 30
   occupations      = 'smearing'
   degauss          = 0.01
   smearing         = 'fermi-dirac'
   input_dft        = 'PBE'
   ntyp             = 1
   nat              = 64
   ibrav            = 0
/
&ELECTRONS
   electron_maxstep = 100
   mixing_beta      = 0.5
/
&IONS
/
&CELL
/

ATOMIC_SPECIES
Si 28.085 Si_ONCV_PBE_sr.upf

K_POINTS gamma

CELL_PARAMETERS angstrom
10.64130559800408 0.00000000000000 0.00000000000000
0.00000000000000 10.64130559800408 0.00000000000000
0.00000000000000 0.00000000000000 10.64130559800408

ATOMIC_POSITIONS angstrom
Si 5.7204040851 2.8572756835 6.7047354942 
Si 4.2981297441 1.0643965924 0.5166258096 
Si 5.4261826266 5.2794283811 6.7843431014 
Si 7.6159292100 10.5835871564 6.8349318682 
Si 9.4714430258 1.1740552466 8.7290204168 
Si 1.0831678555 8.3264704674 7.2011204764 
Si 6.1271679916 0.7215081869 4.8784533449 
Si 6.3510078548 5.5085782559 8.8606959323 
Si 0.8145557631 5.4734193822 10.4783765680 
Si 4.7271446206 10.4545932500 8.4299890882 
Si 7.7177239393 3.5000637482 8.0643006213 
Si 7.2680117234 3.0921505807 10.4727260347 
Si 2.3351600243 2.5169880131 8.0501370436 
Si 6.3591910188 8.2732426568 2.8954992532 
Si 2.3616887992 6.6220844736 3.1693958180 
Si 2.2206063696 9.8602337671 5.6043074410 
Si 3.6226728713 0.9550571774 6.6738969906 
Si 4.9488030162 9.2607877402 0.7716638526 
Si 3.9964061652 1.9808683958 4.4248464112 
Si 9.0340640831 6.3589781927 8.5220683056 
Si 9.0494939762 5.0614412359 0.1466893335 
Si 10.0115318501 9.5124120523 8.7196560679 
Si 1.3198624159 9.8768129212 9.9159090780 
Si 3.0170442458 4.3191888879 5.3798503820 
Si 2.9810340676 4.7918650412 7.7763362505 
Si 1.1280635238 9.7779019857 1.6825500346 
Si 4.8030171295 2.7577581936 9.2136148324 
Si 8.1343949013 2.2941484326 2.7360924954 
Si 7.9965580699 6.0012281398 5.9768595500 
Si 4.7571211784 6.8431895214 2.2754729412 
Si 9.4097660185 7.9656131532 10.5968462232 
Si 10.2015749268 4.3398010968 6.2853935645 
Si 9.6563995584 9.3557294687 2.7867663926 
Si 1.3599482141 3.4991166720 1.1392156121 
Si 3.4176255537 8.3376864035 7.9666666425 
Si 6.2943216199 0.4100871862 2.4831805852 
Si 3.5266882948 4.4827457549 1.0590738114 
Si 5.1056558607 7.6334660816 6.7712649368 
Si 7.9085119074 2.7140330689 5.2518673996 
Si 2.0896225390 1.3929681854 2.9134404945 
Si 4.9320003946 9.1310383010 4.8414003188 
Si 9.5918706812 8.2375730004 5.9086487811 
Si 5.3473731174 2.8304383108 1.7681699795 
Si 3.1814949825 9.0801622189 2.8708114242 
Si 7.4172241105 4.7628249182 3.9773475868 
Si 1.7690851318 1.6688014678 10.1953497630 
Si 7.2020037048 9.1005190366 10.3280787677 
Si 9.6230816306 2.3092058800 0.2745169529 
Si 6.6874646552 6.6138161792 0.5560433338 
Si 0.2214242869 2.1346246203 7.0400323923 
Si 3.0031999072 8.0707386112 10.2288273104 
Si 7.3156634899 8.3301949243 7.8744171642 
Si 8.7225717856 0.1040134416 1.0658225274 
Si 0.7323154969 5.9858514532 7.7407304420 
Si 10.4329807583 3.3325057502 3.1988190280 
Si 0.7586697543 5.2690531082 4.3378856618 
Si 0.6822545388 0.9308375659 4.9869733794 
Si 4.9249877743 4.7994522921 3.8810331299 
Si 0.9051824422 7.3513225050 1.1329478831 
Si 9.4043070288 5.7841135817 2.4306338182 
Si 4.0557101613 5.6724756447 9.9703180735 
Si 6.8878830049 0.6954806176 9.3788317432 
Si 9.2428784228 10.4390888677 4.7068516508 
Si 8.4119414339 7.5401418315 3.5151105543 

