&CONTROL
   calculation      = 'scf'
   tstress          = .true.
   tprnfor          = .true.
   outdir           = './'
   disk_io          = 'none'
   pseudo_dir       = '/home/ppiaggi/pseudos'
/
&SYSTEM
   ecutwfc          = 30
   occupations      = 'smearing'
   degauss          = 0.01
   smearing         = 'fermi-dirac'
   input_dft        = 'PBE'
   ntyp             = 1
   nat              = 64
   ibrav            = 0
/
&ELECTRONS
   electron_maxstep = 1000
   mixing_beta      = 0.5
/
&IONS
/
&CELL
/

ATOMIC_SPECIES
Si 28.085 Si_ONCV_PBE_sr.upf

K_POINTS gamma

CELL_PARAMETERS angstrom
10.89276770165410 0.00000000000000 0.00000000000000
0.00000000000000 10.92799282415757 0.00000000000000
0.00000000000000 0.00000000000000 11.10892219149116

ATOMIC_POSITIONS angstrom
Si 0.0366035643 0.0324669238 -0.0187963197 
Si 0.0442833636 2.7094956282 2.7328274129 
Si 2.7205319281 0.0077504225 2.7099444660 
Si 2.7622422505 2.6875297680 -0.0162308099 
Si 1.3762137334 1.3835797329 1.3606059717 
Si 5.5067905082 -0.0018303660 -0.0291615659 
Si 5.5498793770 2.7006847632 2.7858721185 
Si 6.8868076939 1.2923458814 1.3350957859 
Si 8.2529862741 0.0094592561 2.7950392714 
Si 8.2258697469 2.6374246129 -0.0429625239 
Si -0.0351642741 5.3800923581 0.0168970395 
Si 2.7769984201 5.3888083817 2.7813206207 
Si 1.3268324009 6.6559215212 1.3818046302 
Si 4.1286688688 3.9779647346 1.4028839401 
Si 5.4574083995 5.3394516805 -0.0092447585 
Si 6.9121701314 6.7475202974 1.3436567888 
Si 9.6006665801 3.9742406910 1.3331921336 
Si 8.2424357044 5.3708532329 2.7813842376 
Si -0.0138064897 8.0524391871 2.7868171093 
Si 2.7600234447 8.0367444011 -0.0412336808 
Si 4.0916008401 9.4038323115 1.4201954346 
Si 5.4520180297 8.0662874456 2.7306271521 
Si 8.2024818069 8.0527056693 -0.0046012882 
Si 9.6576456679 9.3404142284 1.3874999070 
Si -0.0375258888 0.0335864279 5.5196496052 
Si 2.7773096546 2.7204581854 5.4706471385 
Si 1.3732537269 1.3352136972 6.8985386984 
Si 4.1673245654 1.3162991969 4.1023900085 
Si 5.5246486457 -0.0251339379 5.4764120755 
Si 6.8964063057 1.3486380173 6.8487329234 
Si 9.6748365602 1.3697740895 4.1293745059 
Si 8.2076617678 2.6752675586 5.4655657675 
Si 1.3575548730 4.0018983844 4.0865851406 
Si -0.0012674085 5.3578947495 5.4986594997 
Si 1.3999935235 6.6588091474 6.9104517606 
Si 6.8338755373 4.0384296276 4.1388634576 
Si 4.1628473058 6.6614590249 4.1608595700 
Si 4.1529544634 3.9802168232 6.8561346444 
Si 5.5067256421 5.3157902000 5.5360881632 
Si 6.8589071760 6.6952225911 6.9095440475 
Si 9.6639827009 6.7310796407 4.1388417194 
Si 9.6700843653 4.0000887032 6.8998440807 
Si 1.3498879821 9.3372367945 4.1298574055 
Si 2.7811023073 8.0529114158 5.5076295585 
Si 6.8831238440 9.4103904965 4.1260761302 
Si 4.1232198227 9.4304136256 6.8567823716 
Si 8.2484561816 8.0444367554 5.5349795699 
Si 9.6534761156 9.3734629136 6.8632501375 
Si 0.0353990921 2.6818786815 8.3006786986 
Si 2.7001124577 0.0290510188 8.2867217784 
Si 4.1005792535 1.3693395203 9.5933222488 
Si 5.4981930233 2.6322110010 8.3148721901 
Si 8.2724061286 -0.0018390813 8.2471990830 
Si 9.6550548073 1.3235830045 9.6700969574 
Si 1.3627691920 3.9814245949 9.6284190347 
Si 2.7052693441 5.3587382264 8.2668632424 
Si 6.8507223386 3.9789691036 9.6720244963 
Si 4.0879017883 6.7190166271 9.6414774882 
Si 8.2613709005 5.3858708590 8.3132158120 
Si 9.6371546379 6.6915280942 9.6363292670 
Si 0.0438338528 7.9953827150 8.2592325212 
Si 1.3526598665 9.3515434734 9.6917229144 
Si 5.4984866321 7.9941099737 8.2692433269 
Si 6.8909849816 9.3765958012 9.6538246471 

