&CONTROL
   calculation      = 'scf'
   tstress          = .true.
   tprnfor          = .true.
   outdir           = './'
   disk_io          = 'none'
   pseudo_dir       = '/home/ppiaggi/pseudos'
/
&SYSTEM
   ecutwfc          = 30
   occupations      = 'smearing'
   degauss          = 0.01
   smearing         = 'fermi-dirac'
   input_dft        = 'PBE'
   ntyp             = 1
   nat              = 64
   ibrav            = 0
/
&ELECTRONS
   electron_maxstep = 1000
   mixing_beta      = 0.5
/
&IONS
/
&CELL
/

ATOMIC_SPECIES
Si 28.085 Si_ONCV_PBE_sr.upf

K_POINTS gamma

CELL_PARAMETERS angstrom
10.85442614210389 0.00000000000000 0.00000000000000
0.00000000000000 10.96260760023326 0.00000000000000
0.00000000000000 0.00000000000000 11.13335068682381

ATOMIC_POSITIONS angstrom
Si 0.0063714855 -0.0438571166 -0.0210532780 
Si 0.0124880349 2.7744094583 2.7746641604 
Si 2.6960560747 0.0442873024 2.7803468914 
Si 2.7140182533 2.7749010656 -0.0360085348 
Si 1.3129854813 1.3626348311 1.3439735212 
Si 5.3054445848 -0.0385856364 -0.0097758470 
Si 5.2913043701 2.7123769916 2.7989454512 
Si 6.6913401487 1.3823567900 1.3969727199 
Si 7.9884196974 -0.0038974483 2.7760018108 
Si 7.9782034919 2.7489463999 -0.0214268987 
Si 0.0091752840 5.5379330586 0.0171177224 
Si 2.6363201561 5.5533215810 2.7408351051 
Si 1.3612002631 6.8959659609 1.4315521582 
Si 3.9708937066 4.1054433765 1.3691154028 
Si 5.2918518381 5.4566069445 -0.0333702097 
Si 6.6260283344 6.8933046312 1.3798036594 
Si 9.3228772847 4.1376255040 1.4010754001 
Si 8.0199409899 5.5058001333 2.7685908442 
Si -0.0324988501 8.2708359544 2.7331578599 
Si 2.6183492482 8.2174456481 0.0021807911 
Si 3.9938331283 9.6186955800 1.3440063558 
Si 5.3590364808 8.2519680268 2.8043332971 
Si 8.0472152648 8.2343243912 -0.0092675696 
Si 9.3110365248 9.6404330694 1.3842821500 
Si -0.0363333094 -0.0442905894 5.5153100932 
Si 2.6781568296 2.7929652052 5.5248096200 
Si 1.3458184962 1.4129343596 6.9700722869 
Si 3.9839393316 1.3391328182 4.1403118013 
Si 5.3453553511 -0.0302287502 5.5608266778 
Si 6.6551344284 1.3786374240 6.9117384821 
Si 9.3565511840 1.3958523585 4.1608560003 
Si 8.0247261396 2.7501225494 5.4882917067 
Si 1.3557876370 4.0863784181 4.1030797291 
Si -0.0265765604 5.5220831972 5.5005156039 
Si 1.3098939494 6.8931740726 6.9720743751 
Si 6.6596264606 4.0835011112 4.1437758526 
Si 4.0389327444 6.9241116392 4.1632865402 
Si 4.0010542507 4.0870300498 6.8907960418 
Si 5.3661359442 5.5318466689 5.5393752837 
Si 6.7082854022 6.8802389088 6.8811056132 
Si 9.3014222154 6.8380941831 4.1953700119 
Si 9.3173330107 4.0873834767 6.9408575864 
Si 1.3543481125 9.6744323581 4.2002906393 
Si 2.6322458136 8.2405088510 5.4933793535 
Si 6.7115735235 9.5849579460 4.1337057692 
Si 3.9664262452 9.5932124807 6.9655625278 
Si 7.9619013850 8.2596514960 5.5724980888 
Si 9.3289184878 9.6038188285 6.9476289782 
Si -0.0040728130 2.7380099547 8.3236142910 
Si 2.6527959883 -0.0154323942 8.2572151185 
Si 3.9782696185 1.3991869362 9.7149663528 
Si 5.2903857071 2.7768667023 8.3037198283 
Si 8.0117361310 0.0330648210 8.3072103897 
Si 9.3521630655 1.3895021810 9.6415194784 
Si 1.2953625688 4.1317072931 9.7218608087 
Si 2.6850454588 5.5327020102 8.2670402275 
Si 6.6593787360 4.1147804536 9.6945160567 
Si 3.9694876828 6.8725554665 9.7233370737 
Si 7.9890298927 5.5504747807 8.3498251676 
Si 9.3352913872 6.8943646204 9.6797631788 
Si -0.0274243192 8.2572735726 8.3432877116 
Si 1.3146969496 9.6532646835 9.6965872990 
Si 5.3032947049 8.3033129750 8.2588900687 
Si 6.6541516539 9.6317860759 9.7394532398 

