&CONTROL
   calculation      = 'scf'
   tstress          = .true.
   tprnfor          = .true.
   outdir           = './'
   disk_io          = 'none'
   pseudo_dir       = '/home/ppiaggi/pseudos'
/
&SYSTEM
   ecutwfc          = 30
   occupations      = 'smearing'
   degauss          = 0.01
   smearing         = 'fermi-dirac'
   input_dft        = 'PBE'
   ntyp             = 1
   nat              = 64
   ibrav            = 0
/
&ELECTRONS
   electron_maxstep = 1000
   mixing_beta      = 0.5
/
&IONS
/
&CELL
/

ATOMIC_SPECIES
Si 28.085 Si_ONCV_PBE_sr.upf

K_POINTS gamma

CELL_PARAMETERS angstrom
11.11387015049381 0.00000000000000 0.00000000000000
0.00000000000000 10.89676562923234 0.00000000000000
0.00000000000000 0.00000000000000 10.92241528169677

ATOMIC_POSITIONS angstrom
Si -0.0143617836 -0.0377597451 0.0336704093 
Si -0.0324457079 2.7372616941 2.6694579326 
Si 2.8118791596 -0.0147675926 2.7038564801 
Si 2.8048820939 2.7558909488 -0.0391494677 
Si 1.4083359205 1.3699984798 1.3861414803 
Si 5.6226137847 0.0490428911 -0.0466538734 
Si 5.6127296275 2.6726200040 2.6774543945 
Si 6.9824421182 1.3622216598 1.3232182529 
Si 8.4052300732 -0.0331680976 2.7126168542 
Si 8.4400037326 2.7189164040 0.0069426985 
Si -0.0285248403 5.4778646627 0.0203884028 
Si 2.8295409511 5.4644827601 2.6774675524 
Si 1.4078946961 6.7873936842 1.3615497584 
Si 4.2257222428 4.0958044720 1.3310142550 
Si 5.6493160992 5.4088730976 0.0117079220 
Si 7.0676360123 6.7625132828 1.3313756431 
Si 9.8105334258 4.0331144227 1.3541277787 
Si 8.4028718712 5.4169757276 2.7530194304 
Si 0.0510808459 8.1268943690 2.6883097588 
Si 2.8582924990 8.1845352575 0.0488915582 
Si 4.1791077303 9.5332103625 1.3070909361 
Si 5.6386687042 8.1837688299 2.7545059019 
Si 8.4132160885 8.1684613171 0.0229838162 
Si 9.8771210829 9.4931610331 1.3393806709 
Si 0.0223783502 0.0022838911 5.4127412156 
Si 2.8375584054 2.6958707504 5.3724992121 
Si 1.3944216329 1.3639427778 6.7248890371 
Si 4.2126127307 1.4041147583 4.0145850369 
Si 5.6012738804 0.0391887809 5.3833243818 
Si 7.0138071780 1.3711254024 6.7483084642 
Si 9.7877366616 1.3179488770 4.0148105785 
Si 8.3914673938 2.7052411992 5.4023057620 
Si 1.3611645630 4.0651010248 4.0244666619 
Si -0.0442731612 5.3964019262 5.4431825748 
Si 1.4295547331 6.8172704577 6.7839963687 
Si 6.9877069560 4.0377935625 4.1078310317 
Si 4.2579543148 6.7671269388 4.0201642041 
Si 4.1861338092 4.1202429193 6.7445625480 
Si 5.5990771747 5.4404443315 5.4351106314 
Si 7.0557696381 6.7855832670 6.7536975364 
Si 9.8618233453 6.7974073862 4.0311078951 
Si 9.8037692761 4.0799132944 6.7851483923 
Si 1.4442424129 9.4836826450 4.0210072566 
Si 2.8542101077 8.2066161026 5.3735490697 
Si 7.0147895928 9.5226329128 4.0678961697 
Si 4.1687259624 9.5090271040 6.7327516287 
Si 8.4073993028 8.1399687489 5.4406642164 
Si 9.8658058631 9.5132187138 6.7524902750 
Si -0.0128871551 2.7508241629 8.1220980233 
Si 2.7849870464 -0.0045848348 8.1080282643 
Si 4.1898643552 1.3684943984 9.4912371956 
Si 5.6443410335 2.7232966993 8.1732876647 
Si 8.4225699209 -0.0048441487 8.1529633589 
Si 9.8694873281 1.3718946889 9.4653934941 
Si 1.3955270033 4.1297178246 9.4736493185 
Si 2.8045081680 5.4407315035 8.1623649852 
Si 7.0046658260 4.1044881883 9.5081782639 
Si 4.2386390467 6.7959161304 9.4634727421 
Si 8.3917061242 5.4859680077 8.1575941043 
Si 9.8529465153 6.7663600553 9.4573987465 
Si -0.0159175603 8.1205468668 8.1594714519 
Si 1.4251333180 9.5128347940 9.5219635780 
Si 5.5859668401 8.1283161202 8.1265581197 
Si 7.0706850709 9.5652104266 9.4907666534 

