&CONTROL
   calculation      = 'scf'
   tstress          = .true.
   tprnfor          = .true.
   outdir           = './'
   disk_io          = 'none'
   pseudo_dir       = '/home/ppiaggi/pseudos'
/
&SYSTEM
   ecutwfc          = 30
   occupations      = 'smearing'
   degauss          = 0.01
   smearing         = 'fermi-dirac'
   input_dft        = 'PBE'
   ntyp             = 1
   nat              = 64
   ibrav            = 0
/
&ELECTRONS
   electron_maxstep = 1000
   mixing_beta      = 0.5
/
&IONS
/
&CELL
/

ATOMIC_SPECIES
Si 28.085 Si_ONCV_PBE_sr.upf

K_POINTS gamma

CELL_PARAMETERS angstrom
10.81602759841268 0.00000000000000 0.00000000000000
0.00000000000000 10.99784481619715 0.00000000000000
0.00000000000000 0.00000000000000 10.77160219492448

ATOMIC_POSITIONS angstrom
Si -0.0239841547 -0.0271819586 0.0090506196 
Si 0.0381943482 2.8118480436 2.7510873505 
Si 2.7362603585 0.0357671208 2.7165107554 
Si 2.7680927744 2.8238231095 0.0039703694 
Si 1.4181626168 1.3835785872 1.3332276919 
Si 5.4597155980 -0.0192534467 0.0382567803 
Si 5.4622667919 2.8023771730 2.7015635031 
Si 6.9035872192 1.4477547547 1.4032722308 
Si 8.2925655911 -0.0045771447 2.7827148787 
Si 8.2948101410 2.8338201719 -0.0242127873 
Si 0.0217054090 5.5459621117 0.0195271746 
Si 2.7959927972 5.6419662880 2.7372617841 
Si 1.3744353926 6.9832889699 1.4075706087 
Si 4.1750390486 4.1717407506 1.4072754315 
Si 5.5528981218 5.6267621876 -0.0184570346 
Si 6.8683065542 7.0399220845 1.3752023537 
Si 9.6654508365 4.2265458260 1.3455494692 
Si 8.2411916951 5.5727074576 2.7082399546 
Si 0.0161556750 8.4255105036 2.7885599615 
Si 2.7194123958 8.3428026797 -0.0067635363 
Si 4.0852681314 9.7557951067 1.3793310695 
Si 5.4757233942 8.3666020691 2.7796972172 
Si 8.2321433501 8.3389745772 -0.0231659596 
Si 9.6012039908 9.8315015828 1.3944369645 
Si 0.0250110020 0.0094606071 5.4631927148 
Si 2.7936084865 2.7531544089 5.4424916283 
Si 1.4151623361 1.4330213286 6.8602041310 
Si 4.1248011711 1.4011382046 4.1460890918 
Si 5.4937827297 -0.0452141207 5.4525014947 
Si 6.9145270351 1.4404962175 6.8762127589 
Si 9.6249723277 1.3491603180 4.0947850430 
Si 8.2997175401 2.8074649259 5.5350090994 
Si 1.4253333102 4.1743952212 4.0821728233 
Si -0.0363509134 5.6368409803 5.4520824289 
Si 1.3775014117 7.0345580919 6.8373769715 
Si 6.8676902076 4.1660166462 4.0799428403 
Si 4.1709667318 7.0392970614 4.0999004961 
Si 4.0885898458 4.1952981276 6.8602503521 
Si 5.4937522505 5.5828902596 5.4877091845 
Si 6.9041661255 6.9714501337 6.8781701175 
Si 9.6002106577 6.9449684464 4.0831737429 
Si 9.6584705387 4.1750274908 6.9033591678 
Si 1.3440839057 9.8359536332 4.0913919032 
Si 2.7110917328 8.3628191304 5.5031678844 
Si 6.8852839432 9.7466170312 4.0926174450 
Si 4.1341028820 9.8165592798 6.8547958021 
Si 8.2460670134 8.3874358189 5.5364112639 
Si 9.5985892729 9.7641526868 6.8703093086 
Si 0.0251834773 2.7684828812 8.2059784392 
Si 2.7305094489 -0.0222875601 8.1986022629 
Si 4.1098647961 1.4148620495 9.6143982815 
Si 5.4831684467 2.8009160784 8.2870016620 
Si 8.2189047539 0.0198216412 8.1885357576 
Si 9.6142088612 1.3661276350 9.5852121149 
Si 1.3754395369 4.2066330566 9.6241496673 
Si 2.7407823705 5.6360868015 8.2777231852 
Si 6.8737527371 4.2164844769 9.6454691108 
Si 4.0912310488 6.9833909605 9.5868417403 
Si 8.2230754989 5.5926814377 8.2337335512 
Si 9.6351653674 6.9650536660 9.6049801232 
Si -0.0427085883 8.3883655222 8.1997396808 
Si 1.3276025879 9.8313343239 9.5619372443 
Si 5.4832435459 8.3830842766 8.1889586594 
Si 6.8502544150 9.7795362040 9.6181837061 

