&CONTROL
   calculation      = 'scf'
   tstress          = .true.
   tprnfor          = .true.
   outdir           = './'
   disk_io          = 'none'
   pseudo_dir       = '/home/ppiaggi/pseudos'
/
&SYSTEM
   ecutwfc          = 30
   occupations      = 'smearing'
   degauss          = 0.01
   smearing         = 'fermi-dirac'
   input_dft        = 'PBE'
   ntyp             = 1
   nat              = 64
   ibrav            = 0
/
&ELECTRONS
   electron_maxstep = 1000
   mixing_beta      = 0.5
/
&IONS
/
&CELL
/

ATOMIC_SPECIES
Si 28.085 Si_ONCV_PBE_sr.upf

K_POINTS gamma

CELL_PARAMETERS angstrom
10.77002868202205 0.00000000000000 0.00000000000000
0.00000000000000 10.99321705422764 0.00000000000000
0.00000000000000 0.00000000000000 10.82899992755253

ATOMIC_POSITIONS angstrom
Si -0.0380293178 -0.0402245913 0.0368819783 
Si 0.0300142304 2.7672419872 2.7037274316 
Si 2.6797887616 -0.0466321314 2.6754695592 
Si 2.6048059514 2.7443970334 -0.0067965224 
Si 1.3723489855 1.3259001769 1.3273624443 
Si 5.2727016896 0.0292992009 -0.0360178149 
Si 5.2931480180 2.7412219172 2.7531263887 
Si 6.6168128595 1.3678906268 1.3890535653 
Si 7.9820147338 0.0474813684 2.7120959590 
Si 7.9633693499 2.7591294929 -0.0232180932 
Si -0.0316944145 5.4322092129 0.0264145740 
Si 2.6267680519 5.4721151117 2.7440621669 
Si 1.2918552549 6.8232773720 1.4047094562 
Si 3.9351917258 4.0380590948 1.3570157135 
Si 5.3073431954 5.4251410304 -0.0191562614 
Si 6.6408012937 6.7905944897 1.3963540000 
Si 9.3091119544 4.0647179899 1.3219152992 
Si 7.9147940581 5.4824125482 2.6725336285 
Si 0.0238847981 8.2025058005 2.7195173811 
Si 2.6120312336 8.1605488485 -0.0080273142 
Si 3.9990092918 9.5130881806 1.3836138946 
Si 5.2830827623 8.1307457988 2.7458697154 
Si 7.9366374862 8.1749477178 0.0236576953 
Si 9.2433790228 9.5515317222 1.3309309475 
Si 0.0187437713 -0.0419221665 5.4149174799 
Si 2.6766924077 2.6819028124 5.4428202423 
Si 1.2997786957 1.3951251068 6.7590731456 
Si 3.9564642782 1.3243494214 4.1175822303 
Si 5.3149881885 0.0186540690 5.4797447462 
Si 6.6161587786 1.3778085521 6.7634483351 
Si 9.2923291400 1.3707265740 4.0796571535 
Si 7.9543232007 2.6907316956 5.4200106567 
Si 1.3176136479 4.0911371873 4.0774876147 
Si -0.0285850761 5.4164532752 5.4290280870 
Si 1.3569100515 6.8498393086 6.8353113463 
Si 6.6490931654 4.1237085046 4.0479478106 
Si 3.9630911031 6.8218282080 4.0780538342 
Si 3.9468737248 4.0569938996 6.8345171381 
Si 5.3445536640 5.4423300912 5.3968634316 
Si 6.5959684364 6.8269391565 6.7941440304 
Si 9.2271332000 6.8433460219 4.1255315389 
Si 9.2965043178 4.1016543002 6.8318635024 
Si 1.3637016386 9.4925185127 4.0831223139 
Si 2.6853067231 8.1625528510 5.4788843492 
Si 6.6627728410 9.5331128537 4.0944653549 
Si 3.9728539054 9.4836673996 6.8316722673 
Si 7.9183208607 8.2002170169 5.3954471958 
Si 9.2320325305 9.5536497216 6.7510196495 
Si -0.0115426172 2.7563843409 8.1215223710 
Si 2.6781940409 0.0061327184 8.1486769919 
Si 4.0209916983 1.4061468906 9.5518897905 
Si 5.2907193652 2.7099062428 8.1653272031 
Si 7.9817160215 0.0156617613 8.1502255223 
Si 9.2350244260 1.3525386742 9.5621528412 
Si 1.2881703157 4.0959327585 9.5044723332 
Si 2.6906197690 5.4028717226 8.1392260783 
Si 6.6196579871 4.0605277217 9.5680457747 
Si 3.9721744385 6.8489985265 9.5503297468 
Si 7.9760384955 5.4043149677 8.1406726386 
Si 9.2334276127 6.8507520967 9.5272547911 
Si -0.0480461246 8.1273527593 8.1635617977 
Si 1.3691481748 9.5019168489 9.5620827980 
Si 5.2663513930 8.1596445698 8.2004852254 
Si 6.5749111134 9.5357957937 9.5060455933 

