&CONTROL
   calculation      = 'scf'
   tstress          = .true.
   tprnfor          = .true.
   outdir           = './'
   disk_io          = 'none'
   pseudo_dir       = '/home/ppiaggi/pseudos'
/
&SYSTEM
   ecutwfc          = 30
   occupations      = 'smearing'
   degauss          = 0.01
   smearing         = 'fermi-dirac'
   input_dft        = 'PBE'
   ntyp             = 1
   nat              = 64
   ibrav            = 0
/
&ELECTRONS
   electron_maxstep = 1000
   mixing_beta      = 0.5
/
&IONS
/
&CELL
/

ATOMIC_SPECIES
Si 28.085 Si_ONCV_PBE_sr.upf

K_POINTS gamma

CELL_PARAMETERS angstrom
10.88897893296610 0.00000000000000 0.00000000000000
0.00000000000000 10.79449374782452 0.00000000000000
0.00000000000000 0.00000000000000 10.98464461492631

ATOMIC_POSITIONS angstrom
Si 0.0220376086 -0.0422565461 0.0240873185 
Si -0.0041334387 2.7185513146 2.8108860741 
Si 2.6918172070 0.0072327501 2.7615871034 
Si 2.6837267744 2.7506223256 0.0463934828 
Si 1.3653206115 1.3529031928 1.4465013902 
Si 5.3535250317 -0.0300182788 -0.0134409283 
Si 5.3681435768 2.7823638463 2.8055256881 
Si 6.7015532125 1.3513903068 1.4231473025 
Si 8.1278795722 -0.0465988403 2.8244788022 
Si 8.1065852849 2.6983771313 -0.0434883829 
Si 0.0010313089 5.4954416462 -0.0040876680 
Si 2.6782518968 5.4578668105 2.7521371976 
Si 1.3644555396 6.8812655622 1.3605575055 
Si 4.0648629346 4.0886710322 1.4162300651 
Si 5.3959350037 5.4969507304 -0.0113756381 
Si 6.7080613484 6.8247857080 1.4046361200 
Si 9.4118895795 4.0939747940 1.3932800204 
Si 8.0832653466 5.5063768954 2.7751881302 
Si -0.0315538869 8.2329559557 2.8145147416 
Si 2.6542173510 8.1624223106 -0.0473118883 
Si 4.0575105038 9.5910683857 1.3853904430 
Si 5.3478918338 8.2023592871 2.8278593048 
Si 8.0460017162 8.2192303364 -0.0352607893 
Si 9.4011193507 9.5390960290 1.3705578237 
Si 0.0269552768 0.0335092427 5.5907751225 
Si 2.7266897364 2.7729516117 5.6154557251 
Si 1.3346397207 1.3835589452 6.9633364634 
Si 4.0682598394 1.4101774077 4.2380207359 
Si 5.4074653076 -0.0265339369 5.6205097897 
Si 6.7467714486 1.3858208863 6.9806830046 
Si 9.4187813143 1.3445556827 4.2290427932 
Si 8.0840348745 2.7061435553 5.6083808076 
Si 1.3629108138 4.0691428451 4.1985284897 
Si 0.0135142026 5.4682738036 5.5822205078 
Si 1.3735481261 6.8030948426 6.9863971454 
Si 6.7698657146 4.0869204958 4.2381807938 
Si 4.0831286273 6.8727475458 4.1548014940 
Si 4.0879983290 4.0750912740 6.9917666583 
Si 5.4362744832 5.4931612881 5.6443168046 
Si 6.7823835149 6.8282850087 6.9844065807 
Si 9.4101929578 6.8627976641 4.1524260324 
Si 9.4668997689 4.0599778526 7.0247322132 
Si 1.3522652831 9.5352893826 4.1591815495 
Si 2.7118556119 8.2130675553 5.5554644900 
Si 6.7073217601 9.5303149908 4.1512533243 
Si 4.0185954252 9.5975825165 6.9913217699 
Si 8.1215990569 8.2229705770 5.6422811049 
Si 9.4159814450 9.6130658589 7.0152651533 
Si 0.0121097732 2.7352066237 8.4385138689 
Si 2.7269333017 0.0074064982 8.3974426427 
Si 4.0760709437 1.3717911804 9.7528115636 
Si 5.3786520601 2.7121643543 8.4090201084 
Si 8.1116661088 -0.0432814146 8.3829922827 
Si 9.3998323025 1.3674551529 9.8322138510 
Si 1.3819056883 4.1247029023 9.8200999190 
Si 2.6924551265 5.4493509739 8.4091884180 
Si 6.6987926619 4.0624817494 9.7667406725 
Si 4.0010041659 6.7956861668 9.8388935612 
Si 8.0592199418 5.4980166006 8.4134393753 
Si 9.4478120826 6.8273475146 9.8520218754 
Si 0.0086173815 8.1968931737 8.3799386269 
Si 1.3432211692 9.5466410022 9.8378641652 
Si 5.3711602527 8.1619666468 8.3880411069 
Si 6.7724178493 9.5797263209 9.8441325257 

