&CONTROL
   calculation      = 'scf'
   tstress          = .true.
   tprnfor          = .true.
   outdir           = './'
   disk_io          = 'none'
   pseudo_dir       = '/home/ppiaggi/pseudos'
/
&SYSTEM
   ecutwfc          = 30
   occupations      = 'smearing'
   degauss          = 0.01
   smearing         = 'fermi-dirac'
   input_dft        = 'PBE'
   ntyp             = 1
   nat              = 64
   ibrav            = 0
/
&ELECTRONS
   electron_maxstep = 100
   mixing_beta      = 0.5
/
&IONS
/
&CELL
/

ATOMIC_SPECIES
Si 28.085 Si_ONCV_PBE_sr.upf

K_POINTS gamma

CELL_PARAMETERS angstrom
11.54510194385790 0.00000000000000 0.00000000000000
0.00000000000000 11.54510194385790 0.00000000000000
0.00000000000000 0.00000000000000 11.54510194385790

ATOMIC_POSITIONS angstrom
Si 2.6549347332 2.1886742461 8.1975534548 
Si 0.9890677290 1.3416216616 3.5266938359 
Si 9.7468253200 1.1242955081 7.7898843601 
Si 5.2041163326 6.7527993976 1.0967604400 
Si 7.2451171798 11.3105516528 6.7080621275 
Si 3.9233950838 2.7272301616 4.7494355828 
Si 5.0513284535 11.0648949736 10.0759992666 
Si 9.7650319457 5.5869865484 1.5138399473 
Si 6.6879736502 0.7683473155 11.0599883053 
Si 3.0207066530 4.4429362164 6.7908405085 
Si 3.6602013948 6.8793106247 8.1083906325 
Si 10.8571985896 5.1712474274 3.6510576740 
Si 6.4069312335 4.0959712676 8.0508613895 
Si 7.3572201196 8.7383029397 3.8614902472 
Si 0.4940495475 1.4087448843 7.8499073451 
Si 5.5464863308 9.0397224612 5.6394359465 
Si 6.9389988017 8.1441342681 1.4793200925 
Si 4.6668188333 1.1753721936 8.4340317779 
Si 6.9805149883 7.1962121279 5.7388392743 
Si 2.3344080679 1.8421364662 1.7394312393 
Si 7.8803748691 10.8836945986 4.0936853375 
Si 1.2638538549 11.3729529288 1.3794318705 
Si 7.4856131984 2.2974983770 2.4015659260 
Si 6.9776171677 3.3420183852 0.1291816092 
Si 2.0119071902 2.4544771282 5.7449581783 
Si 1.0385731262 6.6002886009 2.9296735242 
Si 11.5081691627 7.6662132281 4.6367900231 
Si 4.0047303270 1.3406865083 2.8978436781 
Si 1.1647853351 0.0794903359 5.8376768920 
Si 0.1447386340 5.8546712821 5.9285252992 
Si 5.9625602597 5.2729251402 10.1022181931 
Si 9.3867566806 5.6354182510 10.6564292668 
Si 2.1130307382 5.7056009258 9.6241008863 
Si 9.4972894866 6.8259260733 5.0086808469 
Si 11.3453254998 3.0878645110 4.4102058523 
Si 1.3566187490 9.5778858432 4.2902291529 
Si 7.5495384278 10.4969914090 0.9011194514 
Si 9.9715738195 3.6563568758 0.0968259992 
Si 5.4039735924 5.7828492029 6.5317453307 
Si 11.0579217320 10.7548512609 7.2521019664 
Si 9.2702781470 11.2466379684 5.7087642837 
Si 3.3256358855 8.4104913151 4.7144077435 
Si 7.1454944951 4.6865378674 5.7198822169 
Si 10.9078584970 0.3295687891 0.1913427471 
Si 11.4196413210 8.2581536949 10.9802231959 
Si 6.4027519066 0.2373938497 2.4622354367 
Si 1.8129850838 7.0822966071 0.4620903963 
Si 4.7727797789 9.1008768662 1.2515352311 
Si 2.2289204715 6.7861185618 6.3441605143 
Si 10.2584465126 4.2377104842 9.0100515492 
Si 7.4599715269 0.4310871795 8.7747970069 
Si 8.4424366122 2.7150038986 8.5910451644 
Si 0.9241831016 10.2653851189 10.8755437566 
Si 5.2799330171 10.5463120845 7.6518395761 
Si 3.6786504677 5.1141915336 11.3823506418 
Si 4.2611701314 2.9862329786 0.9314946146 
Si 9.0408423361 1.4660085899 0.7464601113 
Si 1.5378422142 8.0543595554 9.5129446448 
Si 2.1083665170 8.6842256822 2.4433822852 
Si 11.4517597946 6.2574106183 9.3825427183 
Si 3.2512507937 10.4356753726 11.5241360387 
Si 6.4120572588 2.6362432132 4.5967400645 
Si 9.0092433921 7.5110239677 0.3058655403 
Si 7.3745954981 6.0292909490 2.0809930803 

