&CONTROL
   calculation      = 'scf'
   tstress          = .true.
   tprnfor          = .true.
   outdir           = './'
   disk_io          = 'none'
   pseudo_dir       = '/home/ppiaggi/pseudos'
/
&SYSTEM
   ecutwfc          = 30
   occupations      = 'smearing'
   degauss          = 0.01
   smearing         = 'fermi-dirac'
   input_dft        = 'PBE'
   ntyp             = 1
   nat              = 64
   ibrav            = 0
/
&ELECTRONS
   electron_maxstep = 100
   mixing_beta      = 0.5
/
&IONS
/
&CELL
/

ATOMIC_SPECIES
Si 28.085 Si_ONCV_PBE_sr.upf

K_POINTS gamma

CELL_PARAMETERS angstrom
11.51633515910402 0.00000000000000 0.00000000000000
0.00000000000000 11.51633515910402 0.00000000000000
0.00000000000000 0.00000000000000 11.51633515910402

ATOMIC_POSITIONS angstrom
Si 2.6906995792 2.4618124180 8.0410622145 
Si 1.4747127825 1.6509702921 3.6333346447 
Si 9.7976257836 1.5374998418 7.0166381367 
Si 5.1253334462 6.5753782388 1.2338946980 
Si 7.2537594777 10.9274473607 6.8602463053 
Si 4.4024415720 2.9992797798 4.7923040661 
Si 4.7455131963 10.8896737814 10.0139831723 
Si 8.8046988825 5.5583246155 0.9640773299 
Si 6.8317318594 1.1061785410 11.0774821752 
Si 3.2788272995 3.9876577285 6.4436659136 
Si 3.8041334114 7.0197936126 8.4664410862 
Si 10.0899564353 5.6411155490 3.4490847985 
Si 6.9887110240 4.5168333291 7.4873683364 
Si 7.3038440193 7.8796377446 3.5659065023 
Si 0.6159304566 1.3515686106 7.6606776642 
Si 5.6762864366 9.3504004241 5.5685396048 
Si 7.3860821686 8.5356888096 1.1254534312 
Si 4.8148415340 1.5646323274 8.7263993198 
Si 7.1643005861 6.9838971959 6.2417845582 
Si 1.9252778792 1.6936958955 1.4821177860 
Si 7.4689076511 10.2929203261 4.2764528653 
Si 1.3365858586 10.9960732020 1.6807860838 
Si 7.1081354196 2.1205027928 2.4011328480 
Si 6.8963960813 3.3051421253 0.3621369172 
Si 1.5470468836 2.5332136959 5.8852157890 
Si 0.8689167008 6.2302106414 2.6469720546 
Si 11.1265993446 7.3555178151 4.2799538312 
Si 4.6132941524 1.5710123771 2.5667492639 
Si 1.1849963389 11.4613907241 5.5875185252 
Si 11.3260162043 6.2533124097 6.4913435411 
Si 6.1462104927 4.8646036182 10.5085176367 
Si 10.2496995203 5.6148007232 10.4461912308 
Si 2.3658698297 6.5350134840 10.1547243042 
Si 9.2294673885 6.6545530430 5.3522397979 
Si 10.9264108906 2.8199013434 4.1617731998 
Si 1.2342632207 9.4569150079 4.5239619406 
Si 7.7382401815 10.8063185475 0.7005167867 
Si 9.6448846304 3.5448316090 0.3119763678 
Si 4.8764769598 5.5468197967 6.8931715075 
Si 11.1111674555 10.9392746370 7.3612299174 
Si 9.2251372465 11.1763499125 5.5064204930 
Si 2.9650186827 8.3389898050 4.9429953116 
Si 6.2869285920 4.9328263877 5.2258825685 
Si 0.1147555582 0.9738466370 0.2678480748 
Si 0.3249932815 7.9183786960 0.2017811632 
Si 6.0366325637 11.4854022829 2.7786958962 
Si 2.2774013431 6.7527413166 0.6508571979 
Si 4.9919282197 8.7777506583 0.8780641258 
Si 2.8180587298 6.2417039439 6.3271551508 
Si 10.4606442314 3.8462716818 8.6946718164 
Si 6.9567992592 0.8856165384 8.5528826980 
Si 8.4368901702 2.6930143626 8.3370896097 
Si 0.9693253238 10.0927088394 11.0150175733 
Si 5.1096481977 11.0591481696 7.8008084304 
Si 4.0134773520 5.3995834517 11.4172140624 
Si 3.9062372390 2.7650375227 0.7300423668 
Si 8.8858660127 1.1261351982 0.7613518272 
Si 0.8565642797 8.2610011833 9.5578902346 
Si 2.3563573369 8.6060766501 2.6227647181 
Si 0.2325597206 6.1767518136 8.5700190047 
Si 3.2053185322 10.4578918273 0.0959332600 
Si 6.7187911605 2.5708260466 4.6717165206 
Si 9.2000086032 7.5770345219 0.0162007196 
Si 6.9440737089 6.0751662211 2.5971523887 

