&CONTROL
   calculation      = 'scf'
   tstress          = .true.
   tprnfor          = .true.
   outdir           = './'
   disk_io          = 'none'
   pseudo_dir       = '/home/ppiaggi/pseudos'
/
&SYSTEM
   ecutwfc          = 30
   occupations      = 'smearing'
   degauss          = 0.01
   smearing         = 'fermi-dirac'
   input_dft        = 'PBE'
   ntyp             = 1
   nat              = 64
   ibrav            = 0
/
&ELECTRONS
   electron_maxstep = 100
   mixing_beta      = 0.5
/
&IONS
/
&CELL
/

ATOMIC_SPECIES
Si 28.085 Si_ONCV_PBE_sr.upf

K_POINTS gamma

CELL_PARAMETERS angstrom
11.48694786000062 0.00000000000000 0.00000000000000
0.00000000000000 11.48694786000062 0.00000000000000
0.00000000000000 0.00000000000000 11.48694786000062

ATOMIC_POSITIONS angstrom
Si 3.0607661790 2.6885086597 8.5732490745 
Si 0.7833558554 1.2123669380 3.3968168386 
Si 9.7494206397 0.6154178264 8.2454690173 
Si 5.5771084641 6.9021853345 0.0840817015 
Si 6.8543651706 11.4025302802 5.6030345055 
Si 4.1792043443 3.0751248638 5.2329250454 
Si 4.8880638968 11.0602536948 9.8134029393 
Si 9.4586515286 5.3805093515 1.5240308073 
Si 6.9085146428 0.2634037553 10.9269246910 
Si 3.1181664574 4.1094900578 6.9194961650 
Si 2.9533402426 6.2307272843 7.5862560535 
Si 10.9748826983 4.8651014880 3.3233348332 
Si 6.5262979397 4.1926555603 8.7707901168 
Si 7.2206494770 9.1332377826 4.5327611125 
Si 0.6268622725 0.7713990914 7.7034458956 
Si 5.7029709518 7.8956914549 6.1812989477 
Si 6.4181253517 8.1457967707 2.1044203349 
Si 4.5867727413 0.4479553570 7.7087873263 
Si 7.4137565575 6.7329711056 5.2527859783 
Si 2.2372209391 2.2131557833 1.9977295632 
Si 8.5381794227 11.0086887858 3.6538372970 
Si 1.4039347674 0.3441730805 0.9744366383 
Si 7.8300090871 2.9867213131 2.3877573908 
Si 6.7994690468 2.7441284612 0.1289915323 
Si 1.8977586560 2.2227129240 6.0287982279 
Si 0.6884415026 6.7973554484 2.8134062438 
Si 0.0035896138 8.0134096966 4.5893113568 
Si 4.3892661598 2.4520153771 3.0426168014 
Si 0.6722598392 0.2579750237 5.3625437651 
Si 0.3810289527 5.5347446004 5.7959692817 
Si 5.2405408918 4.5297400452 10.9425354531 
Si 9.6040418276 6.1577736785 10.8925097952 
Si 1.9466930538 4.7427540063 9.1541440277 
Si 9.5132260179 6.4164482573 5.0389219830 
Si 0.3873548149 3.2853015488 4.6888917078 
Si 1.5614437965 9.6832902809 4.3462130793 
Si 7.9211235575 10.3545415661 1.7043644018 
Si 10.2371909067 3.7636754924 0.0104904322 
Si 5.4824215529 6.0015511876 7.1370589574 
Si 10.9372859180 10.4296547181 6.9888658431 
Si 9.1049569170 11.4752426601 6.0312564347 
Si 3.8577765693 8.6916335591 4.6832056686 
Si 7.0289667781 4.5425135312 6.2094649438 
Si 10.2436006236 10.9572502333 11.4033573404 
Si 11.0540852038 8.7933504824 11.3960056938 
Si 6.4965122839 0.9129240325 2.4266751702 
Si 1.0842771311 7.3008283731 0.5390939500 
Si 4.4526396512 8.9103795072 0.9179518696 
Si 2.0518445745 7.5328532329 5.6249056542 
Si 9.4014695021 4.3223202277 9.3676174668 
Si 6.7595633899 0.6666691416 8.3593621053 
Si 8.3511948854 2.2718196261 8.2465143295 
Si 1.1583553092 10.4687103408 10.3392639254 
Si 6.0049628111 10.0005023461 7.5562521457 
Si 2.9890876243 6.0716560304 11.1759502336 
Si 4.2773488268 1.8916820605 0.8417911079 
Si 9.0048022186 1.5534948286 0.3380183738 
Si 1.6360859837 7.2609456901 9.6575480308 
Si 2.6157158711 8.3673110732 2.4803996253 
Si 11.2946793267 5.8839937632 9.4039506829 
Si 3.0779391660 10.7234678705 11.3477260519 
Si 5.9937630369 3.6664844266 4.1519113562 
Si 9.6408804694 7.9010788335 1.3395274508 
Si 7.3191500549 6.1346849133 1.3005062889 

