&CONTROL
   calculation      = 'scf'
   tstress          = .true.
   tprnfor          = .true.
   outdir           = './'
   disk_io          = 'none'
   pseudo_dir       = '/home/ppiaggi/pseudos'
/
&SYSTEM
   ecutwfc          = 30
   occupations      = 'smearing'
   degauss          = 0.01
   smearing         = 'fermi-dirac'
   input_dft        = 'PBE'
   ntyp             = 1
   nat              = 64
   ibrav            = 0
/
&ELECTRONS
   electron_maxstep = 100
   mixing_beta      = 0.5
/
&IONS
/
&CELL
/

ATOMIC_SPECIES
Si 28.085 Si_ONCV_PBE_sr.upf

K_POINTS gamma

CELL_PARAMETERS angstrom
11.46002246222865 0.00000000000000 0.00000000000000
0.00000000000000 11.46002246222865 0.00000000000000
0.00000000000000 0.00000000000000 11.46002246222865

ATOMIC_POSITIONS angstrom
Si 3.4197165428 1.4646023307 9.6953967435 
Si 0.9172773879 1.4006439453 3.2652010600 
Si 9.5670559519 0.8065174168 8.0265653525 
Si 5.2063684247 7.0902700573 0.4494723950 
Si 6.7316401144 10.4994662995 5.5182758561 
Si 4.1808453947 2.8707700069 5.1226529607 
Si 5.1746929227 10.8419605308 10.0574761532 
Si 8.9018933282 4.6916873559 1.7536584773 
Si 7.3106577493 11.4446774922 10.9730975678 
Si 3.1969795462 3.8654884966 7.1326606804 
Si 3.1185127724 6.1683456303 7.4970664746 
Si 10.7724784146 4.8195812066 3.3185933046 
Si 7.2690693277 4.9177935991 7.8074382630 
Si 7.2379782868 8.4228185492 4.0967975899 
Si 0.7812480673 0.2180681834 7.5935140237 
Si 5.6945883017 8.5613702207 6.0387327762 
Si 6.3816510284 8.6758902252 1.9506333433 
Si 4.0739921452 0.5703641719 7.6357671265 
Si 7.1688055912 6.7777094047 6.1566564074 
Si 2.4729124070 2.2358160023 1.6799476128 
Si 8.2918419524 10.3898626447 3.7069276258 
Si 1.1761306453 0.6385364076 0.9198730830 
Si 7.5651963082 2.9551959923 2.2626439149 
Si 6.5266317725 2.5247002485 0.0498868530 
Si 2.2517339735 1.8297301064 6.0953452872 
Si 0.7526048871 6.8140835160 2.8552187564 
Si 11.2536503777 8.3934579716 4.8151920180 
Si 4.5495143173 2.9755948323 2.8242423157 
Si 0.7340407968 0.3247976646 5.2462607629 
Si 0.7973184568 5.6267908088 4.7253454419 
Si 4.8438764542 4.6172201300 0.7155787006 
Si 10.2442859793 6.7550185602 10.6036035236 
Si 2.0608787594 4.3649964956 9.0726705829 
Si 9.8332493537 6.3367850404 5.7224819964 
Si 0.5006047232 3.1453406850 4.6878940885 
Si 1.6844743217 9.2956253199 4.9171174578 
Si 8.3348399567 10.1578774100 1.1518812377 
Si 10.4360465352 4.3652371561 11.2787249069 
Si 5.4340561510 6.4557629936 7.4521775666 
Si 10.5979766526 10.7052310028 6.5318346227 
Si 8.5956700680 0.5647705350 5.7721153536 
Si 3.7083601286 8.3025341534 4.6149739656 
Si 5.9596815413 4.6023106408 5.9925145056 
Si 10.1625072590 11.1100562963 0.5138800132 
Si 11.1569277881 8.6642010023 11.2354289420 
Si 6.2837022164 1.0172317038 2.9071211981 
Si 1.8825149698 7.6806789545 0.1074226980 
Si 3.8765588783 8.9506671838 0.7062158622 
Si 1.8501862465 7.3812056475 5.9665002546 
Si 9.0692669562 4.9936818679 9.4856897924 
Si 6.8096026472 0.7009511279 8.7696675890 
Si 8.0221761639 2.3507371076 7.7772754839 
Si 0.9046243771 11.0446883282 10.2929566947 
Si 5.9772497557 10.2630001960 7.7060629043 
Si 3.1155102466 5.6156058269 10.9222838282 
Si 4.6034108029 1.6564660268 0.6805075938 
Si 8.9378319586 1.7405023715 0.2928047199 
Si 1.4201947437 6.8598548457 9.4524901074 
Si 2.7480331663 7.8714997885 2.4975514553 
Si 11.3386952044 5.1857862244 9.1853455237 
Si 3.1483775910 10.9946080300 11.1947000222 
Si 6.1959069843 3.8354746977 3.9436458497 
Si 9.7253532422 7.4582742986 1.3194382262 
Si 7.2744326183 6.6593961328 1.2646707788 

