&CONTROL
   calculation      = 'scf'
   tstress          = .true.
   tprnfor          = .true.
   outdir           = './'
   disk_io          = 'none'
   pseudo_dir       = '/home/ppiaggi/pseudos'
/
&SYSTEM
   ecutwfc          = 30
   occupations      = 'smearing'
   degauss          = 0.01
   smearing         = 'fermi-dirac'
   input_dft        = 'PBE'
   ntyp             = 1
   nat              = 64
   ibrav            = 0
/
&ELECTRONS
   electron_maxstep = 100
   mixing_beta      = 0.5
/
&IONS
/
&CELL
/

ATOMIC_SPECIES
Si 28.085 Si_ONCV_PBE_sr.upf

K_POINTS gamma

CELL_PARAMETERS angstrom
11.47978905211379 0.00000000000000 0.00000000000000
0.00000000000000 11.47978905211379 0.00000000000000
0.00000000000000 0.00000000000000 11.47978905211379

ATOMIC_POSITIONS angstrom
Si 3.0856410195 2.6326255840 8.6680902387 
Si 0.7693352830 1.2686429679 3.3507667477 
Si 9.7847293198 0.6808858043 8.2101040545 
Si 5.5377928398 6.8377641521 0.0190161558 
Si 6.8799064577 11.3177059105 5.5377584004 
Si 4.2341250355 2.9951114031 5.2304674071 
Si 4.9072883857 11.0596632122 9.7714701635 
Si 9.3726278524 5.3591673221 1.5198092726 
Si 6.9061377757 0.2542371482 10.8941476136 
Si 3.0213771604 3.9891692967 7.0919726008 
Si 2.9398476986 6.2623052865 7.6477665878 
Si 10.9279900317 4.8141528571 3.3628090464 
Si 6.6266508314 4.2676460195 8.7589986882 
Si 7.1794485934 9.0758638257 4.6144963659 
Si 0.6416145940 0.8044071865 7.6206628058 
Si 5.7173252608 8.0636678654 6.1603073607 
Si 6.3780215601 8.1550355064 2.0310272387 
Si 4.5957154310 0.3148779859 7.7167256806 
Si 7.4182282057 6.7706418255 5.3215250938 
Si 2.2710811075 2.3040855011 1.9967715481 
Si 8.6516052617 11.0343617571 3.7535810657 
Si 1.2788370206 0.3771707653 1.0248352080 
Si 7.8155207452 3.0083935190 2.3316599544 
Si 6.8267894737 2.7234077558 0.0972164788 
Si 1.8005704735 2.1952800604 6.1069378214 
Si 0.6530002487 6.8233110976 2.8270243318 
Si 11.4596075830 7.9824713174 4.5553984119 
Si 4.5264463839 2.5062790256 2.9000587497 
Si 0.6531253784 0.2531810076 5.4167155047 
Si 0.4879335099 5.4774780281 5.7033773171 
Si 5.1725174319 4.4247813720 11.0910604352 
Si 9.6508061008 6.1913372305 10.9836210895 
Si 2.0117067537 4.6164249705 9.0966881630 
Si 9.5013048079 6.3522379539 5.0305354009 
Si 0.4405747882 3.2492050539 4.6748915361 
Si 1.6563154442 9.6869329969 4.4630664685 
Si 7.9256004424 10.2414871666 1.6198441544 
Si 10.2792786322 3.8541899370 11.3844379242 
Si 5.4960293672 5.9714877904 7.2855792432 
Si 10.8648856313 10.3538513419 6.8943595121 
Si 9.0178794112 0.0389644704 5.9781919872 
Si 3.7829119268 8.7128384565 4.7192264814 
Si 6.9525161234 4.5095481344 6.2526737434 
Si 10.2521633705 11.0461400207 11.4300586059 
Si 11.0301257149 8.8396327265 11.4010147396 
Si 6.4238947971 0.9549278846 2.4919407691 
Si 1.1199774038 7.3275378722 0.6489444393 
Si 4.4190644371 9.0366488663 0.8875598906 
Si 1.9982524409 7.6191933928 5.5587549346 
Si 9.3193960706 4.2660962480 9.3656711003 
Si 6.7338031824 0.6892396468 8.3659766303 
Si 8.4127567706 2.3150831390 8.2331095518 
Si 1.0881370608 10.5317077137 10.3154973667 
Si 5.9126309119 9.9866702891 7.6104457936 
Si 3.0073832976 6.1002680640 11.0684108114 
Si 4.2699419773 1.7541002874 0.7701434602 
Si 9.0414014989 1.4700788264 0.3020263621 
Si 1.6642594583 7.1996759817 9.6293388952 
Si 2.7048449369 8.2928733336 2.4395355321 
Si 11.2578502904 5.7761476999 9.2837742852 
Si 3.1599726536 10.7819441554 11.3661276607 
Si 5.9690081560 3.7043786899 4.0327121365 
Si 9.7287653482 7.8962121824 1.3651765141 
Si 7.2210857883 6.2610884288 1.2767362192 

