&CONTROL
   calculation      = 'scf'
   tstress          = .true.
   tprnfor          = .true.
   outdir           = './'
   disk_io          = 'none'
   pseudo_dir       = '/home/ppiaggi/pseudos'
/
&SYSTEM
   ecutwfc          = 30
   occupations      = 'smearing'
   degauss          = 0.01
   smearing         = 'fermi-dirac'
   input_dft        = 'PBE'
   ntyp             = 1
   nat              = 64
   ibrav            = 0
/
&ELECTRONS
   electron_maxstep = 100
   mixing_beta      = 0.5
/
&IONS
/
&CELL
/

ATOMIC_SPECIES
Si 28.085 Si_ONCV_PBE_sr.upf

K_POINTS gamma

CELL_PARAMETERS angstrom
10.60425897372774 0.00000000000000 0.00000000000000
0.00000000000000 10.60425897372774 0.00000000000000
0.00000000000000 0.00000000000000 10.60425897372774

ATOMIC_POSITIONS angstrom
Si 1.2803900413 2.4326170086 6.7525800293 
Si 1.5372251936 1.1652489973 3.0630402046 
Si 9.5025825089 1.1233303616 6.7630252244 
Si 4.3961864342 8.6647930287 0.1161548111 
Si 7.4478164561 0.1317335280 9.2021532480 
Si 3.8122629138 4.1461380076 3.5131803937 
Si 2.3518125552 10.4500518397 9.7804353026 
Si 4.7676642303 1.1122383067 0.7664281195 
Si 5.4364960523 8.0309446571 8.8500600373 
Si 1.9385963958 3.2606081535 4.7493930921 
Si 4.6031815694 7.5517063813 6.6640238626 
Si 8.0987907060 5.2312400156 2.0925808403 
Si 7.0971548204 5.5951357666 9.2893944865 
Si 6.0149477751 1.5381371599 2.4972075500 
Si 1.5631420025 10.4149941596 7.0947900706 
Si 5.0164825629 9.6518374540 7.1034325417 
Si 5.8847274749 5.8439859119 1.1289082018 
Si 2.9245273738 3.5848757887 8.2276324525 
Si 7.6399020032 6.2612422940 6.6049475359 
Si 0.7467094999 3.0741640722 1.4768233345 
Si 6.1841917483 9.7428326003 4.8245030584 
Si 0.1051880985 0.1360250716 8.6964255332 
Si 6.5104211714 9.3027558528 0.4399940342 
Si 7.5755871725 7.2949560630 0.1063702613 
Si 9.8476450960 4.5173400930 5.3044094025 
Si 0.1119279535 5.0088581007 3.1540565593 
Si 7.7393381396 7.9035981111 2.7735121218 
Si 3.0731778761 2.7598326277 1.8898380130 
Si 2.6994519771 0.8581613221 5.4821685957 
Si 1.7859162751 5.0253371191 6.1702789605 
Si 5.8991174543 3.3705212978 9.7826303842 
Si 10.4176876413 5.3153211850 9.1644975243 
Si 2.2028121124 8.2345252209 7.8140133313 
Si 9.1677636361 6.6627407473 4.4700238895 
Si 8.8878642205 1.9863367697 4.7480781640 
Si 2.2572543779 8.5069168211 5.4839395070 
Si 0.7913141944 7.4146569383 2.5740354062 
Si 7.8384879610 2.0606302080 10.2994501538 
Si 5.2890968526 3.2837148338 5.9147799448 
Si 10.5583107196 8.5591321923 4.2744813540 
Si 8.2481304851 9.5314366976 6.2585912293 
Si 6.2297794576 7.3246798009 5.0658453884 
Si 5.7910706596 5.1408281036 4.2167623724 
Si 10.5141545852 1.2632111417 10.5342602602 
Si 10.2122725408 0.0487259337 3.3694608719 
Si 6.7209687333 10.0782347073 2.5352450269 
Si 2.5284583012 6.2121233664 3.7595173297 
Si 5.1237128296 7.4700111702 2.5233152356 
Si 4.1316631941 5.2583975229 6.7659413956 
Si 8.7323739712 3.9829066492 7.8036953873 
Si 5.7156637741 1.3564968079 7.4956734769 
Si 7.2985933238 2.3372210948 6.5646937688 
Si 10.5305169568 9.5723797415 1.3921271181 
Si 3.9113385054 1.7560652860 9.3365304177 
Si 3.1577468415 6.9463834663 10.1056997381 
Si 3.7900575955 4.5997245810 10.3854082770 
Si 9.7969567381 8.5915600163 9.9152896639 
Si 10.4562447270 7.2829626461 7.9330037212 
Si 3.4003404740 9.3358941621 3.5140393387 
Si 0.4392591590 3.2025922527 8.8687341373 
Si 2.4075697489 10.1274808860 1.5444679025 
Si 7.5320672937 2.9321306275 3.0967617481 
Si 7.9917513159 8.0369254592 8.0538710650 
Si 8.8601552918 4.6051539616 10.5919474291 

