&CONTROL
   calculation      = 'scf'
   tstress          = .true.
   tprnfor          = .true.
   outdir           = './'
   disk_io          = 'none'
   pseudo_dir       = '/home/ppiaggi/pseudos'
/
&SYSTEM
   ecutwfc          = 30
   occupations      = 'smearing'
   degauss          = 0.01
   smearing         = 'fermi-dirac'
   input_dft        = 'PBE'
   ntyp             = 1
   nat              = 64
   ibrav            = 0
/
&ELECTRONS
   electron_maxstep = 100
   mixing_beta      = 0.5
/
&IONS
/
&CELL
/

ATOMIC_SPECIES
Si 28.085 Si_ONCV_PBE_sr.upf

K_POINTS gamma

CELL_PARAMETERS angstrom
11.43566191242554 0.00000000000000 0.00000000000000
0.00000000000000 11.43566191242554 0.00000000000000
0.00000000000000 0.00000000000000 11.43566191242554

ATOMIC_POSITIONS angstrom
Si 2.5157312641 2.0314309821 7.0810304701 
Si 0.9138386098 0.7427702561 3.9942022501 
Si 9.6372897201 2.0337066788 6.3912999576 
Si 4.5141703616 7.8179788308 0.2025461567 
Si 7.1004596597 9.9354974758 8.0082339380 
Si 5.2037750819 3.2827325442 3.6778003563 
Si 4.1622950446 11.1959246961 10.3896076103 
Si 7.8657455906 4.3992076524 10.9324813526 
Si 6.8577377356 11.0926149264 10.3839012150 
Si 3.6284897822 3.5916555151 5.5740503790 
Si 3.3535764698 7.8082127755 8.2107480748 
Si 9.5809576495 5.5648789781 1.5752852998 
Si 7.1900809421 5.5237334666 7.7434411864 
Si 8.7830572109 8.5998464714 3.7877771169 
Si 0.3355451918 1.1494441215 7.5103023470 
Si 5.4983234258 9.0418576756 6.3341788263 
Si 8.0652521483 7.6182893025 1.6986417848 
Si 3.9915606122 1.8524400019 9.0895901284 
Si 7.1971710525 7.2664482924 6.1093537131 
Si 1.9735550972 2.2966811602 1.0883731126 
Si 7.0375635192 10.1726502325 5.2413755383 
Si 1.8631209101 0.1098718956 1.4610430373 
Si 6.4163897998 1.7352130316 2.6443138467 
Si 7.5541238035 1.1918475558 0.6157040423 
Si 1.3058382338 3.4118411672 5.1483464286 
Si 0.5914947461 5.1756890963 2.3979553821 
Si 10.7735828303 6.8093191431 3.6666505860 
Si 4.1902323666 3.4546562854 1.8685871565 
Si 2.4842031442 11.3968264046 5.7382207414 
Si 0.3316433440 6.3506804864 6.2200280491 
Si 5.5020971942 4.6694895217 0.0057696917 
Si 11.1227478955 5.3755844665 10.6060503833 
Si 1.6036114343 6.4701717178 9.6554495512 
Si 9.6496516706 7.6048066571 5.5439860238 
Si 10.4911448524 2.8471138750 4.1992779752 
Si 1.1001335473 9.1281969231 4.6136606203 
Si 7.3988389504 10.4373400631 1.4119268693 
Si 9.4292750299 2.6611928836 0.2899660742 
Si 4.5215577992 6.0794608929 7.5468278512 
Si 11.3438106759 11.1196488311 5.6561126889 
Si 8.8452100334 11.1761066940 6.2587034577 
Si 3.4343808569 7.9632689154 5.5883106494 
Si 6.0710785527 5.3152613499 5.7298841439 
Si 0.0820666554 1.4928341774 0.4762541503 
Si 11.0838780807 8.7123848203 2.0447992709 
Si 6.1813526405 10.6502034740 3.1029067607 
Si 1.9018191900 7.0409370395 3.3916457883 
Si 7.0054636162 8.5126724206 11.2116144242 
Si 2.6106015153 5.5289938711 4.8846515006 
Si 10.6405174683 3.0384668058 8.0870828269 
Si 6.3005922873 2.6765281063 8.5842139215 
Si 8.3572045969 3.6330068686 7.5474453769 
Si 1.0476667304 9.6548663324 0.5263354880 
Si 5.7194319489 0.4624593113 8.6525763085 
Si 3.0436242893 5.9104418098 11.3745497352 
Si 3.0354477910 3.6806135292 11.1604055302 
Si 9.4792831794 11.3377269038 0.3206456679 
Si 0.0540521427 7.7644713687 0.0834284141 
Si 3.1021177000 8.8489952375 3.1768040079 
Si 0.2541633038 5.0200383020 8.1931485911 
Si 3.1774100980 9.7084767155 0.7823971118 
Si 7.3876777443 3.6729402000 3.9392882016 
Si 9.1678672342 6.5521997207 11.0140976717 
Si 6.9500921412 5.2239818965 1.3935611963 

