&CONTROL
   calculation      = 'scf'
   tstress          = .true.
   tprnfor          = .true.
   outdir           = './'
   disk_io          = 'none'
   pseudo_dir       = '/home/ppiaggi/pseudos'
/
&SYSTEM
   ecutwfc          = 30
   occupations      = 'smearing'
   degauss          = 0.01
   smearing         = 'fermi-dirac'
   input_dft        = 'PBE'
   ntyp             = 1
   nat              = 64
   ibrav            = 0
/
&ELECTRONS
   electron_maxstep = 100
   mixing_beta      = 0.5
/
&IONS
/
&CELL
/

ATOMIC_SPECIES
Si 28.085 Si_ONCV_PBE_sr.upf

K_POINTS gamma

CELL_PARAMETERS angstrom
10.60170350419163 0.00000000000000 0.00000000000000
0.00000000000000 10.60170350419163 0.00000000000000
0.00000000000000 0.00000000000000 10.60170350419163

ATOMIC_POSITIONS angstrom
Si 1.3331112071 2.4161918388 6.8515523220 
Si 1.5916867556 1.1027467917 3.0300940819 
Si 9.4788452810 1.1783475394 6.7548011758 
Si 4.3930278810 8.7768640851 0.1455624493 
Si 7.3636358046 0.0968885443 9.2086926723 
Si 3.8876658784 4.0350613622 3.5046263308 
Si 2.3602996580 10.4733486799 9.7744207746 
Si 4.6582294942 1.0563749406 0.7042245163 
Si 5.4972271061 8.0660834754 8.8595679742 
Si 1.9836105307 3.2623243972 4.7755797503 
Si 4.5555731992 7.6204620720 6.6522402961 
Si 8.0377451219 5.2793514974 1.9179541809 
Si 7.0706683300 5.5387857838 9.2729389955 
Si 6.0147068558 1.5258713802 2.4823782738 
Si 1.5353811083 10.3105807260 7.0756087238 
Si 5.0959314251 9.7858070042 7.0795737609 
Si 5.9689711069 5.8254770500 1.0991422125 
Si 2.8600427577 3.5073615703 8.2724244307 
Si 7.7121880107 6.3776667770 6.5989667360 
Si 0.7833068634 3.1956078770 1.5239206668 
Si 6.1479914723 9.7980837769 4.9605264679 
Si 0.0909888023 0.0116723695 8.6997578955 
Si 6.5038800572 9.2642455986 0.3408596100 
Si 7.6033827277 7.3808953779 0.1697459951 
Si 9.9159747198 4.4488882568 5.1288921213 
Si 0.1162996273 5.0336570187 3.1430552328 
Si 7.6727920805 7.8730476580 2.7667477669 
Si 3.0514883196 2.7389713037 1.8700768879 
Si 2.6434923620 0.9000602436 5.5263393839 
Si 1.7047221184 5.0234369765 6.0948875394 
Si 5.9994085977 3.3865339555 9.8013384998 
Si 10.4124418932 5.2918933126 9.1765165021 
Si 2.1990477477 8.3077069000 7.7560790632 
Si 9.2171422300 6.6240397648 4.5472826670 
Si 8.8304556963 1.8612350672 4.6924517931 
Si 2.2843808592 8.5892987467 5.4604285932 
Si 0.6821952366 7.4201216809 2.5641280095 
Si 7.8929046486 2.0079732454 10.1732674622 
Si 5.3518035391 3.3917605953 5.9914361167 
Si 10.4398897036 8.5359721781 4.4436934221 
Si 8.2121855514 9.4690599086 6.3617324166 
Si 6.1763828343 7.3206564986 5.0712824644 
Si 5.8062879667 5.1171454338 4.2560114649 
Si 0.0139491914 1.4111397449 10.5397789540 
Si 10.2135857406 0.0140065466 3.3648534718 
Si 6.6426669578 10.0538180688 2.5780056394 
Si 2.4373952458 6.2871600342 3.8768945476 
Si 5.2595369135 7.4013778691 2.5484162849 
Si 4.1425732374 5.2887128016 6.6663617651 
Si 8.6710908893 3.9810668863 7.7372822429 
Si 5.7368574104 1.3000656973 7.4732044103 
Si 7.3085069464 2.2924699589 6.4972751960 
Si 10.5868717210 9.5386706938 1.4424571771 
Si 3.9653021532 1.7211335554 9.3264669965 
Si 3.2271903518 7.0205010690 10.0584828183 
Si 3.7513067679 4.5571316496 10.3715723262 
Si 9.6892784938 8.6662035039 9.8993406470 
Si 10.4320868498 7.2494554579 8.0075726738 
Si 3.3349672696 9.3382030823 3.5267732894 
Si 0.4059127229 3.2298301760 8.8136838014 
Si 2.3700426235 10.0806827855 1.5399716459 
Si 7.6919811638 2.9873586151 3.2125387975 
Si 8.0446786360 7.9607661528 8.0578459518 
Si 8.7736623707 4.5125090795 10.5280534699 

