&CONTROL
   calculation      = 'scf'
   tstress          = .true.
   tprnfor          = .true.
   outdir           = './'
   disk_io          = 'none'
   pseudo_dir       = '/home/ppiaggi/pseudos'
/
&SYSTEM
   ecutwfc          = 30
   occupations      = 'smearing'
   degauss          = 0.01
   smearing         = 'fermi-dirac'
   input_dft        = 'PBE'
   ntyp             = 1
   nat              = 64
   ibrav            = 0
/
&ELECTRONS
   electron_maxstep = 1000
   mixing_beta      = 0.5
/
&IONS
/
&CELL
/

ATOMIC_SPECIES
Si 28.085 Si_ONCV_PBE_sr.upf

K_POINTS gamma

CELL_PARAMETERS angstrom
11.02210661497187 0.00000000000000 0.00000000000000
0.00000000000000 11.52605932911884 0.00000000000000
0.00000000000000 0.00000000000000 10.67092865449741

ATOMIC_POSITIONS angstrom
Si -0.1484075183 -0.1169655176 -0.0134467386 
Si -0.1269625347 2.6747545139 2.6144012892 
Si 2.8156636302 -0.1454990367 2.7128370707 
Si 3.0380977275 2.5949686460 -0.0963647074 
Si 1.5228147913 1.5161224252 1.2170361185 
Si 5.7014553698 -0.0901534822 -0.0089627845 
Si 5.8495195159 2.8001109970 2.7418349790 
Si 7.2708538395 1.3846978199 1.4054515049 
Si 8.7244936167 0.0075021659 2.5492380686 
Si 8.7692336073 2.9831291211 -0.0799064317 
Si -0.1897614173 5.5668925642 0.1852648740 
Si 2.9670369754 5.7050592786 2.7479168100 
Si 1.3647289829 6.8710667451 1.2538838920 
Si 4.1761333018 3.9788353774 1.2554511408 
Si 5.7531082717 5.4913646459 0.0808654406 
Si 7.0454676670 7.1559976563 1.3793443676 
Si 10.1592994444 4.1728851940 1.1855286749 
Si 8.7426564433 5.7551281518 2.7179589229 
Si -0.1698133599 8.2487291922 2.6270248642 
Si 2.9222227492 8.4607643489 0.0179645685 
Si 4.1079529771 9.7044167765 1.3605959611 
Si 5.7084659011 8.1558412561 2.6357903216 
Si 8.7835401007 8.1520856985 0.1778503228 
Si 9.8778377472 9.7607592447 1.4889828530 
Si 0.1695633235 0.0384770027 5.2769287457 
Si 3.0343478797 2.8783738225 5.2093336210 
Si 1.5230387605 1.4984560178 6.5638913784 
Si 4.3904134974 1.1941608835 3.8784097589 
Si 5.7319788888 -0.1274680312 5.2841909623 
Si 7.0749080567 1.4863028586 6.5446624166 
Si 9.8238287882 1.2951422740 3.9526069315 
Si 8.7844074112 2.7329103912 5.1621063465 
Si 1.4938709163 4.0945034774 3.8104930604 
Si 0.1577630421 5.7683506605 5.3330112924 
Si 1.5805898648 6.9246434979 6.4627364814 
Si 7.2495423523 4.3527392489 3.8658181301 
Si 4.4097150374 7.0679303539 3.7423614956 
Si 4.5043869843 4.2542691082 6.7043947289 
Si 5.6496717287 5.6791423235 5.4081544805 
Si 7.1625078861 6.9880297542 6.3445157607 
Si 10.1994079066 7.0115248183 3.7348258855 
Si 10.1233090442 4.1718645726 6.7035699923 
Si 1.3184366608 9.5649598910 3.7645285801 
Si 2.8270226900 8.5422442903 5.2459755896 
Si 7.3603446946 9.5523534680 3.9598668149 
Si 4.1930829504 9.7618778869 6.5559438926 
Si 8.4457960920 8.2253080132 5.2573267405 
Si 10.0071483546 9.5538696846 6.4223716751 
Si 0.1032788401 2.6640496674 7.6700554333 
Si 2.6810505025 -0.1363696663 7.8615792916 
Si 4.4297568536 1.4049275438 9.0529679561 
Si 5.7518402238 2.6450747545 7.9578127068 
Si 8.7615926018 0.1376911196 7.8834833279 
Si 9.9595439107 1.2980877465 8.9740689980 
Si 1.4993538333 4.0529783014 9.0217253383 
Si 2.6935416608 5.7639142355 7.6969490753 
Si 7.3205258407 4.0413364855 9.3143006018 
Si 4.4469054662 6.9512306108 9.1674663423 
Si 8.7188686051 5.5457503921 7.8317082776 
Si 10.0986128362 6.9862672719 9.1473193321 
Si -0.0986016774 8.2205932850 7.8953828039 
Si 1.4628047061 9.5428493876 9.0103676396 
Si 5.6894967206 8.2954230841 7.9259717063 
Si 7.0204247719 9.9039126534 9.3091027459 

