&CONTROL
   calculation      = 'scf'
   tstress          = .true.
   tprnfor          = .true.
   outdir           = './'
   disk_io          = 'none'
   pseudo_dir       = '/home/ppiaggi/pseudos'
/
&SYSTEM
   ecutwfc          = 30
   occupations      = 'smearing'
   degauss          = 0.01
   smearing         = 'fermi-dirac'
   input_dft        = 'PBE'
   ntyp             = 1
   nat              = 64
   ibrav            = 0
/
&ELECTRONS
   electron_maxstep = 1000
   mixing_beta      = 0.5
/
&IONS
/
&CELL
/

ATOMIC_SPECIES
Si 28.085 Si_ONCV_PBE_sr.upf

K_POINTS gamma

CELL_PARAMETERS angstrom
10.89427896153629 0.00000000000000 0.00000000000000
0.00000000000000 11.26068015589374 0.00000000000000
0.00000000000000 0.00000000000000 10.67420405417288

ATOMIC_POSITIONS angstrom
Si 0.1023726717 0.1429120131 -0.1367640073 
Si 0.0147090205 2.8353387802 2.6423481276 
Si 2.7620744138 -0.1588382623 2.7008224095 
Si 2.5731524354 2.6936852389 -0.1047209883 
Si 1.2450386448 1.3518000118 1.2490381343 
Si 5.3893386363 -0.0539988466 -0.0212356228 
Si 5.5388544340 2.5835404663 2.7114079650 
Si 6.6896609330 1.3674152664 1.1924228347 
Si 7.9890438596 0.0235240486 2.7877670131 
Si 8.2357352011 2.6484795483 -0.1566974836 
Si 0.1285574332 5.3544621218 -0.0341357666 
Si 2.6374908774 5.6152155470 2.6290278696 
Si 1.2080720484 6.7290707840 1.5195018341 
Si 4.2419906055 4.1017183593 1.3907355393 
Si 5.4727029580 5.5483432602 -0.0504253351 
Si 6.9755507130 6.6602286345 1.5102506026 
Si 9.4145993971 4.0326582445 1.5501373992 
Si 8.3305181776 5.4230124126 2.6453699536 
Si 0.1238182946 8.0634192371 2.8518545976 
Si 2.7220997013 8.0238335674 0.0555767120 
Si 4.1738317595 9.6711841394 1.2352801673 
Si 5.2413091330 8.0364541047 2.8158640679 
Si 8.0989837827 8.4002868988 -0.0799602483 
Si 9.6052028791 9.6747511636 1.5479887898 
Si 0.0074940072 0.1468901826 5.4492555817 
Si 2.6560188340 2.9047974426 5.2518998749 
Si 1.2433742740 1.2362497796 6.6899874424 
Si 3.9562910271 1.3711664528 4.0465154226 
Si 5.4729402794 0.0087180584 5.5125058678 
Si 6.9387072181 1.5206997315 6.9787614751 
Si 9.4304605961 1.5366157008 4.2669087377 
Si 8.0977478048 2.7676750220 5.3943674440 
Si 1.4209900899 4.0256841793 3.9803599105 
Si -0.0398186812 5.3952703070 5.4045567068 
Si 1.2144451684 6.8734403214 6.7941584429 
Si 6.6571657387 4.2644237245 3.9576219947 
Si 4.0835255354 6.8401499249 4.1406086841 
Si 3.9568646911 4.1313531729 6.7820058342 
Si 5.4298241404 5.4015753511 5.2549441547 
Si 6.7774370986 6.8897042861 6.7464948113 
Si 9.6620330582 6.8876210877 4.0298739872 
Si 9.6625329006 4.1124628360 6.9045587995 
Si 1.2204286786 9.6559835520 4.0133162482 
Si 2.5771855089 8.1562818615 5.5209989283 
Si 6.7538251038 9.5329829607 4.1207312259 
Si 4.0844336841 9.5740588689 6.8382912356 
Si 8.1752023077 8.0343307303 5.6077969867 
Si 9.6482963392 9.4881979666 6.7964223273 
Si -0.0668388803 2.9055868348 8.1526549310 
Si 2.6953870866 -0.1900846042 8.1333629491 
Si 3.9765838717 1.1846192134 9.7250157714 
Si 5.4705065473 2.8652540912 8.1035301330 
Si 7.9878498647 -0.0612021215 8.1423614319 
Si 9.4516315482 1.5507938439 9.6774877976 
Si 1.4592540331 4.1456521696 9.4892270825 
Si 2.8267970892 5.5937443677 8.0655408203 
Si 6.7016377993 4.2124579671 9.5461158911 
Si 4.0226531462 6.7831817067 9.7231424032 
Si 8.1576083336 5.5541800662 8.1949805815 
Si 9.6519833066 6.8599201664 9.5694189338 
Si -0.0727940614 8.0174615411 8.1223550622 
Si 1.3467458678 9.6414200952 9.6536477021 
Si 5.5121733930 8.0132421639 8.2690337465 
Si 6.6770182698 9.5630879059 9.6696637870 

