&CONTROL
   calculation      = 'scf'
   tstress          = .true.
   tprnfor          = .true.
   outdir           = './'
   disk_io          = 'none'
   pseudo_dir       = '/home/ppiaggi/pseudos'
/
&SYSTEM
   ecutwfc          = 30
   occupations      = 'smearing'
   degauss          = 0.01
   smearing         = 'fermi-dirac'
   input_dft        = 'PBE'
   ntyp             = 1
   nat              = 64
   ibrav            = 0
/
&ELECTRONS
   electron_maxstep = 1000
   mixing_beta      = 0.5
/
&IONS
/
&CELL
/

ATOMIC_SPECIES
Si 28.085 Si_ONCV_PBE_sr.upf

K_POINTS gamma

CELL_PARAMETERS angstrom
10.74553945846831 0.00000000000000 0.00000000000000
0.00000000000000 10.60576651391436 0.00000000000000
0.00000000000000 0.00000000000000 11.28355981359511

ATOMIC_POSITIONS angstrom
Si 0.1939958265 0.0629578968 -0.1165477605 
Si -0.0176069569 2.7279958934 2.6822561222 
Si 2.6191703469 -0.1821303088 2.9091155688 
Si 2.7254764202 2.3999186515 -0.1429264861 
Si 1.2583946865 1.1248504599 1.3229936110 
Si 5.4646796270 0.1677107286 0.0948102859 
Si 5.7022245765 2.6962911385 2.8162545068 
Si 6.8504267271 1.1667539171 1.5436955432 
Si 8.2693373648 -0.1666098434 2.7084273721 
Si 8.3520926665 2.6368771086 0.1304706812 
Si -0.1354944545 5.2450810319 0.1435276345 
Si 3.0054792178 4.9844041809 2.7973571895 
Si 1.2823351626 6.2663324556 1.2861395091 
Si 4.1142446057 3.8350263597 1.2599873024 
Si 5.7263545689 5.2896798043 0.0922451272 
Si 7.1509398250 6.4539196947 1.1979443897 
Si 10.0136099220 3.7280133446 1.3411507797 
Si 8.2572999301 5.1936810008 2.9357608429 
Si 0.1734575548 7.7392720446 2.8558790538 
Si 2.7974053045 7.7460245069 -0.1109217327 
Si 4.3381704478 9.1743239585 1.1899362283 
Si 5.6986901457 7.7952244564 2.7300577042 
Si 8.4013549484 7.8264023681 -0.0111305122 
Si 9.7180846330 8.8393045593 1.2787322939 
Si 0.0842786653 -0.0608305829 5.4148498120 
Si 2.7085192988 2.4447616583 5.3998469561 
Si 1.4372200525 1.1652219728 6.8218180485 
Si 4.0409937973 1.1407766629 4.1540863733 
Si 5.6389488888 0.1034910904 5.5480944543 
Si 7.2015512532 1.1203912764 7.0558868880 
Si 10.0371680557 1.1273527252 4.1363430520 
Si 8.4454244380 2.4098634593 5.3579788490 
Si 1.4384881608 4.0302001384 4.1646916942 
Si 0.0019623498 5.0077546615 5.3253462796 
Si 1.3988352199 6.3018686169 6.9647793053 
Si 6.9362332945 3.8799584967 4.1001713352 
Si 4.3828215154 6.4047989103 4.3058418517 
Si 4.2263819709 4.0378177561 6.9890698005 
Si 5.7208340341 5.1419336481 5.4128783147 
Si 6.8535024561 6.3037134609 7.0089634491 
Si 9.9251532978 6.2998493375 4.2014128682 
Si 9.9986947587 3.7853032168 6.9061061457 
Si 1.4125981725 8.8261168660 4.1620535277 
Si 2.8464185434 7.8505927939 5.5740833637 
Si 6.8456356857 9.0846257007 4.1298040546 
Si 4.2495722217 9.1079722427 6.7019531079 
Si 8.5266026876 7.8819323428 5.3942573440 
Si 10.0409881202 9.0333192032 7.0306903333 
Si 0.1911666222 2.6513480512 8.3348020430 
Si 2.8946811123 -0.0286010689 8.2711439191 
Si 4.1847523775 1.4038982087 9.6955892990 
Si 5.7563514924 2.5708210080 8.2022884011 
Si 8.5819393537 -0.0536866372 8.2978346238 
Si 9.6958161419 1.3700688621 9.4569259538 
Si 1.2565722509 3.9537241037 9.5301077781 
Si 2.7165683861 5.0911757560 8.1892608612 
Si 7.0769227068 3.8095838304 9.7246976969 
Si 4.4013781874 6.5622052087 9.7491818736 
Si 8.4427203516 5.1053000062 8.4731820494 
Si 9.8262157142 6.4899540368 9.5825881933 
Si 0.1537427029 7.8847691883 8.2203857865 
Si 1.5465954703 8.9474524763 9.6999591479 
Si 5.5193574106 7.7158247572 8.3261812134 
Si 7.1581646999 9.1738086121 9.4818077296 

