&CONTROL
   calculation      = 'scf'
   tstress          = .true.
   tprnfor          = .true.
   outdir           = './'
   disk_io          = 'none'
   pseudo_dir       = '/home/ppiaggi/pseudos'
/
&SYSTEM
   ecutwfc          = 30
   occupations      = 'smearing'
   degauss          = 0.01
   smearing         = 'fermi-dirac'
   input_dft        = 'PBE'
   ntyp             = 1
   nat              = 64
   ibrav            = 0
/
&ELECTRONS
   electron_maxstep = 1000
   mixing_beta      = 0.5
/
&IONS
/
&CELL
/

ATOMIC_SPECIES
Si 28.085 Si_ONCV_PBE_sr.upf

K_POINTS gamma

CELL_PARAMETERS angstrom
11.48688518023712 0.00000000000000 0.00000000000000
0.00000000000000 11.01066131905643 0.00000000000000
0.00000000000000 0.00000000000000 11.52960032506331

ATOMIC_POSITIONS angstrom
Si 0.0116775596 0.0327670622 -0.1955922980 
Si 0.1546168064 2.8113422385 2.9597981294 
Si 3.0613916269 0.1141858937 2.7274472851 
Si 3.0576654007 2.9198871689 0.0771539199 
Si 1.6246721261 1.3112245597 1.3288054710 
Si 6.1078754460 0.1155835300 -0.0336776630 
Si 5.8748434165 2.9257129886 2.6780549631 
Si 7.3798301085 1.5478520117 1.2611057308 
Si 9.0534959771 -0.1712977453 2.6625751480 
Si 8.8611556286 2.6000519599 -0.1276594646 
Si 0.0846506364 5.6074488853 -0.0183570092 
Si 3.1760964262 5.3563673929 2.8464213032 
Si 1.3392288535 6.7579881652 1.3558180112 
Si 4.3440276555 4.2055411241 1.4738483595 
Si 6.1536976237 5.6347553755 -0.1801875721 
Si 7.4965803237 6.8295394628 1.3565449985 
Si 10.3186443224 4.1109137621 1.4785139101 
Si 9.1287318381 5.3272808906 2.7742565499 
Si -0.1025292829 8.4212064357 2.7515077249 
Si 3.1325725905 8.2542866312 0.1320401652 
Si 4.6555562960 9.4501681888 1.4749871985 
Si 5.9445518286 8.4191066756 2.6119390217 
Si 9.0318747268 8.1626001129 -0.1300896255 
Si 10.2804766028 9.7987010701 1.4775522463 
Si 0.0946919716 0.1732170420 5.5914535636 
Si 3.0496836245 2.9441585386 5.4775262081 
Si 1.5712624329 1.2413380854 6.9234787573 
Si 4.5795553688 1.4487909076 4.0233080411 
Si 5.7367928430 0.1773243815 5.5633970944 
Si 7.3886996673 1.2854430070 7.0158811374 
Si 10.2803152961 1.3928308385 4.0643768439 
Si 8.7779448414 2.8145498320 5.4447197741 
Si 1.4733561232 3.9581669233 4.0569790496 
Si 0.0844327187 5.5877434965 5.7246338464 
Si 1.3078235455 6.9870130670 6.9742417057 
Si 7.3844104682 4.1626719662 3.9665961682 
Si 4.2827927236 6.9070288774 4.0680738102 
Si 4.4010564834 4.0147666296 7.0592649741 
Si 5.8779220573 5.3634160456 5.5125970646 
Si 7.6366594442 6.8931194914 7.1298547216 
Si 10.6195472435 6.7972146941 4.0199972271 
Si 10.4899037186 4.0277044870 7.0418382632 
Si 1.4639598495 9.7977365983 4.0068516265 
Si 3.0615176633 8.3182293426 5.4409640775 
Si 7.2679545035 9.7067533358 4.1325553404 
Si 4.6024367902 9.4721238578 6.9551146193 
Si 8.7543581051 8.2066976191 5.6994351601 
Si 10.5637376438 9.5433244478 6.7556330412 
Si -0.1866891278 2.7659396492 8.3050551831 
Si 3.1838729590 0.0314483505 8.1962047997 
Si 4.6056069067 1.2635855234 9.6751988900 
Si 6.0331317041 2.9286327191 8.4808331342 
Si 9.1126423984 -0.1085022958 8.4547529607 
Si 10.5290682895 1.2448873988 9.9113648351 
Si 1.2829993788 4.1799170020 9.8190080560 
Si 2.7962825447 5.6907576301 8.5278153960 
Si 7.4280527725 4.2699231529 9.8016833882 
Si 4.2938956448 7.0533789949 9.8444329391 
Si 8.7533459718 5.3986616259 8.4794076935 
Si 10.5583818078 6.9020178859 9.5560290615 
Si 0.1076549304 8.1453898929 8.1746021868 
Si 1.3172548888 9.7505546073 9.8340884662 
Si 5.8857663411 8.1868399605 8.3998099051 
Si 7.5731069599 9.7196143395 9.6629331719 

