&CONTROL
   calculation      = 'scf'
   tstress          = .true.
   tprnfor          = .true.
   outdir           = './'
   disk_io          = 'none'
   pseudo_dir       = '/home/ppiaggi/pseudos'
/
&SYSTEM
   ecutwfc          = 30
   occupations      = 'smearing'
   degauss          = 0.01
   smearing         = 'fermi-dirac'
   input_dft        = 'PBE'
   ntyp             = 1
   nat              = 64
   ibrav            = 0
/
&ELECTRONS
   electron_maxstep = 1000
   mixing_beta      = 0.5
/
&IONS
/
&CELL
/

ATOMIC_SPECIES
Si 28.085 Si_ONCV_PBE_sr.upf

K_POINTS gamma

CELL_PARAMETERS angstrom
11.28305729084819 0.00000000000000 0.00000000000000
0.00000000000000 10.53723350065751 0.00000000000000
0.00000000000000 0.00000000000000 11.17234237797773

ATOMIC_POSITIONS angstrom
Si -0.0725817041 0.0028013478 0.0621375619 
Si -0.1991960274 2.5090809124 2.9461128707 
Si 2.8255136972 0.1269494614 2.9329276511 
Si 2.6411408001 2.5835477332 0.0572890093 
Si 1.3284837304 1.3188649077 1.3465406776 
Si 5.4184097546 0.1479294452 -0.1563174386 
Si 5.5685547263 2.6191220717 2.7367415240 
Si 7.0562383169 1.2650855974 1.4772976540 
Si 8.3766854879 -0.0850785595 2.9611797813 
Si 8.3394922481 2.7470335594 0.0961247651 
Si -0.1338829279 5.5283780184 0.0238367759 
Si 2.6267485382 5.1853258846 2.7612815239 
Si 1.2225512702 6.7195729861 1.2954487169 
Si 4.1245719538 4.0587511746 1.6337087503 
Si 5.3959882678 5.2366098357 -0.1116767009 
Si 6.8637578474 6.7816629408 1.3069209098 
Si 9.9668973189 4.0908051519 1.5557491409 
Si 8.2378533089 5.1817554036 2.9101736517 
Si -0.0012571515 7.9246728270 2.6842361349 
Si 2.8281298372 8.1399239980 0.1835991629 
Si 4.1049951291 9.4217815199 1.2679501113 
Si 5.6233505414 8.0943673085 2.9405437064 
Si 8.2269774757 8.2180089386 0.0090113718 
Si 9.6309307550 9.2951794912 1.3254070710 
Si -0.0185747054 0.0561388614 5.8908937448 
Si 2.8047063606 2.5113330723 5.6532962255 
Si 1.3852108943 1.2183432702 7.2506491888 
Si 4.2479600970 1.3451493920 4.3120770695 
Si 5.5122812995 -0.1393206485 5.5485347882 
Si 6.8039121203 1.4780599365 7.1048334779 
Si 9.9089872521 1.2225799321 4.1784991288 
Si 8.1928274374 2.5460098371 5.5996795482 
Si 1.4049066214 4.2077175638 4.3420128362 
Si 0.1141596916 5.2968328633 5.8199267250 
Si 1.4750541153 6.8919212259 7.1047812208 
Si 6.8228148582 4.1853032196 4.4065566648 
Si 3.9918468538 6.8619349720 4.2340697923 
Si 3.9966454909 4.0936607603 6.9883211395 
Si 5.6474352698 5.2747461239 5.5044175303 
Si 7.1013438378 6.5990758552 6.9993467246 
Si 9.7947583926 6.8748994547 4.1595778157 
Si 9.7535038860 4.1408352905 7.3111908249 
Si 1.3513780863 9.4936422693 4.1903483008 
Si 2.7943156087 7.8455433252 5.9027217941 
Si 7.0284148290 9.4976057339 4.3111292493 
Si 4.2129984588 9.4609553604 7.1433640313 
Si 8.4069331652 8.1206142082 5.8710980307 
Si 9.6115162724 9.5644751574 6.9502757968 
Si -0.0046118193 2.7493032333 8.6327827900 
Si 2.8419550026 -0.0025268986 8.5859210822 
Si 4.3711040524 1.1778961015 10.0878603355 
Si 5.6502449411 2.8050562653 8.7561765071 
Si 8.4789448699 0.1860156584 8.6237759809 
Si 9.8946476954 1.4453668961 9.9384686652 
Si 1.4178012974 3.8343414212 9.9073116454 
Si 2.7821182518 5.4907117410 8.6802946604 
Si 6.8669322887 4.1662600547 9.8436145917 
Si 4.1624331800 6.6912448542 10.0026643349 
Si 8.2884808744 5.4221739566 8.6142315629 
Si 9.6270931938 6.7431217838 9.8543314428 
Si 0.0365736214 8.1098676785 8.5935205442 
Si 1.3399846546 9.4010428274 10.1548595999 
Si 5.6588857657 7.9696106611 8.5835253397 
Si 7.0150059418 9.5079140635 9.9624872467 

