&CONTROL
   calculation      = 'scf'
   tstress          = .true.
   tprnfor          = .true.
   outdir           = './'
   disk_io          = 'none'
   pseudo_dir       = '/home/ppiaggi/pseudos'
/
&SYSTEM
   ecutwfc          = 30
   occupations      = 'smearing'
   degauss          = 0.01
   smearing         = 'fermi-dirac'
   input_dft        = 'PBE'
   ntyp             = 1
   nat              = 64
   ibrav            = 0
/
&ELECTRONS
   electron_maxstep = 1000
   mixing_beta      = 0.5
/
&IONS
/
&CELL
/

ATOMIC_SPECIES
Si 28.085 Si_ONCV_PBE_sr.upf

K_POINTS gamma

CELL_PARAMETERS angstrom
10.84381890396400 0.00000000000000 0.00000000000000
0.00000000000000 10.53473267760212 0.00000000000000
0.00000000000000 0.00000000000000 10.50207876481087

ATOMIC_POSITIONS angstrom
Si 0.0421791962 -0.0141201629 0.0513452474 
Si 0.0567814606 2.7671792846 2.8174513237 
Si 2.4812775354 0.0372393055 2.7931927292 
Si 2.4202231098 2.6678226714 -0.1579012725 
Si 1.4393810393 1.5578519069 1.1777280739 
Si 5.2189550756 -0.1845858273 -0.1329009109 
Si 5.3619936545 2.6206555509 2.8380938815 
Si 6.5178292011 1.4669110744 1.3991715254 
Si 7.6542975267 0.1272149660 2.7722494815 
Si 7.6273817189 2.8854528300 0.0631846802 
Si 0.0502272064 5.3599877845 0.0674191146 
Si 2.7258311313 5.6572040422 2.7691806087 
Si 1.2106144866 6.8138830750 1.3285196153 
Si 3.7315450597 4.2627913887 1.3043927185 
Si 5.1919451145 5.5392230743 -0.0065127554 
Si 6.3720758506 6.9665819648 1.3923025998 
Si 8.9426693704 4.0045566531 1.2300040157 
Si 7.8637684384 5.5310985744 2.5748371657 
Si 0.1600710198 8.4172111633 2.8063330803 
Si 2.6568940497 8.1631610086 -0.0639740885 
Si 4.0173630127 9.7909506090 1.5450907640 
Si 5.0127865562 8.4249183995 2.6362299028 
Si 7.6056802808 8.2350850206 -0.1492196475 
Si 8.9248080294 9.6372427932 1.5336230410 
Si -0.1864118304 0.1994406683 5.3395458843 
Si 2.4194400892 2.8898945899 5.4642508120 
Si 1.3406667233 1.1804781068 6.9770001704 
Si 3.8081202409 1.5517610597 3.8974816350 
Si 5.2626923618 0.1613117209 5.3677480858 
Si 6.4574096728 1.2936781721 6.9511124640 
Si 8.8985843093 1.5440809103 4.2139687269 
Si 7.6602528381 2.9090996133 5.2769256000 
Si 1.1640486256 4.3228739802 4.2693616659 
Si 0.0258919194 5.7181200961 5.4165415405 
Si 1.3934186428 6.8722019671 6.6386248440 
Si 6.3427580678 4.2820097648 4.2511974000 
Si 3.9641859167 6.8278530385 3.9138452666 
Si 3.9913181000 4.0216891745 6.9165309730 
Si 5.2901011442 5.4526059685 5.4553033806 
Si 6.4827293336 7.0785325791 6.6945181912 
Si 8.9179128795 7.0937925589 4.0607787942 
Si 9.1925826344 4.0992230791 6.7221815547 
Si 1.1221026235 9.5393514438 4.2515979662 
Si 2.4794340400 8.1714883713 5.4919238286 
Si 6.3864185794 9.8513873588 4.1611486794 
Si 4.0491221771 9.7405537603 6.9278998528 
Si 7.6240076286 8.4577188183 5.4340871986 
Si 9.0438924879 9.8190026694 6.6987361655 
Si 0.0998012202 2.8342344835 8.0370668288 
Si 2.5149121128 -0.1873870841 8.1579355674 
Si 3.7955404804 1.2978290386 9.4007344631 
Si 5.2739434539 2.8465216893 8.2976276907 
Si 7.7143905175 0.0774821408 8.2790733998 
Si 8.8948327615 1.5321012517 9.5274630244 
Si 1.4109533277 3.9710341184 9.4690320892 
Si 2.7739004379 5.6145730305 8.1497197413 
Si 6.3757791500 4.0702013070 9.4117865771 
Si 3.8556242714 6.8142334244 9.5343104293 
Si 7.8822670161 5.3640052363 7.9972755523 
Si 9.0522611382 6.9530425898 9.6352241341 
Si 0.0398569610 8.1750666600 8.2642642585 
Si 1.1131984207 9.6026157306 9.5630097410 
Si 5.0677595289 8.2230851197 8.0151788582 
Si 6.4826914176 9.6234134280 9.6005665827 

