&CONTROL
   calculation      = 'scf'
   tstress          = .true.
   tprnfor          = .true.
   outdir           = './'
   disk_io          = 'none'
   pseudo_dir       = '/home/ppiaggi/pseudos'
/
&SYSTEM
   ecutwfc          = 30
   occupations      = 'smearing'
   degauss          = 0.01
   smearing         = 'fermi-dirac'
   input_dft        = 'PBE'
   ntyp             = 1
   nat              = 64
   ibrav            = 0
/
&ELECTRONS
   electron_maxstep = 1000
   mixing_beta      = 0.5
/
&IONS
/
&CELL
/

ATOMIC_SPECIES
Si 28.085 Si_ONCV_PBE_sr.upf

K_POINTS gamma

CELL_PARAMETERS angstrom
10.63331601798767 0.00000000000000 0.00000000000000
0.00000000000000 11.12380505329721 0.00000000000000
0.00000000000000 0.00000000000000 10.52734777157682

ATOMIC_POSITIONS angstrom
Si -0.0525999984 -0.0859035514 -0.1661688950 
Si 0.0172579867 2.7823728827 2.7548814347 
Si 2.3877090007 -0.0659202736 2.5213363089 
Si 2.6693540684 2.7332084891 -0.0032652138 
Si 1.3835727764 1.3325646632 1.2606793958 
Si 5.0070408973 0.1284200264 0.1814691660 
Si 5.2805156083 2.9275785864 2.5220015368 
Si 6.4020898570 1.1924742681 1.4364774100 
Si 7.7703940731 -0.0928496734 2.5198628235 
Si 7.7577164775 2.6903468269 -0.0807011299 
Si -0.1512410546 5.4716948926 -0.0258954715 
Si 2.6663636194 5.6625953476 2.4831796653 
Si 1.3048745804 6.9565903005 1.4914594634 
Si 3.9940884395 4.1438532594 1.3170896976 
Si 4.9845811770 5.3688804868 0.0273410777 
Si 6.4993318443 6.6911237525 1.4571974000 
Si 9.0262714603 4.1749484340 1.2267392556 
Si 7.7866469099 5.5882107839 2.6150933892 
Si -0.0973021773 8.3515279058 2.5404103702 
Si 2.4006483706 8.2573398611 -0.1258567257 
Si 3.9308920297 9.5223717631 1.3109942539 
Si 5.2492158478 8.2709762687 2.7572514487 
Si 7.8294555794 8.0876647619 -0.1275141411 
Si 9.1037331318 9.5160133747 1.4420491670 
Si 0.0936227042 0.0776397221 5.4719782966 
Si 2.6769526836 2.6473509994 5.3157024447 
Si 1.2262294992 1.2245186852 6.6572983560 
Si 3.9476889777 1.3902505726 3.9197301957 
Si 5.1493363583 0.0977112825 5.3203607977 
Si 6.1918957732 1.4489108494 6.6359329731 
Si 9.0940329158 1.4779728453 4.0825506853 
Si 7.7011279382 2.6957586541 5.2334818220 
Si 1.3065585881 4.2622058317 4.1328996357 
Si -0.1302227233 5.4585781820 5.3963004080 
Si 1.3094480844 6.7981851302 6.7358930550 
Si 6.2083576159 4.2982111623 3.8344316226 
Si 3.7434352237 6.7706316737 4.1420228067 
Si 3.6817297741 4.1906575444 6.6713337512 
Si 5.1878916921 5.3713998658 5.2867750698 
Si 6.5464634437 6.8253118661 6.4294215957 
Si 8.9955005089 6.6780755607 4.0204461171 
Si 8.9585841326 4.2574516882 6.5393752940 
Si 1.1484297119 9.5146242295 3.9647288864 
Si 2.6153768981 8.2729656661 5.2303445926 
Si 6.5434167181 9.6209744710 3.8655512651 
Si 3.9904992367 9.5385629297 6.4306841210 
Si 7.6579925354 8.2499637579 5.1272553502 
Si 8.9432529924 9.4085021255 6.7839723179 
Si 0.0942201549 2.5942608874 7.9523191058 
Si 2.4136107836 -0.1399105103 7.9528244576 
Si 3.8137344964 1.2133582613 9.4300063778 
Si 5.1054770162 2.6870651301 7.8038528682 
Si 7.4977920384 -0.0568039910 7.8883007464 
Si 8.8861542324 1.3595064442 9.2356316544 
Si 1.3778151460 4.0999512689 9.3072618980 
Si 2.4167714801 5.3691723742 7.7446037784 
Si 6.4692755552 4.0280243592 9.2185359937 
Si 3.9079786714 6.6848892135 9.2659037810 
Si 7.7536181409 5.3756202425 8.1038742200 
Si 8.9668445607 6.7381876723 9.3231204616 
Si 0.1738929269 8.0694406870 8.1165095937 
Si 1.4237968129 9.6923783122 9.3871893292 
Si 5.0942193461 8.0534798375 7.9150182247 
Si 6.3604293796 9.7021844358 9.4402211295 

