&CONTROL
   calculation      = 'scf'
   tstress          = .true.
   tprnfor          = .true.
   outdir           = './'
   disk_io          = 'none'
   pseudo_dir       = '/home/ppiaggi/pseudos'
/
&SYSTEM
   ecutwfc          = 30
   occupations      = 'smearing'
   degauss          = 0.01
   smearing         = 'fermi-dirac'
   input_dft        = 'PBE'
   ntyp             = 1
   nat              = 64
   ibrav            = 0
/
&ELECTRONS
   electron_maxstep = 1000
   mixing_beta      = 0.5
/
&IONS
/
&CELL
/

ATOMIC_SPECIES
Si 28.085 Si_ONCV_PBE_sr.upf

K_POINTS gamma

CELL_PARAMETERS angstrom
10.46475383046986 0.00000000000000 0.00000000000000
0.00000000000000 11.19476799851052 0.00000000000000
0.00000000000000 0.00000000000000 11.04232981077469

ATOMIC_POSITIONS angstrom
Si 0.0200570965 -0.1827601127 -0.0013848012 
Si 0.0304721800 2.7756395892 2.7110558944 
Si 2.5563507286 0.0653421715 2.6191155109 
Si 2.6319197008 2.5756840347 0.1195283631 
Si 1.1133364061 1.3247581634 1.5088962254 
Si 5.2534380413 -0.1496327964 0.1896636472 
Si 4.9621114341 2.7153863997 2.8011585357 
Si 6.3093942850 1.1831346786 1.3286983235 
Si 7.7317512767 0.1322769239 2.7761957647 
Si 7.8456120778 2.8847682302 -0.0655015948 
Si -0.1291107899 5.6620335132 0.1806923902 
Si 2.4412328819 5.5778167245 2.8039416609 
Si 1.3398372310 6.7840568907 1.5090971230 
Si 3.6793799704 4.0796523441 1.4468038186 
Si 5.2214749225 5.3129383622 0.0740924046 
Si 6.3636519605 6.9255247333 1.3283566816 
Si 9.0372716669 4.0937803659 1.3954889840 
Si 7.7801061340 5.4230774305 2.8416204662 
Si 0.1214808085 8.1454284409 2.5511703429 
Si 2.6197718864 8.0392365771 -0.1298119522 
Si 3.7422896478 9.4469569059 1.4754625234 
Si 5.2500326003 8.2730611224 2.6914035150 
Si 7.6620554802 8.2023163084 -0.1509004371 
Si 9.0505511804 9.4448546002 1.1705016367 
Si -0.1721826553 -0.1440856414 5.4542998696 
Si 2.7490507196 2.6112421846 5.2708569010 
Si 1.1562939856 1.3785067536 6.6416646645 
Si 3.8042637392 1.5303345464 3.9255051727 
Si 5.2640882405 0.0001858813 5.4724460628 
Si 6.2300513679 1.5312085925 6.8314544238 
Si 8.8330919767 1.5303700595 4.1814610898 
Si 7.8401001594 2.8074576236 5.1995612886 
Si 1.4262736993 4.2033792224 3.9920816754 
Si -0.1505187598 5.6586120773 5.1863416456 
Si 1.1210693320 6.9377720056 6.9137315202 
Si 6.3375553307 4.1178934656 4.2268239276 
Si 4.0030093917 6.7779409530 4.1525250112 
Si 3.8976748005 4.2911849948 6.5490283478 
Si 5.0404422574 5.6614356422 5.4413267127 
Si 6.2711359529 6.9623303672 6.5401841177 
Si 9.0156908251 6.8133071774 3.9596669984 
Si 8.8646190226 3.9950181606 6.6203324344 
Si 1.2490993304 9.4060143126 4.1024902982 
Si 2.5398076699 8.2623219919 5.5337581668 
Si 6.2715432281 9.5409601819 3.9348351023 
Si 3.7807700760 9.4626180004 6.6511317024 
Si 7.8219995346 8.2565828015 5.1924927800 
Si 8.9643692927 9.5074878901 6.5538190460 
Si 0.1571454754 2.7822563823 8.0789605547 
Si 2.6670880329 -0.1271051125 7.9450888396 
Si 3.7649258141 1.5040116424 9.4135614382 
Si 5.2879879107 2.8359116860 8.0477013294 
Si 7.5485665854 0.1790737868 7.8998201291 
Si 8.8009835303 1.4689724981 9.5908680573 
Si 1.3123582567 4.1554071159 9.2832284353 
Si 2.5776086595 5.3102169565 8.0343265470 
Si 6.4513106942 4.1794311777 9.4033789122 
Si 3.7594741636 6.9208759286 9.4893312305 
Si 7.8123013028 5.2696632887 8.1016054186 
Si 9.1410143222 6.8439623003 9.3185765072 
Si 0.1274752617 8.2938238903 8.1337616965 
Si 1.2937396004 9.7018588668 9.2387244170 
Si 5.0513041189 8.3647488089 8.0319727305 
Si 6.3685626148 9.7130919236 9.5596358430 

