&CONTROL
   calculation      = 'scf'
   tstress          = .true.
   tprnfor          = .true.
   outdir           = './'
   disk_io          = 'none'
   pseudo_dir       = '/home/ppiaggi/pseudos'
/
&SYSTEM
   ecutwfc          = 30
   occupations      = 'smearing'
   degauss          = 0.01
   smearing         = 'fermi-dirac'
   input_dft        = 'PBE'
   ntyp             = 1
   nat              = 64
   ibrav            = 0
/
&ELECTRONS
   electron_maxstep = 1000
   mixing_beta      = 0.5
/
&IONS
/
&CELL
/

ATOMIC_SPECIES
Si 28.085 Si_ONCV_PBE_sr.upf

K_POINTS gamma

CELL_PARAMETERS angstrom
11.03884073134503 0.00000000000000 0.00000000000000
0.00000000000000 11.01221134924752 0.00000000000000
0.00000000000000 0.00000000000000 10.82523573287452

ATOMIC_POSITIONS angstrom
Si -0.1609156834 0.0091569329 -0.1115663506 
Si 0.1762890288 2.9425607863 2.8562612474 
Si 2.8714091737 -0.1084241004 2.6505438724 
Si 2.8495117961 2.6502921260 0.1455484304 
Si 1.4519359117 1.2057394292 1.4527286728 
Si 5.6382278633 0.1615991918 0.1662322263 
Si 5.3315508571 2.6900493801 2.9215495420 
Si 6.6778661371 1.3907905161 1.5602962582 
Si 8.3206115668 -0.1877622176 2.9674409075 
Si 8.0736062855 2.7900156427 0.1050321642 
Si 0.1045065669 5.3699078015 0.1733287825 
Si 2.7606839827 5.4695060317 2.8457454407 
Si 1.5158984387 6.9906762229 1.2114837073 
Si 4.1867597566 4.1494982217 1.3545997262 
Si 5.6261396020 5.5658294880 0.1771869945 
Si 6.7460480832 6.8794163469 1.1958449077 
Si 9.5131482515 3.9933626776 1.3832801735 
Si 8.1384446910 5.3671574667 2.7014916514 
Si -0.1016343162 8.3066630421 2.7239575961 
Si 2.6073980563 8.4038638368 0.1639867212 
Si 4.2842294461 9.6142846869 1.5378861863 
Si 5.5967073826 8.0752333079 2.7142410904 
Si 8.2958174923 8.3802010264 -0.0009079819 
Si 9.6688908095 9.4567172757 1.2086525583 
Si -0.0048706908 -0.0329765435 5.7303753814 
Si 2.5826297290 2.7695700380 5.5167081995 
Si 1.4160910949 1.3285332824 6.8161235587 
Si 4.1244727847 1.3487156282 4.0052750362 
Si 5.3183031270 -0.1018408348 5.4396332208 
Si 7.0123046004 1.4634762177 7.1076569584 
Si 9.7005221380 1.2795674779 4.3688789873 
Si 8.0186415740 2.6007167306 5.4566350379 
Si 1.3531982904 4.2610289172 4.2088348997 
Si -0.1209040850 5.4072260113 5.5917001954 
Si 1.5403594890 7.0160970262 6.8925267286 
Si 6.9832984964 4.0051380050 4.3794403290 
Si 4.0911929268 6.7859562004 4.0464321389 
Si 4.2210355994 3.9920382200 6.7616073196 
Si 5.5399377980 5.5127450339 5.6794335522 
Si 6.9046530835 7.0369226956 6.9170909671 
Si 9.4761658541 6.7583697404 3.9826858002 
Si 9.4534779464 3.9336483034 7.0141193547 
Si 1.1745504201 9.4603312179 3.9750525233 
Si 2.8718090301 8.3656419761 5.4024739752 
Si 6.6639623534 9.5627951290 4.3545812934 
Si 4.0971965867 9.5600248223 7.1457489075 
Si 8.3494299408 8.3423035583 5.4967373281 
Si 9.6419810956 9.5410174822 6.9614133736 
Si 0.0077202518 2.8104422317 8.3592423908 
Si 2.6233489881 0.1509871763 8.2058908446 
Si 4.0099828144 1.3325925215 9.9424104000 
Si 5.4565718044 2.6417064195 8.4705531156 
Si 8.2794295198 0.0265440274 8.3749227117 
Si 9.6488909878 1.3408924141 9.6394438034 
Si 1.3283526061 4.1940815168 9.8015932101 
Si 2.6746481544 5.3426840061 8.2288931172 
Si 6.6683965295 3.9666564363 9.8773189463 
Si 4.1628141491 6.8420250383 9.5586134966 
Si 8.3082125243 5.3068868661 8.4546666942 
Si 9.4294192176 6.9487913732 9.6307537122 
Si 0.0136494945 8.4018263500 8.4393387875 
Si 1.3840229225 9.4948496552 9.8053920600 
Si 5.3524200383 8.2947331084 8.2872184466 
Si 6.8004414431 9.7392438451 9.7637676283 

