&CONTROL
   calculation      = 'scf'
   tstress          = .true.
   tprnfor          = .true.
   outdir           = './'
   disk_io          = 'none'
   pseudo_dir       = '/home/ppiaggi/pseudos'
/
&SYSTEM
   ecutwfc          = 30
   input_dft        = 'PBE'
   ntyp             = 1
   nat              = 64
   ibrav            = 0
/
&ELECTRONS
   electron_maxstep = 1000
   mixing_beta      = 0.5
/
&IONS
/
&CELL
/

ATOMIC_SPECIES
Si 28.085 Si_ONCV_PBE_sr.upf

K_POINTS gamma

CELL_PARAMETERS angstrom
11.04473980625668 0.00000000000000 0.00000000000000
0.00000000000000 10.88280473587476 0.00000000000000
0.00000000000000 0.00000000000000 11.01919409387050

ATOMIC_POSITIONS angstrom
Si -0.0000233912 -0.0343978299 -0.0498751803 
Si -0.0285053132 2.7458790740 2.7833200820 
Si 2.7290881976 -0.0379603949 2.7596340918 
Si 2.7748902835 2.7102354336 0.0375341005 
Si 1.4159690674 1.3968060726 1.3890335756 
Si 5.5242719643 -0.0334543938 -0.0234811823 
Si 5.5023001655 2.7843745949 2.7376997935 
Si 6.8413610488 1.3310432706 1.3701828264 
Si 8.2696550681 -0.0088535305 2.7295406624 
Si 8.2550822808 2.7463520468 -0.0326153629 
Si 0.0306591569 5.5071752749 0.0293027974 
Si 2.7995517920 5.4752821253 2.7509176403 
Si 1.3427533896 6.8317784832 1.3688078936 
Si 4.1652714679 4.1311429755 1.3699154301 
Si 5.5052235056 5.4514995556 0.0315615265 
Si 6.8607309407 6.8735808648 1.3935106425 
Si 9.5826275592 4.0757057247 1.4282287723 
Si 8.2711140966 5.4841379068 2.7350781685 
Si 0.0318626353 8.1796474380 2.7485673717 
Si 2.7953496072 8.2559555920 0.0426757460 
Si 4.1577279746 9.5449451730 1.4381050788 
Si 5.4551872331 8.2545170183 2.8256972113 
Si 8.2125265649 8.2594350535 0.0457952408 
Si 9.5866512479 9.5544683266 1.4184029435 
Si 0.0175511750 -0.0292317673 5.5164635182 
Si 2.7848409773 2.7427957810 5.6014258335 
Si 1.3512995503 1.4128309497 6.9943701410 
Si 4.1716960578 1.3996969320 4.2091768816 
Si 5.5212086648 -0.0382993266 5.5383360577 
Si 6.8343443046 1.4128633855 6.9343429151 
Si 9.5947164715 1.3529502309 4.1291870999 
Si 8.2636039812 2.7235411872 5.5893689942 
Si 1.3667660425 4.0885941666 4.1838308321 
Si -0.0038122576 5.5015615929 5.5253859650 
Si 1.3985847205 6.8570802441 6.9617823384 
Si 6.9047440904 4.1088566835 4.2053385394 
Si 4.1599574295 6.8758395354 4.1582578653 
Si 4.1468057304 4.0731843538 6.9713671084 
Si 5.5459146740 5.4739265790 5.6041809097 
Si 6.8389546238 6.8419929064 6.9123696609 
Si 9.6342670751 6.8831393849 4.1280311528 
Si 9.6416169729 4.0743599348 6.9885694559 
Si 1.3758026131 9.6264386861 4.2055284828 
Si 2.7928269900 8.1646017113 5.5879931365 
Si 6.8549031359 9.6188407315 4.1412707601 
Si 4.0821295830 9.5786875412 6.9755949469 
Si 8.2155232650 8.2480084026 5.5424236788 
Si 9.5962260943 9.6282061160 6.9090218470 
Si -0.0485365607 2.7545976216 8.3810280140 
Si 2.7753499626 -0.0272108988 8.3737500268 
Si 4.0863785045 1.3439193990 9.7710296171 
Si 5.5115287600 2.7386225917 8.3348892792 
Si 8.2915703442 -0.0450007207 8.3582057675 
Si 9.5852642138 1.3719831485 9.7223340589 
Si 1.3401592003 4.0603685152 9.7715975334 
Si 2.7402911818 5.5001046115 8.3573648318 
Si 6.8693073013 4.1087331620 9.7051084007 
Si 4.1293291819 6.8738081173 9.7213570306 
Si 8.2247390240 5.4403431184 8.3433151317 
Si 9.6318981498 6.8811708060 9.7692358986 
Si 0.0083082762 8.2062798519 8.3115075255 
Si 1.3720644678 9.6067394062 9.7319360228 
Si 5.5318875106 8.2008650623 8.3806864208 
Si 6.8892960104 9.5362193068 9.7747326248 

