&CONTROL
   calculation      = 'scf'
   tstress          = .true.
   tprnfor          = .true.
   outdir           = './'
   disk_io          = 'none'
   pseudo_dir       = '/home/ppiaggi/pseudos'
/
&SYSTEM
   ecutwfc          = 30
   input_dft        = 'PBE'
   ntyp             = 1
   nat              = 64
   ibrav            = 0
/
&ELECTRONS
   electron_maxstep = 1000
   mixing_beta      = 0.5
/
&IONS
/
&CELL
/

ATOMIC_SPECIES
Si 28.085 Si_ONCV_PBE_sr.upf

K_POINTS gamma

CELL_PARAMETERS angstrom
11.16291691574295 0.00000000000000 0.00000000000000
0.00000000000000 10.88822747934590 0.00000000000000
0.00000000000000 0.00000000000000 10.93500093640926

ATOMIC_POSITIONS angstrom
Si 0.0157815678 -0.0148829178 0.0217383580 
Si 0.0110871651 2.7484667090 2.7437781771 
Si 2.8104816975 0.0064029640 2.7913709938 
Si 2.7799528788 2.7724369769 -0.0171751824 
Si 1.4064670181 1.3939036299 1.3889310436 
Si 5.6079026001 -0.0413559453 0.0107419323 
Si 5.5791282773 2.7819693433 2.7751134803 
Si 6.9917975688 1.3924037649 1.3955260255 
Si 8.4276759388 -0.0103196052 2.7446564750 
Si 8.3612582009 2.7310615306 0.0094784807 
Si 0.0403635131 5.5389663429 0.0046136300 
Si 2.7954952866 5.5421945800 2.7469665991 
Si 1.3738755201 6.8496224950 1.3491068454 
Si 4.2454097481 4.1331897907 1.3868356125 
Si 5.6089467269 5.5389039583 -0.0139451176 
Si 6.9819461779 6.8750733175 1.4165666959 
Si 9.8295271353 4.1296007058 1.3680170678 
Si 8.4488933824 5.5545008083 2.7961307685 
Si -0.0129940035 8.2387228814 2.7792288723 
Si 2.8083287411 8.2289503680 0.0075231067 
Si 4.1833982297 9.6878640988 1.4207812670 
Si 5.6309529421 8.2598144927 2.7589977795 
Si 8.4499370560 8.2697449757 -0.0224105457 
Si 9.8460950474 9.6772150140 1.4157439576 
Si -0.0443403195 -0.0061809812 5.4715587521 
Si 2.7732875374 2.7164371052 5.5082942535 
Si 1.4361518150 1.4017285855 6.8546786042 
Si 4.1950600777 1.3950329164 4.1096102494 
Si 5.5553448128 0.0452666771 5.4988386138 
Si 7.0275501016 1.3790914554 6.9001953848 
Si 9.8445440048 1.3729838780 4.1408909059 
Si 8.3718011929 2.7521354922 5.5080643991 
Si 1.3701534933 4.1120329596 4.1284556507 
Si 0.0447826367 5.5272590416 5.5393884775 
Si 1.4063937533 6.8698263615 6.8700678812 
Si 7.0320534999 4.1248904587 4.1654769961 
Si 4.2250167396 6.9024625861 4.1510530322 
Si 4.2406778486 4.1398897788 6.8957392716 
Si 5.6339497810 5.4654780935 5.5471528104 
Si 6.9859733923 6.8689802995 6.8503555496 
Si 9.8370160829 6.8842719822 4.1324364154 
Si 9.8547628962 4.1138379800 6.8589591216 
Si 1.4457639478 9.6870408875 4.1040831472 
Si 2.8470743548 8.2702759860 5.5495143024 
Si 6.9647782786 9.6006213531 4.1849518518 
Si 4.2485073559 9.6614054466 6.8700249156 
Si 8.4391987392 8.2887256325 5.5165545691 
Si 9.8278724365 9.6594753288 6.8929500816 
Si -0.0271666311 2.7344483560 8.3071027085 
Si 2.8474794752 0.0113204719 8.2366713408 
Si 4.1662881882 1.3554151395 9.6708756908 
Si 5.6544099820 2.7749245638 8.2608372592 
Si 8.4447940606 0.0086503863 8.3197053782 
Si 9.8594201063 1.3485952833 9.6839911366 
Si 1.3739298214 4.0883297979 9.6186436401 
Si 2.8518499984 5.5062726026 8.3066340570 
Si 6.9780211229 4.0945217374 9.6767621330 
Si 4.2064991668 6.8733540209 9.6127781141 
Si 8.4036557252 5.5004339961 8.2473129387 
Si 9.8457506279 6.9082321763 9.6098643505 
Si -0.0177697112 8.2438316771 8.2343077229 
Si 1.3578514169 9.6852515901 9.6370320272 
Si 5.5699201861 8.2743356853 8.2791926622 
Si 7.0338239554 9.6258969753 9.6363150802 

