&CONTROL
   calculation      = 'scf'
   tstress          = .true.
   tprnfor          = .true.
   outdir           = './'
   disk_io          = 'none'
   pseudo_dir       = '/home/ppiaggi/pseudos'
/
&SYSTEM
   ecutwfc          = 30
   input_dft        = 'PBE'
   ntyp             = 1
   nat              = 64
   ibrav            = 0
/
&ELECTRONS
   electron_maxstep = 1000
   mixing_beta      = 0.5
/
&IONS
/
&CELL
/

ATOMIC_SPECIES
Si 28.085 Si_ONCV_PBE_sr.upf

K_POINTS gamma

CELL_PARAMETERS angstrom
11.02531154758152 0.00000000000000 0.00000000000000
0.00000000000000 10.81476408449650 0.00000000000000
0.00000000000000 0.00000000000000 11.01000612637578

ATOMIC_POSITIONS angstrom
Si -0.0437190412 0.0257144079 0.0391245373 
Si -0.0129079351 2.7929338374 2.7767558603 
Si 2.7185437456 0.0364354951 2.8000481166 
Si 2.7373708572 2.7905412608 0.0020559140 
Si 1.4282619969 1.3779412960 1.3463694789 
Si 5.5317005822 -0.0190740210 -0.0337470676 
Si 5.4801888551 2.7632489222 2.7322847575 
Si 6.8839349299 1.3268857750 1.3918795325 
Si 8.3302742888 -0.0252959432 2.7872695686 
Si 8.3312650066 2.7645065280 0.0318034621 
Si 0.0445343079 5.4648642444 -0.0153557563 
Si 2.7500908279 5.5222912713 2.7639338251 
Si 1.4176430855 6.8366197003 1.4291809576 
Si 4.1252309638 4.0810873396 1.3540600437 
Si 5.5666329555 5.4885590452 -0.0255895747 
Si 6.9080386140 6.8720402611 1.3658118524 
Si 9.6771046729 4.1184068555 1.3999855287 
Si 8.3000935466 5.4652620415 2.7522150269 
Si -0.0186911869 8.1853589993 2.7624030762 
Si 2.7430191751 8.2173699946 -0.0340802200 
Si 4.1643355248 9.6417343361 1.3910229387 
Si 5.4751536294 8.2326387560 2.7720561000 
Si 8.2874320102 8.2661015569 -0.0174892951 
Si 9.6334573924 9.5561257463 1.4312426863 
Si 0.0212701541 -0.0153380684 5.5048559049 
Si 2.8044474288 2.7307330167 5.5362976123 
Si 1.3875247212 1.3741430220 6.9589126376 
Si 4.0933312667 1.3777372551 4.1622024761 
Si 5.5133776312 -0.0485408880 5.5311317103 
Si 6.9448261525 1.3512251135 6.8915271516 
Si 9.6359404263 1.3538600620 4.1578745841 
Si 8.2414944501 2.7529038481 5.5403291244 
Si 1.3857610627 4.1032783631 4.1920683938 
Si -0.0126097194 5.4647811750 5.5113830104 
Si 1.3786561142 6.8616946356 6.8915352150 
Si 6.9221250603 4.1513533952 4.1452161575 
Si 4.1873091827 6.9017093844 4.1960070478 
Si 4.1600926683 4.1197581324 6.9067230145 
Si 5.5223960399 5.5335407502 5.5551743967 
Si 6.9084096846 6.8569662641 6.8971709359 
Si 9.7065448710 6.8250111888 4.1940601175 
Si 9.6518853433 4.0683152803 6.8725489621 
Si 1.3763156347 9.6330525503 4.1395557340 
Si 2.7799638542 8.2077854861 5.5320138898 
Si 6.9297349633 9.6092673286 4.1800471725 
Si 4.1672962191 9.6191486068 6.8917829930 
Si 8.2613328895 8.2662325478 5.5022779926 
Si 9.6391693763 9.5572140258 6.8903455680 
Si 0.0055871732 2.7566333994 8.2668592259 
Si 2.8060807053 0.0053301302 8.2650851184 
Si 4.1071493647 1.3342451579 9.7305919992 
Si 5.5330334749 2.7077750776 8.3113909441 
Si 8.3275297334 -0.0404560458 8.3177662449 
Si 9.6738700747 1.3443770660 9.6519515807 
Si 1.4037555399 4.1643457557 9.7286359132 
Si 2.7551858929 5.5097108529 8.3090068383 
Si 6.8989223605 4.0996924024 9.6571353649 
Si 4.1116546910 6.8768729765 9.6708123788 
Si 8.2535640219 5.4447856171 8.2894601196 
Si 9.6997403573 6.8992069631 9.6944778603 
Si 0.0129859900 8.2763593483 8.3455451064 
Si 1.3479901275 9.5767612246 9.6773970937 
Si 5.5565998508 8.2538323729 8.3003237771 
Si 6.9152089756 9.5690744257 9.6626123430 

