&CONTROL
   calculation      = 'scf'
   tstress          = .true.
   tprnfor          = .true.
   outdir           = './'
   disk_io          = 'none'
   pseudo_dir       = '/home/ppiaggi/pseudos'
/
&SYSTEM
   ecutwfc          = 30
   input_dft        = 'PBE'
   ntyp             = 1
   nat              = 64
   ibrav            = 0
/
&ELECTRONS
   electron_maxstep = 1000
   mixing_beta      = 0.5
/
&IONS
/
&CELL
/

ATOMIC_SPECIES
Si 28.085 Si_ONCV_PBE_sr.upf

K_POINTS gamma

CELL_PARAMETERS angstrom
11.16810238898436 0.00000000000000 0.00000000000000
0.00000000000000 10.88792417926009 0.00000000000000
0.00000000000000 0.00000000000000 10.86826114407020

ATOMIC_POSITIONS angstrom
Si -0.0318657067 0.0029328769 -0.0106224809 
Si -0.0478961973 2.6597397713 2.6741806467 
Si 2.7916727460 -0.0089696638 2.6885673932 
Si 2.7962147921 2.7269579501 0.0396585044 
Si 1.3412067435 1.3009471352 1.3535289393 
Si 5.5836495424 0.0365103797 -0.0462353111 
Si 5.5961183998 2.7395719355 2.7378798708 
Si 6.9912485403 1.3282268393 1.3526805037 
Si 8.3680395545 0.0229319863 2.6789841486 
Si 8.3839607584 2.6932578265 0.0082577281 
Si 0.0135677088 5.3835627419 -0.0019674490 
Si 2.8028961454 5.3444082462 2.7017527013 
Si 1.3612352333 6.7126593338 1.3640166624 
Si 4.1926666532 4.0027850696 1.3967744667 
Si 5.5536911432 5.4107446482 0.0425750026 
Si 6.9846888771 6.7225491201 1.3992588529 
Si 9.7151241076 4.0684168740 1.3341012612 
Si 8.3779738927 5.3990827196 2.7388262353 
Si -0.0416972233 8.0543672399 2.6938817879 
Si 2.8311271367 8.0730630740 0.0406921191 
Si 4.1893492174 9.4683317461 1.4065036607 
Si 5.5745722790 8.0569386202 2.7252284628 
Si 8.2990566590 8.1051717954 0.0037015986 
Si 9.7133917432 9.4595009442 1.3552758508 
Si 0.0431061360 0.0306463095 5.4352103641 
Si 2.7990320772 2.6911725081 5.4071300965 
Si 1.4006656797 1.3565615542 6.8424731305 
Si 4.2167823724 1.3206501737 4.0837233319 
Si 5.5245335078 0.0124884081 5.4395165467 
Si 6.9173572592 1.3429650875 6.7667028768 
Si 9.7764844216 1.3423188851 4.0666025812 
Si 8.3083698309 2.7268998012 5.4878490883 
Si 1.4037108946 4.0606771500 4.0450328096 
Si 0.0058615681 5.4078303062 5.4378491128 
Si 1.3915101076 6.7589921497 6.7774225854 
Si 6.9131435209 4.0117674107 4.1099744063 
Si 4.1955404927 6.6976752780 4.0995468676 
Si 4.1444734197 4.0614070082 6.8432992709 
Si 5.6055502243 5.3777865039 5.4129919314 
Si 6.9113615524 6.7244582911 6.7944187294 
Si 9.7310838157 6.7071532243 4.0310632454 
Si 9.7874373284 4.0759666602 6.7989905313 
Si 1.3773166377 9.4274562844 4.1195199460 
Si 2.8268184406 8.0835428229 5.4666988777 
Si 6.9271080365 9.4255505731 4.0307568689 
Si 4.1572683873 9.3967241127 6.8016376671 
Si 8.3713874236 8.0819305772 5.3916146669 
Si 9.7178191517 9.4086390334 6.7792326946 
Si 0.0496700888 2.7180965996 8.1895143806 
Si 2.7931511547 0.0433665144 8.1511042223 
Si 4.1915153798 1.3033594720 9.4800490206 
Si 5.6082141502 2.6951656124 8.1488537541 
Si 8.3135868787 -0.0095822399 8.2003560818 
Si 9.7156824516 1.3437656028 9.5655335033 
Si 1.3542047434 4.0185919185 9.4929455460 
Si 2.8246103428 5.4343481886 8.1597847524 
Si 6.9754018029 4.0399386618 9.5664750141 
Si 4.1336747985 6.7487447643 9.5181584052 
Si 8.3806781250 5.4309228873 8.1327597894 
Si 9.7737307303 6.7579176085 9.4875583785 
Si -0.0248264131 8.0480160937 8.1864786054 
Si 1.4255021665 9.4735949370 9.5220305796 
Si 5.5832543454 8.1145944798 8.1855477368 
Si 6.9498240592 9.4330748657 9.4744914951 

