&CONTROL
   calculation      = 'scf'
   tstress          = .true.
   tprnfor          = .true.
   outdir           = './'
   disk_io          = 'none'
   pseudo_dir       = '/home/ppiaggi/pseudos'
/
&SYSTEM
   ecutwfc          = 30
   input_dft        = 'PBE'
   ntyp             = 1
   nat              = 64
   ibrav            = 0
/
&ELECTRONS
   electron_maxstep = 1000
   mixing_beta      = 0.5
/
&IONS
/
&CELL
/

ATOMIC_SPECIES
Si 28.085 Si_ONCV_PBE_sr.upf

K_POINTS gamma

CELL_PARAMETERS angstrom
11.09347922579810 0.00000000000000 0.00000000000000
0.00000000000000 11.16332989944909 0.00000000000000
0.00000000000000 0.00000000000000 11.11731450653986

ATOMIC_POSITIONS angstrom
Si 0.0039592157 0.0228253522 -0.0413994285 
Si -0.0488607688 2.8040266016 2.7105610003 
Si 2.6809033323 -0.0245520274 2.7679387296 
Si 2.7049633554 2.8357235660 0.0268580364 
Si 1.3868755460 1.4440744365 1.3398507659 
Si 5.4225387734 -0.0408888658 -0.0435711927 
Si 5.3990234156 2.7914526849 2.6969242244 
Si 6.8169878822 1.3998430395 1.3677453806 
Si 8.1370122394 -0.0329498518 2.7518497655 
Si 8.1714007929 2.8443580017 0.0175914754 
Si -0.0412816014 5.6652561638 0.0125000421 
Si 2.7106048474 5.6309258667 2.7320237376 
Si 1.3620283400 7.0324975287 1.3989587610 
Si 4.0448204160 4.1887902510 1.4093511589 
Si 5.4484851178 5.5971182365 -0.0244694215 
Si 6.7606419592 7.0761346649 1.3559268377 
Si 9.4853074115 4.1979189157 1.3833218481 
Si 8.1580359418 5.6181868833 2.7012222400 
Si -0.0228220055 8.4234755459 2.7670141822 
Si 2.7134078734 8.4035056045 0.0327343309 
Si 4.0890795207 9.8164885792 1.3643503124 
Si 5.4916872802 8.4215963803 2.7130387359 
Si 8.1407473665 8.4022909822 -0.0154229720 
Si 9.5495217765 9.9085620471 1.4130325216 
Si 0.0437767699 0.0122969832 5.4698719152 
Si 2.7089538482 2.7678549364 5.4124239840 
Si 1.3886110083 1.4548191735 6.7875394312 
Si 4.0757931227 1.4511292449 4.0879295121 
Si 5.4686329864 0.0315982115 5.5004732760 
Si 6.8115348528 1.3972561877 6.7807389192 
Si 9.5169846890 1.4563096499 4.1321903566 
Si 8.1639795374 2.7924837800 5.4897655525 
Si 1.3985735579 4.2084522444 4.1130270737 
Si 0.0305693228 5.5985914209 5.4969511809 
Si 1.3249133573 7.0896876764 6.8020138190 
Si 6.8017526344 4.2043997045 4.1039301512 
Si 4.0964454356 7.0247129412 4.1073286912 
Si 4.1258518015 4.2493742781 6.7786286348 
Si 5.4862923087 5.6587037956 5.4318313325 
Si 6.8016066062 7.0749120268 6.8102303003 
Si 9.5124911966 7.0006017049 4.1084159216 
Si 9.5037492176 4.1853522468 6.8276325948 
Si 1.3692056691 9.8735852018 4.0762624488 
Si 2.7600489359 8.4343259260 5.4266241361 
Si 6.7614741704 9.8902603978 4.0891401982 
Si 4.1235872995 9.8851272290 6.7945040930 
Si 8.1500886454 8.4476394666 5.4155420203 
Si 9.5449466466 9.8901432418 6.7943963189 
Si -0.0272220098 2.8295743725 8.1834219239 
Si 2.6954928738 0.0489074623 8.2197122656 
Si 4.1271816871 1.3765550815 9.5077660923 
Si 5.4844748272 2.8448356656 8.1736427175 
Si 8.1850194514 0.0500723507 8.2145210842 
Si 9.5046156056 1.4336841602 9.5398436191 
Si 1.3659407738 4.2003576055 9.5180262862 
Si 2.7032298966 5.6125111580 8.1811852350 
Si 6.8307954720 4.2282677248 9.5225106204 
Si 4.0941081966 7.0449175263 9.5104693515 
Si 8.1658002660 5.6572082254 8.1883424379 
Si 9.5000874807 6.9974020017 9.5232997885 
Si -0.0491717276 8.4438947278 8.1652073251 
Si 1.3179735490 9.8970497136 9.5275803856 
Si 5.4543631076 8.4828935547 8.2286866666 
Si 6.8055378333 9.8877209328 9.5950466655 

