&CONTROL
   calculation      = 'scf'
   tstress          = .true.
   tprnfor          = .true.
   outdir           = './'
   disk_io          = 'none'
   pseudo_dir       = '/home/ppiaggi/pseudos'
/
&SYSTEM
   ecutwfc          = 30
   input_dft        = 'PBE'
   ntyp             = 1
   nat              = 64
   ibrav            = 0
/
&ELECTRONS
   electron_maxstep = 1000
   mixing_beta      = 0.5
/
&IONS
/
&CELL
/

ATOMIC_SPECIES
Si 28.085 Si_ONCV_PBE_sr.upf

K_POINTS gamma

CELL_PARAMETERS angstrom
10.86207273932473 0.00000000000000 0.00000000000000
0.00000000000000 11.01104005470470 0.00000000000000
0.00000000000000 0.00000000000000 11.07793423162669

ATOMIC_POSITIONS angstrom
Si -0.0282107825 0.0087718157 -0.0144257519 
Si 0.0075688230 2.7744572986 2.8178754857 
Si 2.7428041777 -0.0136846007 2.7706668552 
Si 2.7161185779 2.7238253766 0.0364839980 
Si 1.3776626269 1.3817437716 1.3879668075 
Si 5.4567507040 0.0228197769 -0.0155852774 
Si 5.5457982768 2.8030412268 2.8266582271 
Si 6.8824307859 1.3320784745 1.4033429559 
Si 8.2761571382 -0.0189619360 2.7816183594 
Si 8.2956067258 2.7266699225 0.0386715561 
Si -0.0466481298 5.4773230439 0.0148332802 
Si 2.7798956343 5.5279213723 2.8068727890 
Si 1.4224317968 6.9030425477 1.3540600032 
Si 4.1015961136 4.1800939558 1.4102161209 
Si 5.4580469001 5.5368272789 -0.0325253757 
Si 6.8591943446 6.8789495961 1.4104276826 
Si 9.6377378626 4.1284889423 1.3618401009 
Si 8.2445386052 5.5501974474 2.7790496936 
Si -0.0412862189 8.2334959095 2.7434277588 
Si 2.7110531061 8.2589127867 -0.0209119378 
Si 4.1229837522 9.6572501341 1.4257907806 
Si 5.5185809800 8.2985938601 2.8241711766 
Si 8.2567374917 8.2765747307 0.0060273371 
Si 9.6735805324 9.5990072518 1.3395230584 
Si -0.0293240482 0.0440239536 5.5637155394 
Si 2.7965589371 2.7889665253 5.5380616106 
Si 1.4188386113 1.4202835662 6.8968087785 
Si 4.1039176227 1.3977710281 4.1484259141 
Si 5.5499628603 0.0196718392 5.5440247252 
Si 6.8875625080 1.3410846014 6.9533540569 
Si 9.6341675897 1.3895101356 4.1569757406 
Si 8.2856811485 2.7052476626 5.5217330005 
Si 1.3561602712 4.1759075379 4.1653974032 
Si 0.0432258688 5.5446892349 5.5729150693 
Si 1.3850341899 6.8965673036 6.9915272209 
Si 6.8994983530 4.1351563714 4.2072254095 
Si 4.1083927041 6.9243098906 4.1878497235 
Si 4.1341557205 4.0880018579 6.9831708635 
Si 5.4634847058 5.5085424512 5.5391394237 
Si 6.9124181383 6.8734776490 6.9159241403 
Si 9.6365395477 6.8621274178 4.2018911977 
Si 9.6531719142 4.1637039064 6.9002279748 
Si 1.3301878659 9.6255327340 4.2080154271 
Si 2.7941973857 8.2989409716 5.5149841813 
Si 6.9276281812 9.6599211237 4.2123170902 
Si 4.1476589762 9.6221474143 6.9846771714 
Si 8.2242853150 8.2239129729 5.5807052340 
Si 9.6554716103 9.6152714469 6.9550942822 
Si 0.0233454216 2.7686773874 8.3069467060 
Si 2.7231397562 0.0226638240 8.3047473582 
Si 4.1466250116 1.3889173292 9.7105435063 
Si 5.5307736313 2.7853085670 8.3438056277 
Si 8.2318964105 -0.0042805607 8.3097707566 
Si 9.6513762454 1.4008740348 9.7061652419 
Si 1.3888396048 4.0938012597 9.6792801608 
Si 2.7252106253 5.4617622248 8.3537444443 
Si 6.9004343109 4.1342634660 9.7285033435 
Si 4.1668603777 6.9101095331 9.7689394591 
Si 8.2990471724 5.4941255003 8.3515790208 
Si 9.6635424309 6.8665933964 9.7117987435 
Si 0.0189651425 8.2929903737 8.3092234281 
Si 1.3644048160 9.6854019732 9.7098157915 
Si 5.4710221098 8.2906777782 8.3098137497 
Si 6.8613385657 9.6083547731 9.7644241856 

