&CONTROL
   calculation      = 'scf'
   tstress          = .true.
   tprnfor          = .true.
   outdir           = './'
   disk_io          = 'none'
   pseudo_dir       = '/home/ppiaggi/pseudos'
/
&SYSTEM
   ecutwfc          = 30
   occupations      = 'smearing'
   degauss          = 0.01
   smearing         = 'fermi-dirac'
   input_dft        = 'PBE'
   ntyp             = 1
   nat              = 64
   ibrav            = 0
/
&ELECTRONS
   electron_maxstep = 1000
   mixing_beta      = 0.5
/
&IONS
/
&CELL
/

ATOMIC_SPECIES
Si 28.085 Si_ONCV_PBE_sr.upf

K_POINTS gamma

CELL_PARAMETERS angstrom
11.07977935633306 0.00000000000000 0.00000000000000
0.00000000000000 11.02023123485226 0.00000000000000
0.00000000000000 0.00000000000000 10.67170281260623

ATOMIC_POSITIONS angstrom
Si 0.0238407926 -0.0658081212 -0.0598946950 
Si 0.1525964450 2.8715955345 2.7460457483 
Si 2.8642157285 -0.1065273554 2.6920398872 
Si 2.6464880741 2.8547681341 0.0046677723 
Si 1.2106632109 1.4730785616 1.3440416321 
Si 5.2570614526 -0.1061955837 0.1310307125 
Si 5.4344255296 2.5938172725 2.7285532728 
Si 6.5328965665 1.4133303974 1.5499185621 
Si 7.9985861401 -0.0793232724 2.8062588810 
Si 7.8575693954 2.7299130275 -0.0824984386 
Si -0.0876385419 5.2942907889 -0.0242930599 
Si 2.7668497563 5.2473715436 2.8532347539 
Si 1.3011108705 6.7243795573 1.3722563198 
Si 4.0929004676 3.8578365416 1.4871746716 
Si 5.2134494518 5.5290325546 0.1430468289 
Si 6.4984206245 6.7195160445 1.3883016861 
Si 9.2658909867 4.1545950109 1.4492152107 
Si 8.0688256033 5.5649642302 2.8181589987 
Si 0.1873288556 8.1324352816 2.9021025312 
Si 2.5843226326 8.2263801959 0.0879408071 
Si 3.8762984485 9.2582821613 1.2874526690 
Si 5.3326670821 8.0503377464 2.6989979943 
Si 8.0980367316 7.9831412272 0.0835025843 
Si 9.2173413226 9.5841370481 1.3639668132 
Si -0.1067201292 -0.1121048752 5.4983543946 
Si 2.5253406046 2.8044404500 5.2724992409 
Si 1.1969755067 1.1789354069 6.6608151178 
Si 4.1130535811 1.4448423089 4.1130446541 
Si 5.4441779266 0.1847143597 5.6357767545 
Si 6.5744667427 1.1610669006 6.7757906334 
Si 9.2762363918 1.1809528359 3.9142667101 
Si 7.8995452671 2.6468620114 5.2519178788 
Si 1.3467654915 3.8965417944 4.1989923768 
Si 0.0978532404 5.3141117525 5.5752431740 
Si 1.4814014934 6.6794545965 6.7079275779 
Si 6.7843547872 4.0967318334 3.9092894163 
Si 4.1426309542 6.7932597041 4.0521702061 
Si 4.1268111087 4.0454952548 6.6878288935 
Si 5.1704936134 5.3147702287 5.4825561681 
Si 6.5179425378 6.8280834424 6.7934141887 
Si 9.5282652205 6.7402066183 4.0714319806 
Si 9.4233458562 3.8710799967 6.8475491001 
Si 1.5269141234 9.3525092118 3.9690495121 
Si 2.7865574442 7.9613213974 5.6161625449 
Si 6.8465092873 9.5158315065 4.0595362395 
Si 4.1674865548 9.3235276585 6.8678845333 
Si 8.0232133215 8.0519373857 5.5643198413 
Si 9.1776359296 9.3700192644 6.6679415723 
Si -0.1253230456 2.6455431652 8.0682007412 
Si 2.5421226807 0.0024283171 8.1202172274 
Si 4.2072876573 1.5257179597 9.4569198979 
Si 5.3615822114 2.5726630131 8.0580777943 
Si 8.1263695038 0.1552323768 8.1321792661 
Si 9.4913755966 1.4083933917 9.3615801190 
Si 1.4380303321 4.1774080373 9.5467996463 
Si 2.7059042613 5.5189950666 8.2786766646 
Si 6.7797584562 4.2380757082 9.5684287950 
Si 3.8447538744 6.9150407895 9.3926473103 
Si 8.0286710838 5.3787421421 8.2765080898 
Si 9.5444503427 6.7924089569 9.6804321722 
Si 0.1544240380 8.0074055015 8.0569908567 
Si 1.1539917404 9.4504679607 9.3880518363 
Si 5.3434173564 8.0298970145 7.9740712064 
Si 6.6924413179 9.3620950573 9.4787201502 

