&CONTROL
   calculation      = 'scf'
   tstress          = .true.
   tprnfor          = .true.
   outdir           = './'
   disk_io          = 'none'
   pseudo_dir       = '/home/ppiaggi/pseudos'
/
&SYSTEM
   ecutwfc          = 30
   occupations      = 'smearing'
   degauss          = 0.01
   smearing         = 'fermi-dirac'
   input_dft        = 'PBE'
   ntyp             = 1
   nat              = 64
   ibrav            = 0
/
&ELECTRONS
   electron_maxstep = 1000
   mixing_beta      = 0.5
/
&IONS
/
&CELL
/

ATOMIC_SPECIES
Si 28.085 Si_ONCV_PBE_sr.upf

K_POINTS gamma

CELL_PARAMETERS angstrom
11.35689051886872 0.00000000000000 0.00000000000000
0.00000000000000 11.30858410365060 0.00000000000000
0.00000000000000 0.00000000000000 11.10718640777904

ATOMIC_POSITIONS angstrom
Si 0.1985696480 0.0240462152 0.1156159299 
Si -0.1996679297 2.7490344466 2.7906340530 
Si 3.0009738416 0.1273901695 2.9268852084 
Si 3.0116221074 2.8272982950 0.0363353401 
Si 1.5281290482 1.4590739877 1.5302448724 
Si 5.9616233215 -0.0956297232 0.1305962824 
Si 5.6615893021 3.1123165227 2.9735456813 
Si 7.4169952332 1.4633628816 1.3913261944 
Si 8.5585259870 -0.0009517033 2.6837861447 
Si 8.4622777306 3.0335137024 -0.0750261571 
Si 0.0714945129 5.6138472669 -0.0086144627 
Si 2.6929868248 5.7810428000 3.0325089805 
Si 1.5961943683 7.0752080049 1.5333352496 
Si 4.1644044961 4.2288362857 1.6245192329 
Si 5.7557499259 5.9101005341 0.1335871255 
Si 7.1718441797 7.1203248744 1.6204361922 
Si 10.2317008362 4.3395814416 1.2621324108 
Si 8.5413087217 5.7424928662 2.8606426637 
Si -0.0999394111 8.8883295236 2.9749192079 
Si 3.0047251172 8.7437010614 0.0267866484 
Si 4.3281439928 10.0163849807 1.3198090887 
Si 5.6028241015 8.6445546760 2.8170226601 
Si 8.7209043759 8.8846091660 0.1770549343 
Si 10.0939113127 10.1758872619 1.4822436008 
Si -0.1092599366 -0.1708813930 5.7224818104 
Si 2.9168563836 3.0767686518 5.8418285607 
Si 1.2469947993 1.5834134124 6.9907929893 
Si 4.2238199649 1.5927560273 4.3020051554 
Si 5.6297099812 0.0759358989 5.7965689506 
Si 7.1583697161 1.2738871673 7.3567230460 
Si 10.0773651018 1.2477459332 4.4397446185 
Si 8.7086968236 3.0043412833 5.6569958153 
Si 1.4701570289 4.5573640871 4.2146220943 
Si -0.0905878418 5.6574904510 5.5982649935 
Si 1.6189263333 7.2522182602 7.3003335057 
Si 7.1807085730 4.2899262034 4.2955048707 
Si 4.2410747717 7.0927278896 4.0920020937 
Si 4.1343723172 4.1785921661 7.3167136505 
Si 5.6958156482 5.6588073810 5.6056717459 
Si 7.3876937168 7.1576974669 7.3342051132 
Si 10.1626343427 7.4279592178 4.0979814782 
Si 10.2556326652 4.2603015350 6.9552047219 
Si 1.3868766495 10.1996766928 4.3309868533 
Si 2.7004489441 8.8915950691 5.7475026746 
Si 7.3300683098 10.3453680392 4.3211493567 
Si 4.1733280162 10.2117059527 7.2710055179 
Si 8.5967026659 8.7905006880 5.7671065907 
Si 10.1855515078 10.3463195503 7.1092484194 
Si -0.0023719700 3.0329232427 8.4815678438 
Si 3.0489284499 -0.1302850116 8.4765864868 
Si 4.2007779570 1.3059904835 10.2228999453 
Si 5.7950956600 2.9001609741 8.4248938245 
Si 8.8411651048 0.0541651467 8.7362296470 
Si 10.1545674485 1.5714737549 9.9061824773 
Si 1.4363634596 4.4635182800 10.1676711292 
Si 2.8284134939 6.0011435101 8.4493954339 
Si 7.0409024672 4.5219271845 9.8912129190 
Si 4.3011763756 7.1082537077 10.0510894500 
Si 8.5505818853 5.6583272033 8.5489417624 
Si 9.9512952378 7.3631149719 10.0284231140 
Si -0.0236834699 8.6520362369 8.3914718783 
Si 1.5443652163 10.1459441513 9.8916596309 
Si 5.7035119956 8.8294446218 8.6205244717 
Si 7.2740294009 10.3363889853 10.0643656431 

