&CONTROL
   calculation      = 'scf'
   tstress          = .true.
   tprnfor          = .true.
   outdir           = './'
   disk_io          = 'none'
   pseudo_dir       = '/home/ppiaggi/pseudos'
/
&SYSTEM
   ecutwfc          = 30
   occupations      = 'smearing'
   degauss          = 0.01
   smearing         = 'fermi-dirac'
   input_dft        = 'PBE'
   ntyp             = 1
   nat              = 64
   ibrav            = 0
/
&ELECTRONS
   electron_maxstep = 1000
   mixing_beta      = 0.5
/
&IONS
/
&CELL
/

ATOMIC_SPECIES
Si 28.085 Si_ONCV_PBE_sr.upf

K_POINTS gamma

CELL_PARAMETERS angstrom
11.03575215158752 0.00000000000000 0.00000000000000
0.00000000000000 11.35145509918388 0.00000000000000
0.00000000000000 0.00000000000000 10.96185727318744

ATOMIC_POSITIONS angstrom
Si -0.0942484079 -0.0808318477 0.0324229900 
Si -0.1394588906 2.6617117189 2.5342769997 
Si 2.5930067211 0.1446500053 2.8757544087 
Si 2.6069526432 3.0010510302 -0.0132133291 
Si 1.2733782550 1.3708363541 1.1714909248 
Si 5.3811238432 -0.0523881592 -0.0460301537 
Si 5.1972092876 2.7716514645 2.6833387143 
Si 6.4887813103 1.5196776154 1.4697984202 
Si 7.8907911676 -0.1391473924 2.7044329194 
Si 7.9187816371 2.9738449681 0.1427284570 
Si -0.0265039772 5.7512944208 -0.1200148073 
Si 2.4711284933 5.7108568353 2.6894937289 
Si 1.4847436326 7.0794828725 1.2636297839 
Si 4.0011075283 4.3201020912 1.4280267660 
Si 5.2197972675 5.8226421956 0.1352530280 
Si 6.5094106068 7.0586163155 1.2405718498 
Si 9.2116591048 4.2671854180 1.4836410320 
Si 7.9525040587 5.6354629205 2.7130078509 
Si 0.1913567277 8.5160643486 2.6125047366 
Si 2.7068815202 8.6005930008 -0.0047912607 
Si 3.8183490677 10.0625966390 1.5158728021 
Si 5.1964211923 8.4872352130 2.6321292978 
Si 7.9483318055 8.3326566886 -0.0356539910 
Si 9.1183664006 9.6931776552 1.3642407885 
Si 0.1251259702 -0.1127615855 5.1794371547 
Si 2.4660580705 2.6173216771 5.2347815419 
Si 1.1797899199 1.3713580086 6.6759440586 
Si 3.8053670013 1.3057008658 3.8874433603 
Si 5.3508263959 -0.1730588011 5.4482636417 
Si 6.6480791498 1.2243322466 6.6148190143 
Si 9.2441149156 1.3833230454 4.0530796485 
Si 8.0289279196 2.9337720480 5.3659919634 
Si 1.2957445771 4.3006972031 4.1418383359 
Si 0.1807198284 5.6338835786 5.2216878535 
Si 1.4101566253 7.0218477652 6.5793827029 
Si 6.6599888530 4.1152576406 3.9142371081 
Si 4.0347897038 7.0979072593 3.8839637376 
Si 3.8334211497 4.1195820813 6.6470899017 
Si 5.2948986711 5.7385024118 5.3532284592 
Si 6.7847883535 7.0319623918 6.6754704536 
Si 9.2705248019 7.1052378407 4.0854962633 
Si 9.1083031016 4.0321174091 6.8104869901 
Si 1.4989897881 9.6987326905 3.8650713420 
Si 2.8184455204 8.2633993721 5.4188760985 
Si 6.6090538668 10.0002159798 3.8994621471 
Si 4.0782051807 9.8066495488 6.5383421288 
Si 7.8257678736 8.4198246589 5.4393145113 
Si 9.2285324234 9.7653755799 6.8371022489 
Si -0.1360614671 2.7770463675 7.9699860124 
Si 2.7450291046 0.1925656159 7.9068326776 
Si 3.8945938069 1.4866812190 9.5583183639 
Si 5.2028150351 2.7307771849 7.9170028985 
Si 7.8787042651 -0.1952591805 8.1649947351 
Si 9.2927972286 1.3013221814 9.1989477742 
Si 1.2778317899 4.1439575251 9.4771058036 
Si 2.6858176651 5.4441151269 7.9228903629 
Si 6.5339166484 4.2297826302 9.3596921475 
Si 4.0446231530 7.0617609748 9.5610938617 
Si 8.0443192518 5.5363330570 7.8927074603 
Si 9.2075052564 6.9636785665 9.2102233201 
Si -0.0539890211 8.5559317108 8.2252097228 
Si 1.4449454825 9.6857093823 9.5709855614 
Si 5.3206873932 8.4043261653 7.8721779490 
Si 6.7042186210 9.9272926798 9.5071200792 

