&CONTROL
   calculation      = 'scf'
   tstress          = .true.
   tprnfor          = .true.
   outdir           = './'
   disk_io          = 'none'
   pseudo_dir       = '/home/ppiaggi/pseudos'
/
&SYSTEM
   ecutwfc          = 30
   input_dft        = 'PBE'
   ntyp             = 1
   nat              = 64
   ibrav            = 0
/
&ELECTRONS
   electron_maxstep = 1000
   mixing_beta      = 0.5
/
&IONS
/
&CELL
/

ATOMIC_SPECIES
Si 28.085 Si_ONCV_PBE_sr.upf

K_POINTS gamma

CELL_PARAMETERS angstrom
10.85160959351317 0.00000000000000 0.00000000000000
0.00000000000000 10.96722651338958 0.00000000000000
0.00000000000000 0.00000000000000 10.79028481586050

ATOMIC_POSITIONS angstrom
Si -0.0380659148 0.0895031998 -0.0903483828 
Si -0.0274168252 2.7978046590 2.6994192160 
Si 2.6154499421 -0.0632341685 2.7194602885 
Si 2.7535901120 2.7683041222 -0.0241594467 
Si 1.2814735887 1.3635294420 1.2532354967 
Si 5.4556206145 -0.0100926968 0.0380791291 
Si 5.2801229279 2.7342326780 2.7290151452 
Si 6.7128541133 1.4293979631 1.4051661043 
Si 8.0589185164 0.0416797500 2.7871744443 
Si 7.9748693490 2.7141027498 -0.0485788487 
Si -0.0153734276 5.5433262678 -0.0017937566 
Si 2.5984589964 5.5344348218 2.6729969195 
Si 1.3540227408 6.9943624242 1.3351266607 
Si 4.0628336293 4.1390970327 1.3011602081 
Si 5.4490279951 5.6731850218 0.0301793406 
Si 6.8029670540 7.0764203431 1.4227072234 
Si 9.4396580828 4.2899744163 1.3849462318 
Si 8.0879988268 5.6114768093 2.6498874945 
Si -0.0768874182 8.4275212426 2.7852462723 
Si 2.6227429600 8.3964916288 0.0355279023 
Si 4.1090688893 9.8826636356 1.2972238465 
Si 5.3358826816 8.4515832381 2.6377693309 
Si 8.0652825753 8.3398367114 0.0865877081 
Si 9.4337889602 9.7291356183 1.4240539841 
Si -0.0208809932 -0.0181375148 5.4071105219 
Si 2.6714044476 2.8103402092 5.4847051151 
Si 1.3132239183 1.3445384953 6.6628049110 
Si 4.0196571895 1.4387878446 4.1296349080 
Si 5.2955600113 -0.0174685297 5.4163488933 
Si 6.6567879158 1.4637503120 6.7355097714 
Si 9.3284130981 1.3125443997 4.1115551781 
Si 8.0624333785 2.8049996298 5.4429605879 
Si 1.4214185800 4.2841180348 4.0446455428 
Si -0.0206087789 5.6818746905 5.3943428148 
Si 1.4029959012 7.0401850396 6.6727561398 
Si 6.6302681114 4.2611563042 4.0333509178 
Si 3.9570381248 6.9858858205 4.0346415080 
Si 4.1029020909 4.2271117903 6.7074020840 
Si 5.4389302296 5.5977591840 5.4224005248 
Si 6.7113957375 7.1032729842 6.7339664552 
Si 9.3893886919 7.0017090499 3.9527730354 
Si 9.3156042049 4.1666929986 6.6759489339 
Si 1.2641908035 9.8812337712 4.1306091311 
Si 2.7797827167 8.3489315523 5.4569948974 
Si 6.6667347396 9.7222398534 3.9466819530 
Si 3.9941659148 9.8571485570 6.7224451792 
Si 8.0929153597 8.5045947543 5.4475657843 
Si 9.4692456692 9.8995280872 6.7165209168 
Si 0.0824137124 2.7563416652 8.1663781735 
Si 2.5959345482 0.0948385276 8.0499100335 
Si 3.9352328903 1.3714630144 9.3516684751 
Si 5.3067837469 2.8041527828 8.0636826649 
Si 8.0589815588 0.0274931342 8.0796109824 
Si 9.3108973648 1.4786462455 9.3476133543 
Si 1.2800524720 4.2883758958 9.4669130227 
Si 2.6317020472 5.6910578679 8.0590163446 
Si 6.6396253654 4.1853505807 9.5233343048 
Si 4.0885073657 6.9659643852 9.4207544525 
Si 8.1507269311 5.7012542710 8.0013939970 
Si 9.3916417136 7.0384153198 9.3972781706 
Si 0.0097468345 8.4398713254 8.0352631409 
Si 1.2995523445 9.7102713408 9.4649192527 
Si 5.4096750178 8.5105485581 8.1544849678 
Si 6.7028868271 9.7660939903 9.4437150442 

