&CONTROL
   calculation      = 'scf'
   tstress          = .true.
   tprnfor          = .true.
   outdir           = './'
   disk_io          = 'none'
   pseudo_dir       = '/home/ppiaggi/pseudos'
/
&SYSTEM
   ecutwfc          = 30
   input_dft        = 'PBE'
   ntyp             = 1
   nat              = 64
   ibrav            = 0
/
&ELECTRONS
   electron_maxstep = 1000
   mixing_beta      = 0.5
/
&IONS
/
&CELL
/

ATOMIC_SPECIES
Si 28.085 Si_ONCV_PBE_sr.upf

K_POINTS gamma

CELL_PARAMETERS angstrom
10.81848241102400 0.00000000000000 0.00000000000000
0.00000000000000 11.11136726432930 0.00000000000000
0.00000000000000 0.00000000000000 10.89932328861647

ATOMIC_POSITIONS angstrom
Si 0.0517869444 -0.0525397246 0.0705012850 
Si 0.0409434621 2.7381512112 2.7774506700 
Si 2.6079070008 -0.0205197664 2.7192364453 
Si 2.7539133077 2.7057769190 0.0900377095 
Si 1.3031069817 1.3633581156 1.3045693484 
Si 5.2763829545 0.0526131780 -0.0180612827 
Si 5.3218449105 2.8272020441 2.7221069720 
Si 6.6888380490 1.4733096441 1.3438275015 
Si 8.0133140754 0.0684910599 2.7560171607 
Si 8.0323464267 2.7739262111 -0.0017563595 
Si -0.0275972725 5.5028651860 -0.0741229121 
Si 2.7415773770 5.4672169326 2.7008753193 
Si 1.3357055497 6.9167735848 1.4532368964 
Si 4.0057107055 4.2275706596 1.3785752216 
Si 5.4186659573 5.5086820157 0.0932017685 
Si 6.6920791547 6.8209516086 1.4798434848 
Si 9.4820923692 4.1267898637 1.4582839092 
Si 8.0489856372 5.5191582475 2.8292303207 
Si 0.0807781719 8.3416886159 2.8061551444 
Si 2.7175168082 8.2076703217 0.0784765697 
Si 3.9904431063 9.6560477164 1.4656918524 
Si 5.4417990520 8.3032233211 2.8826127984 
Si 7.9968253422 8.2880630655 0.0016940323 
Si 9.3837902265 9.6284336809 1.3057675458 
Si 0.0074285370 -0.0321155128 5.5764647368 
Si 2.6971034014 2.7026069828 5.6221057147 
Si 1.4314424382 1.3791945441 6.9809357567 
Si 4.0229306481 1.3988664519 4.0992050106 
Si 5.3770498449 -0.0473704453 5.4964860353 
Si 6.6586308514 1.3448033784 6.9499543622 
Si 9.3591585790 1.2956709798 4.1413138463 
Si 8.0212570235 2.7842875092 5.5051665105 
Si 1.4011028180 4.2361009519 4.0906652845 
Si -0.0741270856 5.5211189554 5.5450167783 
Si 1.4198667014 6.9688615963 7.0728922303 
Si 6.6947357667 4.1603295071 4.1398743045 
Si 4.0637221092 6.9531776522 4.1748303952 
Si 4.0128883012 4.1597459549 7.0379563335 
Si 5.3591261315 5.4277715621 5.6408224738 
Si 6.7060360000 6.8577868427 6.9744028233 
Si 9.4718942889 6.9648733647 4.2582457921 
Si 9.3454709374 4.1129141592 7.0827600757 
Si 1.3467533902 9.7745586839 4.1996248252 
Si 2.6126076132 8.2268683117 5.5774448534 
Si 6.6785901225 9.6280138087 4.1814031266 
Si 3.9723224265 9.6188179436 7.0440265800 
Si 7.9895059534 8.2715160023 5.6555383541 
Si 9.4471510200 9.6773944992 7.0539215130 
Si -0.0466577725 2.8263683108 8.4135805888 
Si 2.6034244443 -0.0495081157 8.3033416865 
Si 4.0800286153 1.4107921115 9.7874574279 
Si 5.4065285473 2.7941185297 8.3069031240 
Si 8.0276373258 0.0266453458 8.2832867146 
Si 9.4244875503 1.3380980297 9.8063145970 
Si 1.3420953835 4.1822282542 9.6902883061 
Si 2.6472032065 5.5907850044 8.4437010739 
Si 6.7906485516 4.0831234972 9.7191573545 
Si 4.1048366858 6.8131919538 9.8541035695 
Si 7.9984645264 5.5648460057 8.4748944415 
Si 9.4521054046 6.9606263040 9.6784670423 
Si 0.0650296862 8.2542506145 8.3220352600 
Si 1.3705120854 9.6593009063 9.7406922430 
Si 5.3424764085 8.2276409731 8.4357919673 
Si 6.7427127470 9.7135507101 9.7163353459 

