&CONTROL
   calculation      = 'scf'
   tstress          = .true.
   tprnfor          = .true.
   outdir           = './'
   disk_io          = 'none'
   pseudo_dir       = '/home/ppiaggi/pseudos'
/
&SYSTEM
   ecutwfc          = 30
   input_dft        = 'PBE'
   ntyp             = 1
   nat              = 64
   ibrav            = 0
/
&ELECTRONS
   electron_maxstep = 1000
   mixing_beta      = 0.5
/
&IONS
/
&CELL
/

ATOMIC_SPECIES
Si 28.085 Si_ONCV_PBE_sr.upf

K_POINTS gamma

CELL_PARAMETERS angstrom
11.27970243829951 0.00000000000000 0.00000000000000
0.00000000000000 11.29079519523509 0.00000000000000
0.00000000000000 0.00000000000000 10.97423899420713

ATOMIC_POSITIONS angstrom
Si -0.0492381259 0.0764426496 -0.0501620690 
Si 0.0449676385 2.8112873177 2.7648189361 
Si 2.6585872706 -0.0806224015 2.6812661006 
Si 2.7876462103 2.7599024575 0.0845148740 
Si 1.3038638407 1.3415467669 1.3267969255 
Si 5.5310891523 0.0209397618 0.0717277999 
Si 5.4236595969 2.9143670223 2.6634502561 
Si 6.8691456745 1.3405680507 1.4171008238 
Si 8.2806350289 -0.0265992182 2.7240911535 
Si 8.2597532242 2.9436673060 0.0544412234 
Si 0.0706879966 5.5977748031 -0.0205436593 
Si 2.7015402837 5.7289303838 2.6720240468 
Si 1.4002106919 7.2039652803 1.3663702551 
Si 4.1645946785 4.2441161987 1.3390859857 
Si 5.5425201384 5.5991178156 -0.0667549481 
Si 6.8685788866 7.2101593674 1.3739315944 
Si 9.7082544276 4.2302279842 1.2750151232 
Si 8.2946560810 5.6948663106 2.6915705107 
Si -0.0915922648 8.6066387314 2.7475461374 
Si 2.8196279859 8.5740536752 -0.0489901889 
Si 4.1847938098 9.9111875131 1.4317047791 
Si 5.4145902512 8.4716961200 2.7096925614 
Si 8.2891820000 8.5169112529 0.0183276356 
Si 9.6750696045 9.8809470873 1.2869005346 
Si 0.0821401599 -0.0781131289 5.3847744417 
Si 2.6589531305 2.9325085029 5.4570345369 
Si 1.2828358821 1.3250431419 6.7173497459 
Si 4.1389114855 1.3767152732 3.9973284704 
Si 5.4990386451 0.0308493374 5.3092836302 
Si 6.9284490973 1.3640010695 6.7966337305 
Si 9.6659581175 1.3648506165 3.9442423831 
Si 8.3280926969 2.8702930004 5.2781099424 
Si 1.3110623666 4.2586084192 4.1129615140 
Si -0.0498034421 5.7860753916 5.3941779705 
Si 1.3615022991 7.1224003411 6.6260605051 
Si 6.8788378719 4.2700338762 4.0786853493 
Si 4.1544183247 7.0587427855 3.9491187495 
Si 4.0689365453 4.2372684067 6.6235745981 
Si 5.5747333342 5.7793997817 5.4121586197 
Si 6.8425785707 7.1892369269 6.6826646487 
Si 9.6815391370 7.1688780491 4.0023358484 
Si 9.5733135542 4.2502786168 6.7492621350 
Si 1.3852672269 9.9264619143 4.1005674171 
Si 2.7606219273 8.4537100016 5.4155939665 
Si 6.8340298919 10.0598926449 3.9714903123 
Si 4.1345696351 9.8987516266 6.6495299780 
Si 8.2794886393 8.5605104588 5.3208824579 
Si 9.5327262004 9.9340066198 6.6862263319 
Si -0.0012960282 2.8614650000 8.0576691492 
Si 2.6927330773 -0.0769212517 8.0100377634 
Si 4.1008807405 1.4138590810 9.4371824073 
Si 5.4149826114 2.9018233788 8.0735686071 
Si 8.3214523902 0.0010252661 7.9651863369 
Si 9.7086149558 1.4126645949 9.4338564806 
Si 1.4567545386 4.2293394190 9.4408003661 
Si 2.7635142053 5.7726438955 8.0469925794 
Si 6.9310733745 4.1863201278 9.3265175873 
Si 4.1559515442 7.1527532726 9.3677493999 
Si 8.2542794254 5.7036067302 8.0658704831 
Si 9.6332357616 7.0340180870 9.3487452434 
Si 0.0250464778 8.5451381508 8.0876087845 
Si 1.2773333973 10.0556385008 9.3040690576 
Si 5.4558519749 8.5013766760 7.9629810436 
Si 6.8138976296 10.0415419876 9.2941990183 

