&CONTROL
   calculation      = 'scf'
   tstress          = .true.
   tprnfor          = .true.
   outdir           = './'
   disk_io          = 'none'
   pseudo_dir       = '/home/ppiaggi/pseudos'
/
&SYSTEM
   ecutwfc          = 30
   input_dft        = 'PBE'
   ntyp             = 1
   nat              = 64
   ibrav            = 0
/
&ELECTRONS
   electron_maxstep = 1000
   mixing_beta      = 0.5
/
&IONS
/
&CELL
/

ATOMIC_SPECIES
Si 28.085 Si_ONCV_PBE_sr.upf

K_POINTS gamma

CELL_PARAMETERS angstrom
11.25512082316138 0.00000000000000 0.00000000000000
0.00000000000000 10.87688627641767 0.00000000000000
0.00000000000000 0.00000000000000 10.94327389481768

ATOMIC_POSITIONS angstrom
Si -0.0559972775 -0.0034289330 -0.0335887837 
Si 0.0198710689 2.7274445123 2.8482376646 
Si 2.7477213494 0.0488246475 2.7657804756 
Si 2.8540742740 2.5813357348 -0.0928135582 
Si 1.3560259296 1.3136097821 1.4255288599 
Si 5.5122510906 -0.0642570294 -0.0459279788 
Si 5.5676306963 2.6837546600 2.8329658602 
Si 6.9663699147 1.2530643362 1.3272060987 
Si 8.2035243392 0.0726263469 2.7465748348 
Si 8.2577438219 2.5879136608 -0.0693897739 
Si 0.0882956580 5.3595824228 -0.0533185298 
Si 2.8195484285 5.3891831673 2.8720247659 
Si 1.2808468543 6.6387910831 1.3658997025 
Si 4.1160379794 4.0601752137 1.3159352505 
Si 5.5348652154 5.3216597292 -0.0485237838 
Si 6.9786006964 6.6834022426 1.4877488736 
Si 9.6397928890 4.0594608663 1.3669035167 
Si 8.2285863857 5.3931760805 2.8431439433 
Si 0.0281350746 7.9320951740 2.7717836279 
Si 2.7361771866 8.0279123801 -0.0480117293 
Si 4.1833244913 9.2873063769 1.3921404622 
Si 5.4493827932 7.9261272627 2.7160733947 
Si 8.2616496785 7.9552727292 0.0633024066 
Si 9.5848692905 9.3863874473 1.3553172173 
Si -0.0016743231 0.0043801985 5.6588556482 
Si 2.8320566715 2.6552746318 5.5250046636 
Si 1.3799099876 1.3460450439 6.9151036483 
Si 4.1753793060 1.4170833492 4.1085059898 
Si 5.5942107295 0.0807788120 5.5450649419 
Si 6.8231342869 1.3827292160 6.9310102196 
Si 9.7092176860 1.2621418768 4.2273503205 
Si 8.1964771197 2.7090414864 5.6015101391 
Si 1.2808071796 4.0669800492 4.1648363251 
Si -0.0353622220 5.2380520171 5.5342211914 
Si 1.3058598735 6.7024727895 6.9284307960 
Si 6.8319337742 3.9224026257 4.1786994143 
Si 4.1210866030 6.7118859460 4.2076323923 
Si 4.1081715258 3.9475477100 6.9386714522 
Si 5.5874447827 5.3314335692 5.5975451456 
Si 6.9045347170 6.7084230392 7.0172692614 
Si 9.6089139494 6.6939204600 4.1450355893 
Si 9.6074623596 3.9147665250 6.9764550698 
Si 1.2851884102 9.2665747833 4.2467457803 
Si 2.7111825865 7.8948950197 5.6263138017 
Si 6.8973986840 9.3539892830 4.1060791882 
Si 4.1368149292 9.3789631414 7.0576768090 
Si 8.2783844437 8.0535010081 5.5293038313 
Si 9.6006064232 9.2617140087 6.9226879498 
Si 0.0426787053 2.7496573273 8.3536786031 
Si 2.7855736822 0.0434939493 8.4339840541 
Si 4.1187798146 1.2411653579 9.7298264801 
Si 5.4497072319 2.5808178343 8.3839476659 
Si 8.2229648528 0.0379510141 8.3371603767 
Si 9.6784421042 1.3226549072 9.7690513369 
Si 1.3910568565 3.9256302672 9.7249823939 
Si 2.6551388854 5.3852885811 8.4527292116 
Si 6.8444463024 4.0122013602 9.8093742996 
Si 4.1892881516 6.6578342608 9.7068360838 
Si 8.2142467432 5.3818403656 8.3593319024 
Si 9.5506886074 6.6813634742 9.7767098760 
Si -0.0167988419 7.9878783923 8.4333591573 
Si 1.4474760308 9.2776781755 9.7738237428 
Si 5.4616839368 7.9520166074 8.3289099907 
Si 6.8076054157 9.3531385167 9.7237709786 

