&CONTROL
   calculation      = 'scf'
   tstress          = .true.
   tprnfor          = .true.
   outdir           = './'
   disk_io          = 'none'
   pseudo_dir       = '/home/ppiaggi/pseudos'
/
&SYSTEM
   ecutwfc          = 30
   input_dft        = 'PBE'
   ntyp             = 1
   nat              = 64
   ibrav            = 0
/
&ELECTRONS
   electron_maxstep = 1000
   mixing_beta      = 0.5
/
&IONS
/
&CELL
/

ATOMIC_SPECIES
Si 28.085 Si_ONCV_PBE_sr.upf

K_POINTS gamma

CELL_PARAMETERS angstrom
11.21429948250412 0.00000000000000 0.00000000000000
0.00000000000000 11.23217900166933 0.00000000000000
0.00000000000000 0.00000000000000 11.26128276525080

ATOMIC_POSITIONS angstrom
Si 0.0880741109 0.0034197955 -0.0778837020 
Si 0.0258778284 2.6842583554 2.8034042150 
Si 2.9256383638 0.0144859134 2.8666771942 
Si 2.8838980533 2.7439296525 -0.0021813150 
Si 1.5146268213 1.3295676062 1.4079836901 
Si 5.6665519922 0.0169101302 -0.0842429169 
Si 5.6941189654 2.8629463686 2.8170017006 
Si 7.1616413529 1.4598668740 1.4085325889 
Si 8.4377241799 -0.0044380550 2.8347313800 
Si 8.4203232861 2.7947621142 0.0958843136 
Si 0.0822664604 5.5972770086 -0.0525097459 
Si 2.9168298836 5.5412134850 2.8231598969 
Si 1.5147983573 6.9238606432 1.4203728544 
Si 4.1633469087 4.0760541196 1.3562511582 
Si 5.6789387128 5.6302643609 0.0682473175 
Si 7.0220272564 6.8868043292 1.3276274034 
Si 9.8449130750 4.0973309605 1.3352920302 
Si 8.4699617315 5.5794721232 2.7845874321 
Si -0.0486635272 8.3543745961 2.7146791335 
Si 2.7664673142 8.2461241947 -0.0066708262 
Si 4.1680884370 9.6873506056 1.3801481904 
Si 5.6343650692 8.2688257787 2.7875302243 
Si 8.4001827143 8.3779762761 -0.0858771246 
Si 9.9716759109 9.6274192203 1.3112079904 
Si -0.0756862191 0.0274273384 5.5284256219 
Si 2.8815665878 2.8359270157 5.5356740832 
Si 1.4672351402 1.3207891759 6.9517130161 
Si 4.2261668819 1.3199578673 4.2842344535 
Si 5.7409400061 0.0009717546 5.5717052739 
Si 7.0364267740 1.3201390963 6.9163764939 
Si 9.8159629842 1.3090506156 4.2615502975 
Si 8.5700178258 2.7221150567 5.6749622387 
Si 1.4058901019 4.1025184932 4.1876864363 
Si -0.0805964841 5.4553144904 5.4961675706 
Si 1.4143208314 6.9280331833 6.9887128994 
Si 7.1026064476 4.1339165640 4.1414841346 
Si 4.3261663358 6.9294465016 4.0938015416 
Si 4.3066843724 4.2478570745 6.9254373467 
Si 5.6517039397 5.6333504677 5.5185616145 
Si 7.0846041913 6.8157299567 6.8978639189 
Si 9.9894904278 6.8977961253 4.1809179721 
Si 9.9348534652 4.2034433472 7.0015671871 
Si 1.4142341145 9.6774140753 4.1206670351 
Si 2.8827489941 8.3693569064 5.6236054846 
Si 7.1131293322 9.7212311760 4.2308468683 
Si 4.1830375527 9.6403840303 7.0031544932 
Si 8.4231248505 8.2797735743 5.5541252867 
Si 9.8233475918 9.7072001431 7.0610209418 
Si 0.0985660867 2.8552363388 8.4705186660 
Si 2.8975921304 -0.0587657754 8.3218016219 
Si 4.1925692753 1.4525136377 9.7258590358 
Si 5.6701616302 2.7150939486 8.3888438264 
Si 8.3980656758 0.0216248944 8.4296982054 
Si 9.8208900426 1.3188355760 9.8532728429 
Si 1.3391209779 4.2330930105 9.7494562491 
Si 2.9252401261 5.5070591560 8.2861193016 
Si 7.0172746129 4.1351437888 9.8708790562 
Si 4.1858342969 6.9846995564 9.8698298185 
Si 8.4429949936 5.4846261291 8.4296218923 
Si 9.8394570814 6.9784581049 9.8448013485 
Si -0.0987366362 8.2082287137 8.2887270500 
Si 1.3811250862 9.7717737560 9.7940822085 
Si 5.6056725234 8.3379239744 8.4740850805 
Si 7.1235640106 9.7718770104 9.7119184116 

