&CONTROL
   calculation      = 'scf'
   tstress          = .true.
   tprnfor          = .true.
   outdir           = './'
   disk_io          = 'none'
   pseudo_dir       = '/home/ppiaggi/pseudos'
/
&SYSTEM
   ecutwfc          = 30
   input_dft        = 'PBE'
   ntyp             = 1
   nat              = 64
   ibrav            = 0
/
&ELECTRONS
   electron_maxstep = 1000
   mixing_beta      = 0.5
/
&IONS
/
&CELL
/

ATOMIC_SPECIES
Si 28.085 Si_ONCV_PBE_sr.upf

K_POINTS gamma

CELL_PARAMETERS angstrom
10.99629685089571 0.00000000000000 0.00000000000000
0.00000000000000 11.17305263145634 0.00000000000000
0.00000000000000 0.00000000000000 11.28723979265310

ATOMIC_POSITIONS angstrom
Si 0.0834079134 -0.0372606390 0.0368643962 
Si -0.0745475796 2.7641127629 2.8705110394 
Si 2.6244545985 0.0987666651 2.9382606058 
Si 2.6648345915 2.7272142856 -0.0990342447 
Si 1.2614611913 1.2971723031 1.4716770883 
Si 5.4610180592 -0.0570636156 0.0047226288 
Si 5.3560642458 2.8086958805 2.8421272535 
Si 6.6885622062 1.4314568315 1.4344342124 
Si 8.1229509643 -0.0826378379 2.7664658865 
Si 8.1852797381 2.8075258039 -0.0241662177 
Si 0.0637552669 5.3644175556 -0.0459446263 
Si 2.6276525826 5.5084579489 2.9369292577 
Si 1.4145648320 6.7772813835 1.4036962457 
Si 3.9606641823 4.1143093476 1.5000042735 
Si 5.4541714168 5.3663925056 0.0837838845 
Si 6.6852216022 6.8239540981 1.4199889363 
Si 9.5025879239 4.0289657349 1.5032942659 
Si 8.0029324121 5.4143061242 2.7886706481 
Si -0.0920076012 8.0914403311 2.8757466379 
Si 2.7362425262 8.2156950821 0.0516543681 
Si 4.0636320203 9.4160197966 1.3369690314 
Si 5.4057066086 8.1708459594 2.8136307900 
Si 8.1318311819 8.1500612500 0.0227664081 
Si 9.3626082517 9.5085068941 1.4428068043 
Si -0.0323979894 -0.0964287904 5.6654439976 
Si 2.6744064941 2.7839456177 5.6153081493 
Si 1.4074915756 1.2746338542 7.1083707762 
Si 4.0307184321 1.3597663773 4.2558743851 
Si 5.3478526444 -0.0600339520 5.6764580410 
Si 6.7167894650 1.3291717968 7.0358293065 
Si 9.3941490603 1.4319144569 4.1937469327 
Si 8.1450483186 2.7652414653 5.7030965972 
Si 1.2552622044 4.0452355401 4.2531663505 
Si 0.0598243918 5.3904442791 5.7482163262 
Si 1.2937831867 6.8588219967 7.1824056642 
Si 6.7458339114 4.1135196056 4.2990285347 
Si 3.9714371956 6.8782495017 4.3530406099 
Si 3.9517972487 4.1493234656 7.1711141976 
Si 5.4464710379 5.4734803957 5.6863336542 
Si 6.6651837223 6.8059993349 7.1592021430 
Si 9.4889660817 6.7960842988 4.1587070832 
Si 9.3991993867 4.1353245297 6.9943576664 
Si 1.2938092229 9.4191208881 4.3527542241 
Si 2.6855951250 8.1883070562 5.7087973891 
Si 6.7834692047 9.5144842241 4.3360825207 
Si 4.1003668379 9.4316688804 7.0231447766 
Si 8.0460186496 8.1394942461 5.7696530829 
Si 9.3942879453 9.5695354788 6.9927811255 
Si 0.0064574834 2.7597038812 8.5628851184 
Si 2.7204051763 -0.0862615035 8.5068363174 
Si 4.0383662454 1.3392313681 10.0228448724 
Si 5.4521695703 2.6499752178 8.5708112110 
Si 8.1152577131 -0.0919162783 8.5318344723 
Si 9.4234994233 1.3408157346 9.9110566934 
Si 1.3495278234 4.1254828645 9.8616179324 
Si 2.7622496976 5.4847692945 8.4103110425 
Si 6.7559142277 3.9943203998 9.9105299791 
Si 4.0290186976 6.7052517216 10.0230956269 
Si 8.1450986625 5.4804828442 8.5934040683 
Si 9.4400209604 6.8583151778 9.9518929416 
Si 0.0443276466 8.1342809627 8.4231517964 
Si 1.3068212704 9.4121650779 9.9265980542 
Si 5.4478723102 8.1596619295 8.5813843761 
Si 6.7505466976 9.5295110483 9.9183110956 

