&CONTROL
   calculation      = 'scf'
   tstress          = .true.
   tprnfor          = .true.
   outdir           = './'
   disk_io          = 'none'
   pseudo_dir       = '/home/ppiaggi/pseudos'
/
&SYSTEM
   ecutwfc          = 30
   input_dft        = 'PBE'
   ntyp             = 1
   nat              = 64
   ibrav            = 0
/
&ELECTRONS
   electron_maxstep = 1000
   mixing_beta      = 0.5
/
&IONS
/
&CELL
/

ATOMIC_SPECIES
Si 28.085 Si_ONCV_PBE_sr.upf

K_POINTS gamma

CELL_PARAMETERS angstrom
11.29645202026904 0.00000000000000 0.00000000000000
0.00000000000000 11.28434165277936 0.00000000000000
0.00000000000000 0.00000000000000 11.26071899490725

ATOMIC_POSITIONS angstrom
Si 0.0600891652 -0.0215903229 0.0423720239 
Si 0.1002207207 2.7380223565 2.8197273954 
Si 2.7731999590 0.0411820316 2.6745598985 
Si 2.8206979271 2.7647031971 0.0725596111 
Si 1.4998504489 1.4078286805 1.3969315426 
Si 5.6854065061 0.0495845380 -0.0898798674 
Si 5.7034355431 2.6780039433 2.8117436289 
Si 7.1965175865 1.2782327604 1.4610840642 
Si 8.4893692100 -0.0541827402 2.8012801709 
Si 8.4305635479 2.6773197563 0.0037140759 
Si -0.0286070369 5.4599111303 0.0800389985 
Si 2.8577160389 5.4214234980 2.8611027150 
Si 1.3944819360 6.8494279406 1.3682875390 
Si 4.3697452208 4.1673387471 1.4776245346 
Si 5.6908704438 5.5254705912 0.0404959810 
Si 7.0184435730 6.9514045069 1.3610612695 
Si 9.9281023153 4.1153374516 1.2900795518 
Si 8.5308121579 5.4548761555 2.7968407926 
Si 0.0000531075 8.2482876282 2.7236001471 
Si 2.8056084366 8.1854496132 0.0829608220 
Si 4.3050116805 9.6630462268 1.3544066822 
Si 5.6974980078 8.2439246116 2.8376608259 
Si 8.4771018365 8.3213697287 0.0626967812 
Si 9.8790943609 9.5600783529 1.3338989558 
Si -0.0403723288 -0.0874333954 5.4959085971 
Si 2.7553096231 2.6678180362 5.4486124091 
Si 1.4634965172 1.4393585900 6.8858478519 
Si 4.2771227697 1.3450091597 4.1556321441 
Si 5.6836611428 -0.0010751471 5.5295023628 
Si 7.0753709527 1.2750342634 6.9792741663 
Si 10.0587314730 1.4072074553 4.1763850307 
Si 8.4656658330 2.7793439397 5.5665124328 
Si 1.4560544527 4.1527429192 4.2210668074 
Si -0.0832450392 5.5390207647 5.5247668479 
Si 1.4661360465 6.8014588952 6.8182552592 
Si 7.1652367075 4.1513036054 4.1981127717 
Si 4.3319172762 6.8117535949 4.1521388733 
Si 4.3000034872 4.0562765159 6.8375086138 
Si 5.6060708857 5.4070514662 5.5147756141 
Si 7.1611142500 6.8006639660 6.9720152643 
Si 9.9036939367 6.8158708768 4.1112668518 
Si 9.8725224549 4.1060465193 6.9512597125 
Si 1.4343617363 9.6037777791 4.2421480277 
Si 2.8762502610 8.2595366701 5.5271764258 
Si 7.1654608488 9.6747434883 4.2176605277 
Si 4.1934655512 9.5846124135 6.9162660116 
Si 8.5135828207 8.3333547833 5.4238958300 
Si 9.9272025103 9.7002541857 6.8333020109 
Si -0.0700933201 2.7602107527 8.2522572328 
Si 2.8708149606 0.0010247754 8.3170929727 
Si 4.3481218117 1.2817382118 9.7528913479 
Si 5.6938315211 2.6709163427 8.3306149241 
Si 8.5443169634 0.0949535326 8.2993052578 
Si 10.0089801174 1.4203860708 9.6126567273 
Si 1.4114993182 4.0293666938 9.6707005828 
Si 2.8232655590 5.4769752143 8.2618605930 
Si 7.0649158479 4.0374548455 9.6268355069 
Si 4.1865555878 6.9386157305 9.7150905207 
Si 8.5966354563 5.4290038324 8.2928305358 
Si 9.8539766709 6.9214518635 9.6800003718 
Si -0.0535973426 8.2666813373 8.2305249824 
Si 1.4735224467 9.6555637919 9.7556475607 
Si 5.7494277644 8.2453134743 8.2518786569 
Si 7.1635828140 9.5240668802 9.7463127873 

