&CONTROL
   calculation      = 'scf'
   tstress          = .true.
   tprnfor          = .true.
   outdir           = './'
   disk_io          = 'none'
   pseudo_dir       = '/home/ppiaggi/pseudos'
/
&SYSTEM
   ecutwfc          = 30
   input_dft        = 'PBE'
   ntyp             = 1
   nat              = 64
   ibrav            = 0
/
&ELECTRONS
   electron_maxstep = 1000
   mixing_beta      = 0.5
/
&IONS
/
&CELL
/

ATOMIC_SPECIES
Si 28.085 Si_ONCV_PBE_sr.upf

K_POINTS gamma

CELL_PARAMETERS angstrom
10.88682784069554 0.00000000000000 0.00000000000000
0.00000000000000 10.93411277404567 0.00000000000000
0.00000000000000 0.00000000000000 11.06383568596009

ATOMIC_POSITIONS angstrom
Si 0.0045579027 -0.0603072387 -0.0262463150 
Si 0.0563555938 2.6014154311 2.8185216771 
Si 2.7896058635 0.0832577118 2.8584734662 
Si 2.8189764672 2.7609907880 0.0065993837 
Si 1.4655097371 1.4245790704 1.4278973490 
Si 5.5617065993 0.0563810278 -0.0165168084 
Si 5.4837215281 2.6722063977 2.6923089216 
Si 6.8329912545 1.2979765957 1.3070015274 
Si 8.3403951532 -0.0761111561 2.7152591475 
Si 8.3956331311 2.7159848542 -0.0150584249 
Si 0.0133587125 5.3473288224 0.0750523727 
Si 2.8048286933 5.4052218950 2.8178003559 
Si 1.4577997891 6.6982557368 1.3832986000 
Si 4.1749499877 3.9752306778 1.3340608826 
Si 5.5194367312 5.4265533424 0.0949912112 
Si 6.8392062643 6.7304319998 1.3857967553 
Si 9.7942714054 3.9290257604 1.3043070475 
Si 8.2681016333 5.3140866006 2.7010387974 
Si 0.0361636263 7.9483070778 2.7678107922 
Si 2.6803167724 8.0863672682 -0.0326028669 
Si 4.2479739566 9.3040611407 1.2897032360 
Si 5.5079534020 7.9823721809 2.7098635639 
Si 8.2305579399 8.0131628682 0.0334226906 
Si 9.7630839136 9.4534449824 1.3623688327 
Si 0.0887161494 -0.0190314117 5.4606099992 
Si 2.7494572190 2.6877326783 5.4613096829 
Si 1.3906836230 1.3660069710 6.9215216852 
Si 4.0646204884 1.3800253012 4.1504579227 
Si 5.4932132935 0.0955148505 5.5439934014 
Si 6.9063133597 1.3388491917 6.9011306308 
Si 9.6251810999 1.2816450937 4.1771332627 
Si 8.3708854391 2.6288022169 5.6100110861 
Si 1.4416212782 4.1023357680 4.1237035390 
Si 0.0822188289 5.4509845302 5.5457754383 
Si 1.3039920173 6.7218154152 6.9344113577 
Si 7.0194997394 3.9946075382 4.2422092347 
Si 4.0855403105 6.7423453210 4.1119258611 
Si 4.1022487215 4.0850615213 6.8687035127 
Si 5.4497849875 5.4324496585 5.5984533577 
Si 6.8509090138 6.6219103686 6.9638188020 
Si 9.6485670822 6.7138696418 4.1226483633 
Si 9.7377214455 4.0412151452 6.9403845946 
Si 1.3930115890 9.3633959635 4.1741651349 
Si 2.8665698711 8.0746069238 5.5377953188 
Si 6.8956077409 9.4448997544 4.1145322919 
Si 4.2297283437 9.3982614877 6.9974833989 
Si 8.3223328404 8.1215329795 5.6025386333 
Si 9.6412529982 9.2994243864 6.9355831213 
Si 0.0174901690 2.7467102333 8.2250405139 
Si 2.6741483221 0.0218942287 8.1986365367 
Si 4.1795017058 1.3890033445 9.7030648436 
Si 5.5370395809 2.7308366477 8.3761312029 
Si 8.2422639189 0.0920236430 8.3821341733 
Si 9.6356905859 1.4308205865 9.5894307126 
Si 1.3800945496 4.0708923614 9.6367942931 
Si 2.7392967696 5.2703065476 8.2501902645 
Si 6.9517768368 4.1072375495 9.6469395249 
Si 4.1303111758 6.6496912225 9.6231022728 
Si 8.3371236595 5.3855617606 8.3187302496 
Si 9.6284542371 6.7103196415 9.6038844159 
Si -0.0883738401 7.9559933631 8.2930504954 
Si 1.3741610886 9.4149082482 9.6184544568 
Si 5.4849232310 8.0552828011 8.2252389796 
Si 6.9913174227 9.4156186151 9.5733381774 

