&CONTROL
   calculation      = 'scf'
   tstress          = .true.
   tprnfor          = .true.
   outdir           = './'
   disk_io          = 'none'
   pseudo_dir       = '/home/ppiaggi/pseudos'
/
&SYSTEM
   ecutwfc          = 30
   input_dft        = 'PBE'
   ntyp             = 1
   nat              = 64
   ibrav            = 0
/
&ELECTRONS
   electron_maxstep = 1000
   mixing_beta      = 0.5
/
&IONS
/
&CELL
/

ATOMIC_SPECIES
Si 28.085 Si_ONCV_PBE_sr.upf

K_POINTS gamma

CELL_PARAMETERS angstrom
11.21992103008582 0.00000000000000 0.00000000000000
0.00000000000000 11.22116217981894 0.00000000000000
0.00000000000000 0.00000000000000 11.08790862529592

ATOMIC_POSITIONS angstrom
Si -0.0431224110 0.0104704620 -0.0558846398 
Si 0.0083120920 2.9449231429 2.8329163659 
Si 2.8296941687 0.0931855317 2.8859285299 
Si 2.8344276474 2.7970504787 -0.0238775013 
Si 1.3239038406 1.3731954490 1.3575573174 
Si 5.5092241331 0.0061810118 0.0043967609 
Si 5.6094126563 2.8802907313 2.7380561534 
Si 7.0357467989 1.4059097131 1.4458366424 
Si 8.3274001080 0.0466254881 2.8276410308 
Si 8.3260468717 2.8937962277 0.0874686578 
Si 0.0750133743 5.6931111179 0.0359476400 
Si 2.7957156107 5.8753895407 2.7561840998 
Si 1.3493250512 7.1859978807 1.4904074987 
Si 4.1919224861 4.3442291532 1.3725444743 
Si 5.6014382974 5.7793814472 0.0397238653 
Si 7.0384310015 7.3211243149 1.4145405917 
Si 9.8303119286 4.3875194510 1.4315106048 
Si 8.4035430619 5.8346522817 2.7836350766 
Si -0.0275915017 8.6130709306 2.7918574242 
Si 2.8827736756 8.6483214242 0.0370429617 
Si 4.1826591096 10.1961197540 1.3047938454 
Si 5.5021755797 8.5969199193 2.7390741942 
Si 8.4140991995 8.7289368344 0.0120410543 
Si 9.6917605011 10.0218385269 1.4548642236 
Si -0.0915056127 0.0289313306 5.5708849876 
Si 2.7041913388 2.8764264234 5.5273593544 
Si 1.4205543337 1.3411948061 6.9605014713 
Si 4.1308197638 1.5199552900 4.2196657000 
Si 5.5794337038 -0.0153792461 5.6604401011 
Si 6.9500016998 1.3847962138 6.9554990872 
Si 9.7568049295 1.3798371083 4.1512741708 
Si 8.3497342926 2.8215829846 5.7236201866 
Si 1.4108820809 4.3687029775 4.1333420677 
Si 0.0504197592 5.8243842969 5.6037746755 
Si 1.4039109888 7.2628405662 6.9371691254 
Si 6.9557798882 4.3042327962 4.2445078966 
Si 4.1363840269 7.1436345974 4.2157407531 
Si 4.1282514213 4.3646986372 7.0155047240 
Si 5.4763177383 5.7293391805 5.6032088254 
Si 6.9763243218 7.2691625086 6.9982224923 
Si 9.6902347818 7.2045255314 4.2311778994 
Si 9.7558872576 4.3419707128 7.0193894681 
Si 1.4554415538 10.2174599689 4.2427222828 
Si 2.7606645728 8.6312331944 5.6353001585 
Si 6.8726234266 10.0633598029 4.1578813529 
Si 4.0826854983 10.0495502181 6.9776224942 
Si 8.4259950997 8.7011015870 5.5929972551 
Si 9.7829095341 10.2128231567 7.0113042556 
Si -0.0099207011 2.9116337512 8.3817816733 
Si 2.8273413669 -0.0638057009 8.5184288575 
Si 4.1510113686 1.3445917452 9.8525989877 
Si 5.6190801883 2.9191074082 8.3970036043 
Si 8.4108012477 0.0648534240 8.4830547123 
Si 9.7005560345 1.4497195541 9.7443216766 
Si 1.3346331043 4.2558433430 9.8481528883 
Si 2.8595674944 5.7739268259 8.3918896788 
Si 7.0401943235 4.2673619432 9.8411916994 
Si 4.1989593427 7.2166809670 9.8604009410 
Si 8.4591195378 5.8261514384 8.4809965034 
Si 9.8519488990 7.1370266964 9.7842031453 
Si 0.0820543069 8.6843229448 8.4927220297 
Si 1.4931755840 10.0224352061 9.8340200517 
Si 5.5266133666 8.7284801600 8.4628719883 
Si 6.8998749585 10.1568034341 9.7687367367 

