&CONTROL
   calculation      = 'scf'
   tstress          = .true.
   tprnfor          = .true.
   outdir           = './'
   disk_io          = 'none'
   pseudo_dir       = '/home/ppiaggi/pseudos'
/
&SYSTEM
   ecutwfc          = 30
   occupations      = 'smearing'
   degauss          = 0.01
   smearing         = 'fermi-dirac'
   input_dft        = 'PBE'
   ntyp             = 1
   nat              = 64
   ibrav            = 0
/
&ELECTRONS
   electron_maxstep = 100
   mixing_beta      = 0.5
/
&IONS
/
&CELL
/

ATOMIC_SPECIES
Si 28.085 Si_ONCV_PBE_sr.upf

K_POINTS gamma

CELL_PARAMETERS angstrom
11.43286904997969 0.00000000000000 0.00000000000000
0.00000000000000 11.43286904997969 0.00000000000000
0.00000000000000 0.00000000000000 11.43286904997969

ATOMIC_POSITIONS angstrom
Si 1.2518648624 3.6443184726 10.6579034543 
Si 4.8551622008 6.2333374005 4.8824295935 
Si 8.1575921574 1.2328291354 5.1750881755 
Si 6.5970169650 3.7037236602 1.6893664623 
Si 6.1939168680 0.6598674731 9.5026006039 
Si 2.1951108576 7.0276359777 9.5752221881 
Si 7.4281636792 5.4156014417 5.2481327758 
Si 4.4114525530 9.3197204306 9.3629481085 
Si 5.9427824664 9.8825262753 11.0069832450 
Si 4.4848973038 2.7430768383 3.1208874289 
Si 1.2080426753 1.4835633865 1.0864186711 
Si 2.9609987553 1.8220220419 11.0836863635 
Si 8.5978719445 3.5492198679 4.1848759542 
Si 1.3288538025 4.0694039768 8.6233443768 
Si 4.9717660323 0.6468385755 0.5079086374 
Si 0.6439334835 6.4312746623 7.7968737060 
Si 1.5186279959 2.3278464673 4.7203000775 
Si 5.7686598708 6.5872189962 6.9211731011 
Si 4.2921276987 8.9663533140 3.4863619538 
Si 6.8968782544 9.6805417778 8.0306873110 
Si 7.8565075510 0.6142503256 11.1485335967 
Si 2.1818715952 10.3614034284 0.4932962875 
Si 2.6951731170 1.0778783179 2.8530839043 
Si 2.1011326740 4.2490600810 3.0760362836 
Si 2.2932963370 10.2208020048 4.3483545487 
Si 6.2119922340 3.0310479439 5.0237627207 
Si 9.9465846406 2.6828027527 5.8067770562 
Si 6.1734063009 9.9454299208 2.1543869780 
Si 1.3546349223 5.5583636775 1.0352371462 
Si 6.8980444070 1.3827254815 1.7671900019 
Si 2.0062627266 7.6461427605 5.7123301250 
Si 3.9788327882 3.9323467426 5.5687218569 
Si 4.7018245611 8.6629592680 1.2234999143 
Si 4.1698302985 1.6408682318 8.3688029802 
Si 5.0681679841 4.9021055612 0.7268092080 
Si 4.0051626856 0.3799462506 5.6267779659 
Si 8.2769398774 9.3340572484 9.6020208332 
Si 9.4781456970 7.0161116457 4.2877489099 
Si 6.3710691739 1.5151638366 6.9184635112 
Si 2.7850354677 2.3751671123 6.9433985986 
Si 6.6875309892 7.6846257977 9.1535779776 
Si 8.9660446265 6.9225564783 8.4239437077 
Si 1.8269038770 6.9040695290 3.3183330774 
Si 4.6915006804 6.9696598988 10.5909525731 
Si 3.0217187228 5.4352659764 7.9850587306 
Si 4.6199537859 3.1499497820 10.4937503205 
Si 5.0020517024 3.9637871325 8.0730918223 
Si 0.8527971383 0.2379820290 8.3551064031 
Si 7.2595974579 4.8284321530 8.2787234050 
Si 10.6526100359 7.7986115021 6.4891021140 
Si 9.9260283421 4.9791745314 7.1093809914 
Si 10.7716833671 4.9336945784 4.5940926361 
Si 5.1675081833 6.6171731131 2.3711313095 
Si 8.4675601031 5.2215742210 0.6278508666 
Si 10.3812851876 4.3732782033 10.1648609765 
Si 10.8451166850 3.7132472401 1.5081211893 
Si 10.5895920617 6.0627589943 1.7572205401 
Si 3.2928034808 9.8029992382 6.3311913267 
Si 6.2299647041 0.6424609300 3.6682246018 
Si 0.2861715720 8.6039427980 4.0456007434 
Si 8.7995706203 2.7611064728 11.0440486065 
Si 2.7718648026 10.8370679452 9.7329614824 
Si 10.4324015452 3.0248856275 8.1878435289 
Si 8.1257744828 7.9432144299 5.8366740088 

