&CONTROL
   calculation      = 'scf'
   tstress          = .true.
   tprnfor          = .true.
   outdir           = './'
   disk_io          = 'none'
   pseudo_dir       = '/home/ppiaggi/pseudos'
/
&SYSTEM
   ecutwfc          = 30
   occupations      = 'smearing'
   degauss          = 0.01
   smearing         = 'fermi-dirac'
   input_dft        = 'PBE'
   ntyp             = 1
   nat              = 64
   ibrav            = 0
/
&ELECTRONS
   electron_maxstep = 100
   mixing_beta      = 0.5
/
&IONS
/
&CELL
/

ATOMIC_SPECIES
Si 28.085 Si_ONCV_PBE_sr.upf

K_POINTS gamma

CELL_PARAMETERS angstrom
11.72569326914838 0.00000000000000 0.00000000000000
0.00000000000000 11.72569326914838 0.00000000000000
0.00000000000000 0.00000000000000 11.72569326914838

ATOMIC_POSITIONS angstrom
Si 0.5568672442 3.1822945248 0.8316846625 
Si 5.1417399499 5.6553487665 3.0789090872 
Si 7.3698092821 1.7885317200 4.6994116227 
Si 7.3476477219 5.2460165402 1.0900931456 
Si 7.5447449000 0.6089562914 9.4934026873 
Si 1.0819637225 7.0900459664 9.7048403884 
Si 8.0493366585 6.5900506797 4.9032393488 
Si 5.0425640362 8.7834236856 8.3314333871 
Si 5.1506983796 9.8585876785 11.6249930154 
Si 5.6834904303 3.2419548521 2.5588159623 
Si 1.7691491491 1.7103447973 2.6367097427 
Si 3.0640526339 2.1512191385 0.3145651733 
Si 9.0100813365 3.4756479190 4.3861714527 
Si 1.0472017322 4.2496492060 8.0820630684 
Si 4.5069460934 11.5973321049 1.2230953392 
Si 11.1263110063 6.9180652233 8.1592415815 
Si 1.2175021835 1.8452840755 4.8526664337 
Si 5.5331201398 6.3485717526 6.0697816694 
Si 3.4610728823 8.7339764371 3.3099521474 
Si 6.6650599396 10.3926226528 8.0501340056 
Si 9.9251661649 0.4259229097 9.3223130969 
Si 2.4570955732 10.9449028057 0.3965875703 
Si 3.2924105103 3.4726461415 3.4023271590 
Si 2.1025223344 4.2608706944 5.6419697505 
Si 2.7793058985 10.8557406341 2.8205568874 
Si 6.8335464262 4.2925300663 5.0828886954 
Si 10.7186438284 3.7788626212 7.6477433897 
Si 7.6056598766 1.1810001004 2.1108006738 
Si 0.6701327509 5.1428304394 2.3413629806 
Si 6.8464095117 2.3844549034 0.2550267932 
Si 2.0453713054 7.2302852579 6.6644150265 
Si 4.6024284137 3.8562521968 6.4036825109 
Si 2.4990149266 8.3629285993 11.3364471554 
Si 4.1936472949 1.4840154658 8.9206494739 
Si 5.1529848898 4.7029527821 0.5535840501 
Si 3.2493537646 0.3713503607 5.6983703351 
Si 7.0358146351 11.4017827183 0.5503336879 
Si 10.5905758065 6.7193498994 4.3187018137 
Si 6.0095467831 0.8750650373 6.6854509202 
Si 2.3952308155 2.0390628824 7.0297407259 
Si 5.8444255704 6.4793015068 8.5738855469 
Si 8.6744919951 6.5971212728 8.6205069033 
Si 2.8315907648 6.5300503073 3.9857038505 
Si 4.4664103718 6.8481566400 10.8883380614 
Si 3.2154078826 5.9686006622 9.1680146991 
Si 4.9752116541 2.8685853271 10.7320345701 
Si 6.2445531276 2.6156855746 8.2530823047 
Si 2.7734196005 11.6145219713 8.0500050230 
Si 7.3306806437 4.6363508443 9.0102337705 
Si 11.3928125629 8.3266844814 6.0301722775 
Si 10.0503262149 5.5753560870 6.3291188274 
Si 11.5085803326 3.9378395706 5.0441001021 
Si 4.3257606810 7.4754695042 1.7266200596 
Si 9.0434995623 4.8319940365 11.1219021456 
Si 0.2471975478 5.4615699595 11.2917605383 
Si 10.8944002448 3.0831537882 3.0083321394 
Si 10.4254076911 5.9093624598 1.0575226874 
Si 3.0039232788 9.8371765626 6.2164818179 
Si 4.7101289064 1.5838831954 4.6080098437 
Si 1.3197150517 8.3326294079 4.2893875805 
Si 9.3251741660 2.7888857899 9.4919604271 
Si 3.4409867697 10.4286674339 10.2089513934 
Si 0.1348431275 2.4370915404 10.1280910126 
Si 7.5601172839 8.0073469509 7.0136296234 

