&CONTROL
   calculation      = 'scf'
   tstress          = .true.
   tprnfor          = .true.
   outdir           = './'
   disk_io          = 'none'
   pseudo_dir       = './'
/
&SYSTEM
   ecutwfc          = 30
   input_dft        = 'PBE'
   ntyp             = 1
   nat              = 64
   ibrav            = 0
/
&ELECTRONS
   electron_maxstep = 1000
   mixing_beta      = 0.5
/
&IONS
/
&CELL
/

ATOMIC_SPECIES
Si 28.085 Si_ONCV_PBE-1.0.upf

K_POINTS gamma

CELL_PARAMETERS angstrom
11.02018082244168 0.00000000000000 0.00000000000000
0.00000000000000 11.04149980169654 0.00000000000000
0.00000000000000 0.00000000000000 10.99484907239328

ATOMIC_POSITIONS angstrom
Si 4.1095890697 4.1545160749 1.3703856925 
Si -0.0078148358 2.7752801335 2.7584653293 
Si 4.1122330658 1.3905757712 4.1238345517 
Si 0.0040732500 -0.0021650192 0.0035971917 
Si 1.3618291493 4.1552930559 4.1172688490 
Si 2.7350671466 2.7692278253 0.0091307952 
Si 1.3596368241 1.3861812291 1.3705998331 
Si 2.7445241916 0.0076454647 2.7487412314 
Si 4.1121756208 4.1495966411 6.8815561729 
Si -0.0058003050 2.7622787556 8.2475654244 
Si 4.1041632306 1.3776147950 9.6344451319 
Si 0.0045077719 0.0042722523 5.5023725361 
Si 1.3676622825 4.1454744669 9.6252445756 
Si 2.7449147211 2.7696407102 5.4964740340 
Si 1.3583541891 1.3755266822 6.8738822963 
Si 2.7350024435 0.0088806854 8.2576523079 
Si 4.0989868747 9.6915001419 1.3827747167 
Si -0.0007261912 8.3128539556 2.7451792968 
Si 4.0984683355 6.9249112869 4.1171573993 
Si 0.0046006203 5.5323742439 0.0013820553 
Si 1.3670346889 9.6920145984 4.1303565313 
Si 2.7400548023 8.3119811237 -0.0000444964 
Si 1.3606937762 6.9200933130 1.3825076728 
Si 2.7389658113 5.5395015181 2.7406914615 
Si 4.1055766480 9.6819138173 6.8811143135 
Si 0.0013819679 8.3021133456 8.2491857950 
Si 4.1017943711 6.9177400074 9.6218260867 
Si -0.0047596295 5.5430931673 5.5086317244 
Si 1.3767724673 9.6961708865 9.6240125668 
Si 2.7351342997 8.3148322709 5.4996706136 
Si 1.3672248671 6.9147937122 6.8676618559 
Si 2.7361073856 5.5390312329 8.2530377935 
Si 9.5780936929 4.1563640008 1.3657619139 
Si 5.4753266818 2.7606438625 2.7482790173 
Si 9.5789503604 1.3780953548 4.1333649624 
Si 5.4689706594 0.0023464886 -0.0056516117 
Si 6.8301949332 4.1534742593 4.1192182009 
Si 8.2052904924 2.7696119683 0.0065231004 
Si 6.8436833458 1.3788817128 1.3697493406 
Si 8.1990394435 0.0001307520 2.7588860722 
Si 9.5648249817 4.1589663315 6.8680490390 
Si 5.4767791507 2.7703205607 8.2437719264 
Si 9.5778118805 1.3886678010 9.6366047190 
Si 5.4768330246 0.0046652412 5.4988973774 
Si 6.8307166358 4.1613966019 9.6261488036 
Si 8.2109892155 2.7667211724 5.5039185291 
Si 6.8352836920 1.3770017096 6.8741764596 
Si 8.2104863658 0.0078624253 8.2561463747 
Si 9.5800476025 9.6879755466 1.3800217622 
Si 5.4711170190 8.2992209844 2.7484170743 
Si 9.5739046001 6.9244342444 4.1161618530 
Si 5.4684349426 5.5311358629 -0.0028525841 
Si 6.8348313441 9.6900629484 4.1237952491 
Si 8.2109248740 8.2973564253 0.0019270889 
Si 6.8344201224 6.9283166082 1.3827714558 
Si 8.2024471574 5.5281070716 2.7546611386 
Si 9.5780061285 9.6879608208 6.8824217682 
Si 5.4706033091 8.3144378483 8.2443457817 
Si 9.5654395894 6.9227545631 9.6286842742 
Si 5.4777438178 5.5363234587 5.4988716381 
Si 6.8374548327 9.6936938167 9.6188923253 
Si 8.2058027090 8.3155529839 5.4996382019 
Si 6.8454408635 6.9193152665 6.8819631675 
Si 8.2134347677 5.5283522285 8.2606162696 

