&CONTROL
   calculation      = 'scf'
   tstress          = .true.
   tprnfor          = .true.
   outdir           = './'
   disk_io          = 'none'
   pseudo_dir       = './'
/
&SYSTEM
   ecutwfc          = 30
   input_dft        = 'PBE'
   ntyp             = 1
   nat              = 64
   ibrav            = 0
/
&ELECTRONS
   electron_maxstep = 1000
   mixing_beta      = 0.5
/
&IONS
/
&CELL
/

ATOMIC_SPECIES
Si 28.085 Si_ONCV_PBE-1.0.upf

K_POINTS gamma

CELL_PARAMETERS angstrom
11.01567641153075 0.00000000000000 0.00000000000000
0.00000000000000 10.90380728678480 0.00000000000000
0.00000000000000 0.00000000000000 10.89335497854418

ATOMIC_POSITIONS angstrom
Si 4.1394497729 4.0584427076 1.3632606616 
Si -0.0022163527 2.7083907353 2.7267773369 
Si 4.1480786634 1.3589808307 4.0713142896 
Si -0.0096785143 0.0081056828 -0.0034570700 
Si 1.3789876608 4.0567439064 4.0719541690 
Si 2.7712507604 2.7018320560 0.0026649508 
Si 1.3894450693 1.3551439046 1.3640440117 
Si 2.7586053778 0.0042663483 2.7238421614 
Si 4.1369764176 4.0554997465 6.8029190565 
Si 0.0096518272 2.7041678167 8.1566062098 
Si 4.1391386776 1.3406703316 9.5147295863 
Si 0.0061864143 0.0062377969 5.4335582311 
Si 1.3795995908 4.0458702794 9.5190936204 
Si 2.7617395026 2.7085180977 5.4421948630 
Si 1.3845642129 1.3470671235 6.7965675541 
Si 2.7582278887 0.0057861637 8.1635241846 
Si 4.1343468035 9.4435073429 1.3643245355 
Si 0.0098301824 8.0995927487 2.7263715991 
Si 4.1334707150 6.7467831258 4.0820131702 
Si 0.0022257678 5.3906753909 0.0050488420 
Si 1.3772527133 9.4446617113 4.0727009629 
Si 2.7655085327 8.1045436214 0.0008500762 
Si 1.3728053933 6.7526733665 1.3570196494 
Si 2.7671771368 5.3899702736 2.7229481773 
Si 4.1495877827 9.4464859761 6.8046976623 
Si 0.0035995877 8.0966648091 8.1512845486 
Si 4.1349470850 6.7455930993 9.5147681971 
Si -0.0064772172 5.4028353301 5.4315771451 
Si 1.3737800413 9.4535470082 9.5197173422 
Si 2.7537511452 8.1014241225 5.4318145662 
Si 1.3724554264 6.7493893491 6.7945642888 
Si 2.7558162480 5.3959896121 8.1489161175 
Si 9.6717925927 4.0518232476 1.3662948494 
Si 5.5230387075 2.6939355511 2.7185545741 
Si 9.6566309639 1.3482116040 4.0819257485 
Si 5.5263930952 -0.0050733546 -0.0067651086 
Si 6.8945421999 4.0541086319 4.0726648275 
Si 8.2865218752 2.6936732778 -0.0001801513 
Si 6.9086023577 1.3536307689 1.3662828181 
Si 8.2901933135 -0.0042004614 2.7246164563 
Si 9.6727199587 4.0469946471 6.8044682209 
Si 5.5168628911 2.6984334771 8.1643108978 
Si 9.6559829836 1.3399344204 9.5063730829 
Si 5.5328889969 -0.0028651313 5.4395078571 
Si 6.9029958620 4.0522291191 9.5144528050 
Si 8.2885389267 2.7082362281 5.4371337994 
Si 6.8980117503 1.3562587097 6.7952340898 
Si 8.2877507356 -0.0054949844 8.1559701211 
Si 9.6643991034 9.4489764539 1.3568515295 
Si 5.5209126150 8.0959727191 2.7257357535 
Si 9.6569403595 6.7507380195 4.0738978885 
Si 5.5300190308 5.3908642836 0.0052221199 
Si 6.8962372695 9.4568029880 4.0770790333 
Si 8.2765547044 8.0890812142 -0.0002072109 
Si 6.9044773384 6.7403038793 1.3499937028 
Si 8.2918176341 5.3985456531 2.7116285741 
Si 9.6698480555 9.4546423951 6.7997361367 
Si 5.5266374961 8.1039041703 8.1492628931 
Si 9.6549595119 6.7440872709 9.5123646460 
Si 5.5163663276 5.3923501906 5.4330064306 
Si 6.9110867669 9.4563183279 9.5055061392 
Si 8.2935706464 8.0995773268 5.4429831230 
Si 6.9089997370 6.7421380758 6.7916454139 
Si 8.2826271168 5.4007477255 8.1505450232 

