&CONTROL
   calculation      = 'scf'
   tstress          = .true.
   tprnfor          = .true.
   outdir           = './'
   disk_io          = 'none'
   pseudo_dir       = './'
/
&SYSTEM
   ecutwfc          = 30
   input_dft        = 'PBE'
   ntyp             = 1
   nat              = 64
   ibrav            = 0
/
&ELECTRONS
   electron_maxstep = 1000
   mixing_beta      = 0.5
/
&IONS
/
&CELL
/

ATOMIC_SPECIES
Si 28.085 Si_ONCV_PBE-1.0.upf

K_POINTS gamma

CELL_PARAMETERS angstrom
10.96664647375104 0.00000000000000 0.00000000000000
0.00000000000000 10.96130710465491 0.00000000000000
0.00000000000000 0.00000000000000 11.03109279696193

ATOMIC_POSITIONS angstrom
Si 4.1137946221 4.0831308727 1.3962306048 
Si 0.0010513152 2.7124264675 2.7861826671 
Si 4.1159677840 1.3682431828 4.1676108016 
Si -0.0053861209 0.0096212783 -0.0087082327 
Si 1.3647832798 4.0683689917 4.1726898374 
Si 2.7383984552 2.7245745119 0.0057359889 
Si 1.3605698451 1.3572479919 1.3827705142 
Si 2.7337876965 -0.0093078886 2.7867507239 
Si 4.1104204211 4.0778662894 6.9521799066 
Si 0.0081719182 2.7198617862 8.3473782254 
Si 4.1178584358 1.3594279047 9.7248428747 
Si 0.0058125028 0.0024958702 5.5527577170 
Si 1.3759884996 4.0806723160 9.7396809911 
Si 2.7328528190 2.7120506598 5.5644917069 
Si 1.3678680136 1.3678013019 6.9433709799 
Si 2.7417181713 0.0004884746 8.3408005960 
Si 4.1160652638 9.5082796111 1.3840221549 
Si 0.0012214619 8.1410254192 2.7861869014 
Si 4.1181321104 6.7861273003 4.1761843592 
Si -0.0079295042 5.4356021674 -0.0055081618 
Si 1.3770903058 9.5031382511 4.1737754189 
Si 2.7420524680 8.1503352232 0.0017324918 
Si 1.3726136362 6.7933616064 1.3994260620 
Si 2.7408230544 5.4406556831 2.7773131663 
Si 4.1037802317 9.5057947092 6.9460622169 
Si -0.0024510246 8.1445619715 8.3332827809 
Si 4.1061783716 6.8013532027 9.7347187163 
Si 0.0091477625 5.4341341362 5.5678088572 
Si 1.3774830864 9.5099329526 9.7265174394 
Si 2.7501565340 8.1440300324 5.5538208127 
Si 1.3779332548 6.7954050695 6.9583560376 
Si 2.7363648384 5.4386716609 8.3413710205 
Si 9.5929392501 4.0740352123 1.3967490721 
Si 5.4870959042 2.7188649319 2.7843724682 
Si 9.6005360066 1.3566085607 4.1622126100 
Si 5.4836150499 -0.0063783159 0.0019651566 
Si 6.8614429928 4.0811394082 4.1712966573 
Si 8.2299770202 2.7078233982 0.0090294405 
Si 6.8606513167 1.3509693921 1.3874149076 
Si 8.2277058799 -0.0029931302 2.7718342348 
Si 9.5943686057 4.0745972474 6.9420832157 
Si 5.4755724709 2.7266558580 8.3444850884 
Si 9.5905487049 1.3669096518 9.7244566042 
Si 5.4722898949 0.0028417148 5.5569454341 
Si 6.8481190073 4.0762298310 9.7287498798 
Si 8.2217039636 2.7185534932 5.5696934383 
Si 6.8562692104 1.3614106880 6.9523874963 
Si 8.2197681193 0.0013332711 8.3476532648 
Si 9.5969531299 9.5005800141 1.3957017193 
Si 5.4857154106 8.1530149129 2.7781056548 
Si 9.5885983346 6.7994541867 4.1685979788 
Si 5.4840863046 5.4255547342 0.0020788417 
Si 6.8554084514 9.5142415942 4.1771365600 
Si 8.2231258288 8.1446872434 -0.0043901282 
Si 6.8610310584 6.8007086117 1.3917482539 
Si 8.2265928452 5.4268868012 2.7842568466 
Si 9.5967321119 9.4998205847 6.9591715429 
Si 5.4824045362 8.1574560783 8.3480373024 
Si 9.5849864698 6.7902902422 9.7357525265 
Si 5.4794110556 5.4422810158 5.5701666177 
Si 6.8449924340 9.5089396944 9.7299313087 
Si 8.2179848734 8.1505884580 5.5596540416 
Si 6.8521197909 6.7953612290 6.9505329348 
Si 8.2313119469 5.4372833618 8.3354739968 

