&CONTROL
   calculation      = 'scf'
   tstress          = .true.
   tprnfor          = .true.
   outdir           = './'
   disk_io          = 'none'
   pseudo_dir       = './'
/
&SYSTEM
   ecutwfc          = 30
   input_dft        = 'PBE'
   ntyp             = 1
   nat              = 64
   ibrav            = 0
/
&ELECTRONS
   electron_maxstep = 1000
   mixing_beta      = 0.5
/
&IONS
/
&CELL
/

ATOMIC_SPECIES
Si 28.085 Si_ONCV_PBE-1.0.upf

K_POINTS gamma

CELL_PARAMETERS angstrom
10.92467817775025 0.00000000000000 0.00000000000000
0.00000000000000 10.90065323469956 0.00000000000000
0.00000000000000 0.00000000000000 10.89726563711126

ATOMIC_POSITIONS angstrom
Si 4.0641753195 4.0707807912 1.3829294023 
Si -0.0002037310 2.7187566707 2.7605976556 
Si 4.0668216294 1.3582245111 4.1261620237 
Si 0.0070554174 -0.0081968702 0.0020827154 
Si 1.3522412159 4.0652876715 4.1328243207 
Si 2.7062735903 2.7057407408 0.0005419744 
Si 1.3492639249 1.3511102377 1.3845633127 
Si 2.7141679381 -0.0058203324 2.7603315257 
Si 4.0645328314 4.0551681593 6.8741744537 
Si -0.0024198313 2.7175075254 8.2569321834 
Si 4.0671699926 1.3588633988 9.6358119596 
Si 0.0003595335 -0.0027553036 5.5058772264 
Si 1.3496804735 4.0681227192 9.6202843713 
Si 2.7129984405 2.7053141994 5.4969790926 
Si 1.3532363188 1.3612618017 6.8702075549 
Si 2.7054877096 0.0092616632 8.2578485409 
Si 4.0738854112 9.4777045720 1.3678952406 
Si -0.0086301141 8.1379385616 2.7555924192 
Si 4.0734786918 6.7645095719 4.1306010868 
Si 0.0069617121 5.4131406919 0.0000971434 
Si 1.3466515416 9.4909202626 4.1216066672 
Si 2.7007407980 8.1359981169 0.0087563419 
Si 1.3596259769 6.7707296896 1.3852507540 
Si 2.7037501250 5.4232862412 2.7500264804 
Si 4.0564708595 9.4763551247 6.8803782801 
Si 0.0079354005 8.1370800782 8.2426997923 
Si 4.0651221415 6.7786495670 9.6319424489 
Si -0.0020580537 5.4194281679 5.5016524698 
Si 1.3564481007 9.4766628867 9.6335155622 
Si 2.7070570044 8.1209878073 5.5098773279 
Si 1.3533096679 6.7809456808 6.8694090414 
Si 2.7040089137 5.4243530149 8.2451243265 
Si 9.4816061828 4.0687571627 1.3818833104 
Si 5.4142016305 2.7116222861 2.7519351708 
Si 9.4816320630 1.3561058442 4.1175516040 
Si 5.4292610715 -0.0003952505 0.0061863277 
Si 6.7710004939 4.0631556269 4.1174430405 
Si 8.1359036801 2.7003301692 0.0075669339 
Si 6.7775051476 1.3641537776 1.3724716219 
Si 8.1324998602 0.0089899013 2.7427178393 
Si 9.4928903209 4.0549009343 6.8791709334 
Si 5.4170462517 2.7167380654 8.2529954382 
Si 9.4899101885 1.3543627809 9.6202871415 
Si 5.4224426831 -0.0030902976 5.4969895166 
Si 6.7714460015 4.0671646238 9.6244322637 
Si 8.1301616091 2.7051350700 5.4963733749 
Si 6.7714728533 1.3624454448 6.8677833875 
Si 8.1389472180 0.0010274140 8.2592172146 
Si 9.4903235741 9.4916960254 1.3748973765 
Si 5.4230591250 8.1219339938 2.7417085942 
Si 9.4921825903 6.7658240813 4.1307919262 
Si 5.4130779766 5.4137513175 0.0012856602 
Si 6.7679444119 9.4737982377 4.1218713160 
Si 8.1274755352 8.1323026914 -0.0008238242 
Si 6.7778976713 6.7676291263 1.3847398994 
Si 8.1203748308 5.4253140089 2.7493580898 
Si 9.4818895927 9.4797031577 6.8843573291 
Si 5.4108477190 8.1246632160 8.2549645130 
Si 9.4773199130 6.7751974287 9.6265571447 
Si 5.4142619392 5.4148796242 5.5033824353 
Si 6.7720023181 9.4826369689 9.6290174338 
Si 8.1306411653 8.1264135511 5.4938783598 
Si 6.7810941984 6.7835256727 6.8723001459 
Si 8.1390821238 5.4288711825 8.2609091626 

