&CONTROL
   calculation      = 'scf'
   tstress          = .true.
   tprnfor          = .true.
   outdir           = './'
   disk_io          = 'none'
   pseudo_dir       = './'
/
&SYSTEM
   ecutwfc          = 30
   input_dft        = 'PBE'
   ntyp             = 1
   nat              = 64
   ibrav            = 0
/
&ELECTRONS
   electron_maxstep = 1000
   mixing_beta      = 0.5
/
&IONS
/
&CELL
/

ATOMIC_SPECIES
Si 28.085 Si_ONCV_PBE-1.0.upf

K_POINTS gamma

CELL_PARAMETERS angstrom
10.96487228621947 0.00000000000000 0.00000000000000
0.00000000000000 10.91650561325238 0.00000000000000
0.00000000000000 0.00000000000000 11.03892758673901

ATOMIC_POSITIONS angstrom
Si 4.1117347126 4.0830837552 1.3690865049 
Si 0.0049908727 2.7345500166 2.7390344361 
Si 4.1033541270 1.3548174371 4.1031389216 
Si 0.0020101539 -0.0045450647 0.0056021276 
Si 1.3691182862 4.0811089677 4.1098041333 
Si 2.7356629369 2.7267366736 -0.0043551733 
Si 1.3601884290 1.3720693191 1.3786793031 
Si 2.7353553117 -0.0086600231 2.7398779532 
Si 4.1067424110 4.0944066539 6.8482989051 
Si 0.0069741296 2.7309247038 8.2121424394 
Si 4.1009879055 1.3671461102 9.5963186653 
Si -0.0033967583 -0.0084815494 5.4784906814 
Si 1.3733154974 4.0863227183 9.5912483165 
Si 2.7381735790 2.7211405491 5.4771033150 
Si 1.3776019123 1.3596782796 6.8409932984 
Si 2.7274258276 -0.0052438173 8.2160853757 
Si 4.1133757613 9.5364333393 1.3739965166 
Si 0.0008509462 8.1707701990 2.7318701476 
Si 4.1039044085 6.8168794304 4.1105377006 
Si 0.0050406959 5.4622884158 -0.0012634322 
Si 1.3666611272 9.5440907347 4.1001745806 
Si 2.7454341218 8.1870067642 0.0075337680 
Si 1.3657580179 6.8136016163 1.3675552941 
Si 2.7292200040 5.4480589113 2.7296761568 
Si 4.0956714172 9.5391268160 6.8575569669 
Si -0.0016144902 8.1837249803 8.2225041660 
Si 4.1037682385 6.8205198049 9.5828983598 
Si -0.0086521104 5.4536449535 5.4799653046 
Si 1.3730239728 9.5423620119 9.5846656840 
Si 2.7337182061 8.1719942518 5.4874496242 
Si 1.3714725312 6.8158254087 6.8549783785 
Si 2.7291891842 5.4594384038 8.2126850107 
Si 9.5792132522 4.0853910741 1.3676309832 
Si 5.4719803668 2.7279163579 2.7388533044 
Si 9.5751877474 1.3676947287 4.1045246846 
Si 5.4780757711 0.0029924194 0.0025438225 
Si 6.8349811966 4.0982548576 4.1136297030 
Si 8.2043252426 2.7234441578 0.0029901945 
Si 6.8387465743 1.3536121891 1.3679295080 
Si 8.2132919492 0.0039560607 2.7461676924 
Si 9.5842364663 4.0902874699 6.8485428037 
Si 5.4752009585 2.7312919909 8.2165061263 
Si 9.5704999732 1.3665629242 9.5855152299 
Si 5.4837468296 -0.0062734924 5.4735519684 
Si 6.8468125684 4.0957732418 9.5852122180 
Si 8.2093726613 2.7235536400 5.4727319106 
Si 6.8381775313 1.3663866719 6.8484133618 
Si 8.2209687439 -0.0011289015 8.2231626810 
Si 9.5877383828 9.5350312445 1.3605061899 
Si 5.4825297249 8.1782814264 2.7459745544 
Si 9.5719494209 6.8181213671 4.1133351273 
Si 5.4791627351 5.4478768996 -0.0071426086 
Si 6.8451889494 9.5336238133 4.1187720175 
Si 8.2189682988 8.1865245313 0.0018692432 
Si 6.8476569330 6.8177376598 1.3766649433 
Si 8.2193591301 5.4491957733 2.7302639749 
Si 9.5771182694 9.5359285308 6.8476060998 
Si 5.4824930772 8.1796724264 8.2190922750 
Si 9.5702991349 6.8125248709 9.5916265053 
Si 5.4675008110 5.4563574678 5.4773946564 
Si 6.8400500854 9.5382111007 9.5879569112 
Si 8.2069345975 8.1765998028 5.4835556525 
Si 6.8476420759 6.8077182684 6.8398870803 
Si 8.2070717372 5.4466321053 8.2215569346 

