&CONTROL
   calculation      = 'scf'
   tstress          = '.true.'
   tprnfor          = '.true.'
   outdir           = './'
   disk_io          = 'none'
   pseudo_dir       = './'
/
&SYSTEM
   ecutwfc          = 30
   input_dft        = 'PBE'
   ntyp             = 1
   nat              = 64
   ibrav            = 0
/
&ELECTRONS
   electron_maxstep = 1000
   mixing_beta      = 0.5
/
&IONS
/
&CELL
/

ATOMIC_SPECIES
Si 28.085 Si_ONCV_PBE-1.0.upf

K_POINTS gamma

CELL_PARAMETERS angstrom
10.91585294311449 0.00000000000000 0.00000000000000
0.00000000000000 11.04972512647710 0.00000000000000
0.00000000000000 0.00000000000000 10.87814777630559

ATOMIC_POSITIONS angstrom
Si 4.1071867827 4.1631157683 1.3662383500 
Si -0.0050719385 2.7709691009 2.7401654328 
Si 4.1188728327 1.3817194011 4.1011249620 
Si -0.0055105467 0.0024009820 0.0083472915 
Si 1.3677226172 4.1601472077 4.1120666913 
Si 2.7412149570 2.7788082554 0.0093827018 
Si 1.3622690364 1.3929630219 1.3783519225 
Si 2.7466768897 -0.0002430142 2.7447424418 
Si 4.1118372640 4.1673367423 6.8398678132 
Si 0.0080488559 2.7787928707 8.2059010086 
Si 4.1125709737 1.3881758520 9.5772580432 
Si -0.0002959469 -0.0090908154 5.4841159353 
Si 1.3641236890 4.1564300793 9.5741326077 
Si 2.7379893929 2.7762709893 5.4691312011 
Si 1.3798555062 1.3985925358 6.8473328049 
Si 2.7345271001 0.0069766602 8.2122409816 
Si 4.1153899780 9.7232461777 1.3616028857 
Si 0.0063569933 8.3297995054 2.7361132682 
Si 4.1062919788 6.9395583832 4.1125860357 
Si 0.0020827042 5.5498543529 -0.0087934288 
Si 1.3764073838 9.7173804948 4.1099046523 
Si 2.7495960005 8.3233757272 0.0058273701 
Si 1.3639446764 6.9343616557 1.3659404767 
Si 2.7359691743 5.5641618194 2.7323546225 
Si 4.1195064559 9.7156464716 6.8473278778 
Si 0.0093768177 8.3398817562 8.2184648019 
Si 4.1130305898 6.9485086944 9.5850689849 
Si -0.0001598543 5.5637079151 5.4780673456 
Si 1.3616940911 9.7140661180 9.5830465473 
Si 2.7493719196 8.3236058185 5.4760828341 
Si 1.3798016126 6.9338254488 6.8524405464 
Si 2.7499262382 5.5640444837 8.2086955391 
Si 9.5938432559 4.1735749718 1.3715416639 
Si 5.4781280211 2.7820823684 2.7359310983 
Si 9.5989333310 1.3919460613 4.1053969743 
Si 5.4760940958 -0.0002805593 0.0017005834 
Si 6.8512578863 4.1735252079 4.0976810069 
Si 8.2267106378 2.7844804046 -0.0023196969 
Si 6.8592884772 1.3892134682 1.3746259813 
Si 8.2224625240 0.0088208075 2.7352489852 
Si 9.6000922341 4.1699500141 6.8553084636 
Si 5.4788573652 2.7796101173 8.2086387327 
Si 9.5894184930 1.3883438397 9.5905348223 
Si 5.4891473797 0.0059148043 5.4813144111 
Si 6.8600053670 4.1736417478 9.5871868194 
Si 8.2168038457 2.7757743456 5.4832644965 
Si 6.8569499431 1.3982081096 6.8377998116 
Si 8.2202737638 -0.0081464827 8.2078562453 
Si 9.5983777359 9.7244897615 1.3663019239 
Si 5.4800989798 8.3282917080 2.7295336395 
Si 9.5992147028 6.9508636237 4.0982999662 
Si 5.4830845869 5.5599861287 0.0033208167 
Si 6.8482499779 9.7111724644 4.1136662883 
Si 8.2165644561 8.3341033754 -0.0097534537 
Si 6.8508250320 6.9431090981 1.3761531679 
Si 8.2272228309 5.5584796351 2.7286030701 
Si 9.6018003196 9.7195514007 6.8434737055 
Si 5.4854418048 8.3304954086 8.2069055724 
Si 9.5873027161 6.9384194053 9.5913990094 
Si 5.4826371667 5.5595593863 5.4782049694 
Si 6.8492919891 9.7129405201 9.5841379003 
Si 8.2308897814 8.3316134776 5.4719386894 
Si 6.8524215870 6.9436436670 6.8368593883 
Si 8.2161289155 5.5613636718 8.2059723623 

