&CONTROL
   calculation      = 'scf'
   tstress          = '.true.'
   tprnfor          = '.true.'
   outdir           = './'
   disk_io          = 'none'
   pseudo_dir       = './'
/
&SYSTEM
   ecutwfc          = 30
   input_dft        = 'PBE'
   ntyp             = 1
   nat              = 64
   ibrav            = 0
/
&ELECTRONS
   electron_maxstep = 1000
   mixing_beta      = 0.5
/
&IONS
/
&CELL
/

ATOMIC_SPECIES
Si 28.085 Si_ONCV_PBE-1.0.upf

K_POINTS gamma

CELL_PARAMETERS angstrom
10.91557359802685 0.00000000000000 0.00000000000000
0.00000000000000 10.84191513629943 0.00000000000000
0.00000000000000 0.00000000000000 10.88211553869185

ATOMIC_POSITIONS angstrom
Si 4.1091415484 4.0892376068 1.3425737667 
Si 0.0093133694 2.7125228240 2.7058721076 
Si 4.1043097467 1.3701070560 4.0536221924 
Si -0.0029138063 0.0040318009 -0.0066762444 
Si 1.3610186160 4.0835672323 4.0609073556 
Si 2.7349925992 2.7207687830 -0.0082626059 
Si 1.3624395459 1.3555120074 1.3603690722 
Si 2.7321002681 -0.0017948641 2.6945755211 
Si 4.1141974087 4.0773079741 6.7668702770 
Si 0.0011495425 2.7177173555 8.1117973882 
Si 4.1036630535 1.3550832833 9.4568891098 
Si 0.0033483895 0.0021031645 5.4057860856 
Si 1.3617629777 4.0858825153 9.4515347830 
Si 2.7410251356 2.7208390360 5.3987598413 
Si 1.3698557162 1.3617417830 6.7552232485 
Si 2.7263996576 0.0065422687 8.1110678356 
Si 4.1080744534 9.5179215959 1.3496582547 
Si -0.0031985866 8.1621480480 2.6984252030 
Si 4.1079291292 6.8038338326 4.0512177343 
Si 0.0094641226 5.4481873421 0.0072210889 
Si 1.3605224934 9.5170543134 4.0634446736 
Si 2.7280668815 8.1594871125 0.0023159845 
Si 1.3779807257 6.8013335082 1.3471486462 
Si 2.7331156697 5.4318776950 2.7051427503 
Si 4.1035967539 9.5307666972 6.7562108607 
Si -0.0053237210 8.1604409005 8.1069545469 
Si 4.0980686035 6.8041881102 9.4619861827 
Si -0.0043170359 5.4371119471 5.4087758631 
Si 1.3691448641 9.5141964029 9.4651837847 
Si 2.7376623025 8.1647136234 5.4009366132 
Si 1.3673950011 6.7967790494 6.7550430217 
Si 2.7384666732 5.4465041328 8.1121810429 
Si 9.5778015676 4.0829057773 1.3442161557 
Si 5.4675778930 2.7277652215 2.7033481531 
Si 9.5794438183 1.3698616898 4.0542397725 
Si 5.4824214582 0.0035774322 -0.0056836252 
Si 6.8380796083 4.0904055618 4.0549048084 
Si 8.2158001168 2.7170300385 0.0032458107 
Si 6.8461912601 1.3534603127 1.3480943484 
Si 8.2020044083 -0.0088848233 2.6948383217 
Si 9.5790395965 4.0808976107 6.7676220021 
Si 5.4646841909 2.7174926361 8.1065674256 
Si 9.5852125161 1.3586950662 9.4531631277 
Si 5.4748483628 -0.0094463571 5.4000376282 
Si 6.8491002114 4.0889977336 9.4576013265 
Si 8.2029767242 2.7252135968 5.4157443492 
Si 6.8453730955 1.3649271921 6.7590405788 
Si 8.2174444684 0.0018856258 8.1018930028 
Si 9.5669825910 9.5261086980 1.3531578452 
Si 5.4674828662 8.1659668507 2.7078610880 
Si 9.5750790873 6.8093709955 4.0590417106 
Si 5.4679168750 5.4369332085 0.0010694303 
Si 6.8499271624 9.5300045618 4.0583876264 
Si 8.2174220479 8.1709168445 -0.0006493736 
Si 6.8395634406 6.8008280759 1.3558334392 
Si 8.2060778381 5.4458314809 2.6962698282 
Si 9.5671982994 9.5166469854 6.7628454842 
Si 5.4720393407 8.1665419049 8.1059057202 
Si 9.5795988396 6.7983409140 9.4580295729 
Si 5.4783681523 5.4404792468 5.3968204980 
Si 6.8332514129 9.5181613271 9.4538793011 
Si 8.2152806663 8.1700192955 5.4052229154 
Si 6.8396569707 6.8057324465 6.7519878095 
Si 8.2154988218 5.4488597742 8.1015986399 

