&CONTROL
   calculation      = 'scf'
   tstress          = '.true.'
   tprnfor          = '.true.'
   outdir           = './'
   disk_io          = 'none'
   pseudo_dir       = './'
/
&SYSTEM
   ecutwfc          = 30
   input_dft        = 'PBE'
   ntyp             = 1
   nat              = 64
   ibrav            = 0
/
&ELECTRONS
   electron_maxstep = 1000
   mixing_beta      = 0.5
/
&IONS
/
&CELL
/

ATOMIC_SPECIES
Si 28.085 Si_ONCV_PBE-1.0.upf

K_POINTS gamma

CELL_PARAMETERS angstrom
10.91206103931422 0.00000000000000 0.00000000000000
0.00000000000000 10.85816997822240 0.00000000000000
0.00000000000000 0.00000000000000 10.93463051978368

ATOMIC_POSITIONS angstrom
Si 4.0845293069 4.0715699703 1.3743011853 
Si -0.0000781851 2.7053081136 2.7396713296 
Si 4.0912549927 1.3617373311 4.1246245703 
Si -0.0084432123 0.0020729955 -0.0029872002 
Si 1.3537523950 4.0660490948 4.1248491541 
Si 2.7246699734 2.7075574721 -0.0081414757 
Si 1.3536131700 1.3573210865 1.3817570573 
Si 2.7181123199 0.0020381796 2.7463805202 
Si 4.0890297949 4.0674832830 6.8693071566 
Si 0.0012007472 2.7219643802 8.2382713953 
Si 4.0925010732 1.3472863097 9.6145001112 
Si 0.0053717266 0.0078883333 5.4902531222 
Si 1.3624853392 4.0728528782 9.6185751922 
Si 2.7179069769 2.7210943177 5.4983129346 
Si 1.3640762797 1.3612520707 6.8591563999 
Si 2.7224694229 0.0026134446 8.2436717977 
Si 4.0930446359 9.4902830915 1.3720783693 
Si -0.0050695572 8.1406275516 2.7399990025 
Si 4.0834787987 6.7929256065 4.1150278062 
Si 0.0017723211 5.4279653970 -0.0091257026 
Si 1.3619145299 9.5013395129 4.1210290824 
Si 2.7160590232 8.1450852977 -0.0003298482 
Si 1.3544521205 6.7823689664 1.3668769157 
Si 2.7209049255 5.4261948504 2.7407091613 
Si 4.0810080806 9.5047730847 6.8697646940 
Si 0.0024674868 8.1386504845 8.2355249429 
Si 4.0862024817 6.7871947275 9.6131962573 
Si 0.0038555756 5.4187190065 5.4933958050 
Si 1.3691187308 9.4923220822 9.6184898129 
Si 2.7327946029 8.1487048323 5.5008690764 
Si 1.3625215171 6.7891427748 6.8577365019 
Si 2.7156109131 5.4265967174 8.2354104329 
Si 9.5243805417 4.0609153916 1.3704364835 
Si 5.4420942483 2.7130442156 2.7444831370 
Si 9.5341845856 1.3618784642 4.1158047017 
Si 5.4474109437 0.0032887685 -0.0099586052 
Si 6.8161264830 4.0665486240 4.1265609307 
Si 8.1817353096 2.7168159324 0.0021455264 
Si 6.8075658151 1.3527351475 1.3685006549 
Si 8.1628277517 -0.0032636209 2.7395410367 
Si 9.5288510628 4.0728811212 6.8675702064 
Si 5.4467904163 2.7116094196 8.2375905722 
Si 9.5372668186 1.3476527040 9.6132470311 
Si 5.4445504606 0.0010480022 5.4889085130 
Si 6.8041188388 4.0618516898 9.6148863699 
Si 8.1763383185 2.7154489619 5.5038358864 
Si 6.8163216306 1.3539713888 6.8596594663 
Si 8.1783738017 -0.0096848061 8.2423382880 
Si 9.5423676341 9.5042992198 1.3692153077 
Si 5.4559770355 8.1324465134 2.7511114432 
Si 9.5430328118 6.7891183511 4.1158161226 
Si 5.4411632186 5.4372021765 -0.0018476451 
Si 6.8160508574 9.5061706616 4.1197034123 
Si 8.1705865052 8.1385278218 -0.0095290482 
Si 6.8123968275 6.7858853874 1.3819117169 
Si 8.1693194495 5.4265122429 2.7507839487 
Si 9.5385137624 9.5069285327 6.8747716210 
Si 5.4408893050 8.1463052212 8.2369283603 
Si 9.5347056463 6.7943783147 9.6110660309 
Si 5.4390067230 5.4198613858 5.4927205905 
Si 6.8036375035 9.4983654502 9.6119625074 
Si 8.1649127283 8.1348266013 5.4886649731 
Si 6.8139991251 6.7752788028 6.8591483615 
Si 8.1702367529 5.4275288190 8.2434150805 

