&CONTROL
   calculation      = 'scf'
   tstress          = .true.
   tprnfor          = .true.
   outdir           = './'
   disk_io          = 'none'
   pseudo_dir       = './'
/
&SYSTEM
   ecutwfc          = 30
   input_dft        = 'PBE'
   ntyp             = 1
   nat              = 64
   ibrav            = 0
/
&ELECTRONS
   electron_maxstep = 1000
   mixing_beta      = 0.5
/
&IONS
/
&CELL
/

ATOMIC_SPECIES
Si 28.085 Si_ONCV_PBE-1.0.upf

K_POINTS gamma

CELL_PARAMETERS angstrom
10.86012477954083 0.00000000000000 0.00000000000000
0.00000000000000 11.02072220158202 0.00000000000000
0.00000000000000 0.00000000000000 10.85450908124053

ATOMIC_POSITIONS angstrom
Si 4.0760235247 4.1266100341 1.3553275370 
Si -0.0050321828 2.7508088763 2.6988643644 
Si 4.0696113030 1.3754456594 4.0341812470 
Si 0.0038770265 -0.0032782076 -0.0078124925 
Si 1.3614132084 4.1363919845 4.0481963519 
Si 2.7067726492 2.7528975461 -0.0078269760 
Si 1.3495776103 1.3776670187 1.3436481065 
Si 2.7095311258 0.0098777682 2.6936882468 
Si 4.0680039178 4.1258997374 6.7384443628 
Si 0.0096952796 2.7587354078 8.0852500745 
Si 4.0730503459 1.3685344197 9.4324627832 
Si 0.0048726747 -0.0039977447 5.3800990912 
Si 1.3627776064 4.1385789538 9.4342032243 
Si 2.7116646598 2.7606981888 5.3843473297 
Si 1.3524281788 1.3727116451 6.7354104816 
Si 2.7164143433 0.0044481127 8.0736601535 
Si 4.0657711429 9.6470506560 1.3463639928 
Si 0.0061203413 8.2649608616 2.6929676071 
Si 4.0663434123 6.8816338078 4.0465768999 
Si -0.0096417798 5.5014022582 -0.0007596682 
Si 1.3615336842 9.6468175789 4.0452886828 
Si 2.7093543797 8.2689703132 0.0048221856 
Si 1.3641472605 6.8885149282 1.3522773576 
Si 2.7236210320 5.5104392182 2.7031226879 
Si 4.0747792793 9.6516835864 6.7312904041 
Si 0.0036179126 8.2641963978 8.0841439700 
Si 4.0714750612 6.8891411848 9.4314626265 
Si -0.0065820805 5.5028213410 5.3979033141 
Si 1.3636144584 9.6396407286 9.4231489135 
Si 2.7192484721 8.2716509454 5.3917815788 
Si 1.3659649428 6.8881878865 6.7417737795 
Si 2.7095524402 5.5067249076 8.0924679043 
Si 9.5145667635 4.1279133500 1.3486662447 
Si 5.4260883488 2.7631414308 2.6978918727 
Si 9.5002605781 1.3724128477 4.0471472477 
Si 5.4303210730 0.0022307132 -0.0079904576 
Si 6.7976699054 4.1298951173 4.0433609520 
Si 8.1415188386 2.7590236217 -0.0072263583 
Si 6.7862777497 1.3751046601 1.3420484893 
Si 8.1560309491 0.0035324459 2.6943508400 
Si 9.5107805806 4.1245132020 6.7373190909 
Si 5.4339138375 2.7470911440 8.0754314479 
Si 9.5027494079 1.3694318585 9.4348484653 
Si 5.4413156319 0.0049144448 5.3818975030 
Si 6.8006056013 4.1276812998 9.4211281941 
Si 8.1496930071 2.7532683141 5.3927014954 
Si 6.7958218614 1.3681295912 6.7325513218 
Si 8.1438222301 0.0060778605 8.0823470848 
Si 9.4993777389 9.6362428309 1.3438563241 
Si 5.4272186080 8.2725952902 2.6941223390 
Si 9.4982745615 6.8839267690 4.0445142389 
Si 5.4250363299 5.5054762825 -0.0079833603 
Si 6.7933867372 9.6405431651 4.0325157230 
Si 8.1510855288 8.2632774678 -0.0063429314 
Si 6.7849624628 6.8950673848 1.3499967258 
Si 8.1481683836 5.5120308808 2.6956129118 
Si 9.5068786518 9.6385186420 6.7363411733 
Si 5.4319732207 8.2646211077 8.0881083943 
Si 9.4997194993 6.8908149391 9.4400054456 
Si 5.4246130547 5.5080289770 5.3901551024 
Si 6.7979612173 9.6491970806 9.4209204282 
Si 8.1495537769 8.2722012793 5.3807751158 
Si 6.7998224784 6.8899336789 6.7456159970 
Si 8.1575755766 5.5184071187 8.0882133351 

