&CONTROL
   calculation      = 'scf'
   tstress          = '.true.'
   tprnfor          = '.true.'
   outdir           = './'
   disk_io          = 'none'
   pseudo_dir       = './'
/
&SYSTEM
   ecutwfc          = 30
   input_dft        = 'PBE'
   ntyp             = 1
   nat              = 64
   ibrav            = 0
/
&ELECTRONS
   electron_maxstep = 1000
   mixing_beta      = 0.5
/
&IONS
/
&CELL
/

ATOMIC_SPECIES
Si 28.085 Si_ONCV_PBE-1.0.upf

K_POINTS gamma

CELL_PARAMETERS angstrom
10.95436762456666 0.00000000000000 0.00000000000000
0.00000000000000 10.85951217822814 0.00000000000000
0.00000000000000 0.00000000000000 10.89879965361673

ATOMIC_POSITIONS angstrom
Si 4.0980245775 4.0426705791 1.3675938632 
Si -0.0037549880 2.6867396040 2.7434768228 
Si 4.0931371907 1.3392540452 4.1199086914 
Si 0.0015660981 0.0077638969 -0.0003838346 
Si 1.3617869046 4.0378550291 4.1274985264 
Si 2.7333482846 2.6946420928 -0.0011107917 
Si 1.3677984880 1.3490332617 1.3718196441 
Si 2.7301521581 -0.0057052335 2.7446165765 
Si 4.0883398135 4.0419435780 6.8819949424 
Si -0.0064281353 2.6910992848 8.2587999178 
Si 4.0888758275 1.3479956224 9.6312435710 
Si 0.0064437845 -0.0051830102 5.4985707762 
Si 1.3720927740 4.0441754395 9.6238846767 
Si 2.7211809673 2.7024417019 5.4993966986 
Si 1.3580579983 1.3436053067 6.8888187499 
Si 2.7229697653 -0.0059978678 8.2629964363 
Si 4.0972544925 9.4294396666 1.3832985649 
Si 0.0067248163 8.0821932156 2.7520194230 
Si 4.0898868477 6.7365205157 4.1213867548 
Si -0.0068450652 5.3861049848 0.0080685548 
Si 1.3596444897 9.4255253966 4.1339160811 
Si 2.7228513558 8.0764986160 -0.0018124846 
Si 1.3549641505 6.7351615873 1.3807474182 
Si 2.7373132710 5.3844659135 2.7419562044 
Si 4.0914940747 9.4301450587 6.8871749473 
Si -0.0062814421 8.0880421465 8.2460816223 
Si 4.0884596303 6.7286334375 9.6388744681 
Si 0.0066856552 5.3769071928 5.4971098458 
Si 1.3634389915 9.4273344843 9.6411909390 
Si 2.7344987134 8.0773368085 5.4986667423 
Si 1.3698450335 6.7310187435 6.8793317094 
Si 2.7249730769 5.3873401736 8.2473341045 
Si 9.5453780260 4.0352846341 1.3674648707 
Si 5.4596760390 2.6952934192 2.7579219665 
Si 9.5556763301 1.3453014362 4.1242018191 
Si 5.4475567243 -0.0046358690 0.0056064361 
Si 6.8098117126 4.0412156252 4.1266115218 
Si 8.1924016169 2.6934760698 -0.0087076118 
Si 6.8139155211 1.3523625856 1.3764478254 
Si 8.1870441968 0.0036954384 2.7533247494 
Si 9.5493979034 4.0462024313 6.8888519035 
Si 5.4472241698 2.7019265487 8.2552673722 
Si 9.5443233782 1.3533172596 9.6266392551 
Si 5.4580401021 -0.0074161606 5.5052380261 
Si 6.8242085961 4.0307970836 9.6380248936 
Si 8.1822628296 2.6975747447 5.5046962794 
Si 6.8269183198 1.3553540233 6.8758857909 
Si 8.1893072492 -0.0044944207 8.2620113493 
Si 9.5413811382 9.4202765223 1.3738874465 
Si 5.4484702899 8.0731538860 2.7513600924 
Si 9.5382930513 6.7338969622 4.1251742313 
Si 5.4528371174 5.3832981894 -0.0067003759 
Si 6.8143586469 9.4203993859 4.1366044531 
Si 8.1850360727 8.0706266007 -0.0008588912 
Si 6.8132690183 6.7261617096 1.3741894250 
Si 8.1813878541 5.3922214863 2.7500585139 
Si 9.5483177873 9.4227987532 6.8723883657 
Si 5.4477124002 8.0762419448 8.2466105980 
Si 9.5450141331 6.7340232779 9.6278887813 
Si 5.4629352195 5.3839029062 5.5092271282 
Si 6.8244950910 9.4260737346 9.6232762429 
Si 8.1899560276 8.0889224996 5.5085381720 
Si 6.8185547107 6.7410198880 6.8806847246 
Si 8.1765000629 5.3926426913 8.2550890230 

