&CONTROL
   calculation      = 'scf'
   tstress          = '.true.'
   tprnfor          = '.true.'
   outdir           = './'
   disk_io          = 'none'
   pseudo_dir       = './'
/
&SYSTEM
   ecutwfc          = 30
   input_dft        = 'PBE'
   ntyp             = 1
   nat              = 64
   ibrav            = 0
/
&ELECTRONS
   electron_maxstep = 1000
   mixing_beta      = 0.5
/
&IONS
/
&CELL
/

ATOMIC_SPECIES
Si 28.085 Si_ONCV_PBE-1.0.upf

K_POINTS gamma

CELL_PARAMETERS angstrom
10.86853530200452 0.00000000000000 0.00000000000000
0.00000000000000 10.84415170691320 0.00000000000000
0.00000000000000 0.00000000000000 10.88877741631835

ATOMIC_POSITIONS angstrom
Si 4.1096742005 4.0906375651 1.3452148637 
Si -0.0092272775 2.7332963524 2.6961576042 
Si 4.1054230832 1.3670695656 4.0660689312 
Si -0.0056464009 0.0095452847 -0.0088283105 
Si 1.3657943583 4.1006254014 4.0606745465 
Si 2.7410238073 2.7217974119 0.0091131584 
Si 1.3621732616 1.3582394152 1.3533150392 
Si 2.7455298769 0.0073998787 2.7072414881 
Si 4.1109714813 4.0963591564 6.7725206783 
Si -0.0100140198 2.7396851661 8.1234576132 
Si 4.1198741103 1.3646736899 9.4664799971 
Si -0.0053063946 -0.0040998638 5.4152509286 
Si 1.3785049046 4.0944884738 9.4644612064 
Si 2.7529137998 2.7390372733 5.4142374863 
Si 1.3788456520 1.3734550313 6.7630584096 
Si 2.7434769968 0.0007656601 8.1214530692 
Si 4.1161836938 9.5577361162 1.3597590936 
Si 0.0078909212 8.1967777462 2.7100209190 
Si 4.1127096417 6.8188789623 4.0534021395 
Si 0.0009710117 5.4574606144 -0.0091582404 
Si 1.3768190933 9.5487193385 4.0537817672 
Si 2.7490244397 8.1913815246 -0.0085578218 
Si 1.3663996112 6.8324074114 1.3617692911 
Si 2.7354007214 5.4527463122 2.7137789702 
Si 4.1100217553 9.5497289667 6.7730831158 
Si 0.0009424103 8.1890288870 8.1255001674 
Si 4.1200978459 6.8250222954 9.4779828863 
Si 0.0000477049 5.4538292092 5.4192266284 
Si 1.3644600161 9.5514407137 9.4634962141 
Si 2.7522163786 8.1809310240 5.4197364116 
Si 1.3757896916 6.8222436600 6.7584074315 
Si 2.7533441131 5.4612921894 8.1175895176 
Si 9.6054755902 4.1028551108 1.3600877018 
Si 5.4851645529 2.7230059739 2.7104362023 
Si 9.6045657851 1.3679244897 4.0503261270 
Si 5.4946936133 0.0072192900 0.0029382582 
Si 6.8496885703 4.0968164290 4.0611071484 
Si 8.2349224294 2.7318781502 0.0002037926 
Si 6.8514955565 1.3616703332 1.3566887249 
Si 8.2347365826 -0.0030992588 2.7026116320 
Si 9.5918710458 4.0864300948 6.7702499260 
Si 5.4847781349 2.7342379895 8.1108737223 
Si 9.5947061484 1.3589712585 9.4692332198 
Si 5.4806200281 -0.0010693177 5.4094152938 
Si 6.8500026221 4.0903654336 9.4747303849 
Si 8.2321306803 2.7300052562 5.4182916064 
Si 6.8534958433 1.3625861464 6.7653871829 
Si 8.2211428943 -0.0069043282 8.1187733747 
Si 9.5963744769 9.5501127624 1.3510910480 
Si 5.4820805114 8.1974498669 2.6983812578 
Si 9.6021718403 6.8229065324 4.0617026840 
Si 5.4854363519 5.4568109857 0.0028086365 
Si 6.8546727691 9.5519421065 4.0638750618 
Si 8.2308887887 8.1836307042 0.0085069483 
Si 6.8622582747 6.8157447237 1.3439911761 
Si 8.2310618873 5.4553844444 2.6967520677 
Si 9.6058467202 9.5583583058 6.7715419406 
Si 5.4951780150 8.1917666412 8.1184829627 
Si 9.6094614857 6.8243083759 9.4801946455 
Si 5.4854332631 5.4564304660 5.4087862287 
Si 6.8505506272 9.5571395397 9.4625677415 
Si 8.2295494304 8.1879726998 5.4084573832 
Si 6.8670459120 6.8335769629 6.7681878030 
Si 8.2243784483 5.4525364966 8.1255000203 

