&CONTROL
   calculation      = 'scf'
   tstress          = .true.
   tprnfor          = .true.
   outdir           = './'
   disk_io          = 'none'
   pseudo_dir       = './'
/
&SYSTEM
   ecutwfc          = 30
   input_dft        = 'PBE'
   ntyp             = 1
   nat              = 64
   ibrav            = 0
/
&ELECTRONS
   electron_maxstep = 1000
   mixing_beta      = 0.5
/
&IONS
/
&CELL
/

ATOMIC_SPECIES
Si 28.085 Si_ONCV_PBE-1.0.upf

K_POINTS gamma

CELL_PARAMETERS angstrom
11.05016365681718 0.00000000000000 0.00000000000000
0.00000000000000 11.04264943900236 0.00000000000000
0.00000000000000 0.00000000000000 11.04385887017789

ATOMIC_POSITIONS angstrom
Si 4.1378343389 4.1314286277 1.3757783450 
Si 0.0094365732 2.7696396009 2.7620344463 
Si 4.1444631516 1.3725367331 4.1507146002 
Si 0.0027594379 0.0057370999 0.0025374706 
Si 1.3823852462 4.1360507667 4.1456709157 
Si 2.7567390707 2.7562136620 -0.0037229470 
Si 1.3731142773 1.3747758825 1.3723184192 
Si 2.7693291329 0.0074407823 2.7699111068 
Si 4.1421849739 4.1423516676 6.8965443600 
Si -0.0016985105 2.7664106576 8.2814522205 
Si 4.1340670342 1.3840070493 9.6542526769 
Si 0.0039592313 -0.0017791884 5.5124094647 
Si 1.3878520267 4.1508225899 9.6692608943 
Si 2.7563996064 2.7659627003 5.5294032423 
Si 1.3809611797 1.3756379504 6.8981446648 
Si 2.7681870092 -0.0077999042 8.2853333500 
Si 4.1529139175 9.6570382179 1.3746029301 
Si -0.0071648182 8.2733888719 2.7535641459 
Si 4.1489803565 6.9065720121 4.1317589462 
Si 0.0029963421 5.5259396632 0.0087029646 
Si 1.3823852035 9.6630835186 4.1353203077 
Si 2.7646460527 8.2870302140 0.0053711750 
Si 1.3756583816 6.9005706460 1.3812447678 
Si 2.7688062307 5.5275194323 2.7532156321 
Si 4.1481484474 9.6653307818 6.9077358389 
Si -0.0012292833 8.2769520244 8.2792362334 
Si 4.1382692974 6.9097493670 9.6617782376 
Si -0.0086076366 5.5207663764 5.5253301862 
Si 1.3765830923 9.6557602828 9.6575952966 
Si 2.7590402089 8.2892587096 5.5211133488 
Si 1.3745846175 6.8983352418 6.9031833444 
Si 2.7649385676 5.5204441873 8.2853477259 
Si 9.6694221163 4.1404949270 1.3895124025 
Si 5.5212949902 2.7572113888 2.7642164183 
Si 9.6676471364 1.3879535356 4.1506605019 
Si 5.5233044284 0.0005631094 0.0048298705 
Si 6.8978394498 4.1362955924 4.1410906659 
Si 8.2776746119 2.7505970187 0.0084835473 
Si 6.9097948787 1.3902113194 1.3767569562 
Si 8.2824399731 -0.0027001375 2.7619290813 
Si 9.6617716925 4.1369379493 6.8927851026 
Si 5.5164606381 2.7609231525 8.2801891376 
Si 9.6620532477 1.3722197726 9.6697950744 
Si 5.5198685341 -0.0078257952 5.5224795952 
Si 6.8980822327 4.1427412452 9.6576265200 
Si 8.2856798310 2.7555262216 5.5187536902 
Si 6.9045692523 1.3742952978 6.8975016284 
Si 8.2839828076 0.0062628755 8.2884800287 
Si 9.6675076979 9.6689147733 1.3811887755 
Si 5.5175487638 8.2870011280 2.7591015932 
Si 9.6599498818 6.8930818476 4.1426793136 
Si 5.5264245505 5.5138731427 -0.0096434305 
Si 6.9023940930 9.6557636831 4.1511470636 
Si 8.2819519321 8.2875018408 0.0068293997 
Si 6.9002520590 6.9020191057 1.3826258115 
Si 8.2817256883 5.5147264666 2.7688409433 
Si 9.6690905604 9.6640913590 6.9106935246 
Si 5.5275706674 8.2794890820 8.2767945539 
Si 9.6647454161 6.9034583505 9.6558664748 
Si 5.5328246658 5.5313740710 5.5218079870 
Si 6.9017035390 9.6649758263 9.6623090560 
Si 8.2954163236 8.2830329430 5.5251504034 
Si 6.9061221142 6.9116714944 6.8983992828 
Si 8.2809595535 5.5262602749 8.2778374452 

