&CONTROL
   calculation      = 'scf'
   tstress          = .true.
   tprnfor          = .true.
   outdir           = './'
   disk_io          = 'none'
   pseudo_dir       = '/home/ppiaggi/pseudos'
/
&SYSTEM
   ecutwfc          = 30
   occupations      = 'smearing'
   degauss          = 0.01
   smearing         = 'fermi-dirac'
   input_dft        = 'PBE'
   ntyp             = 1
   nat              = 64
   ibrav            = 0
/
&ELECTRONS
   electron_maxstep = 1000
   mixing_beta      = 0.5
/
&IONS
/
&CELL
/

ATOMIC_SPECIES
Si 28.085 Si_ONCV_PBE_sr.upf

K_POINTS gamma

CELL_PARAMETERS angstrom
11.08122898924468 0.00000000000000 0.00000000000000
0.00000000000000 10.72744545939004 0.00000000000000
0.00000000000000 0.00000000000000 10.81922739065393

ATOMIC_POSITIONS angstrom
Si -0.1013076390 0.0534326473 -0.0593914719 
Si 0.0396235324 2.8003474016 2.6760773547 
Si 2.7140472622 -0.0736545561 2.5886235643 
Si 2.7893230849 2.7521543260 0.0582618575 
Si 1.3211653061 1.3959437661 1.3750903049 
Si 5.6887377265 0.0313451052 0.0920303377 
Si 5.7237241378 2.7886979381 2.6510464735 
Si 7.0799599826 1.4258955763 1.4167900822 
Si 8.4981166523 -0.0141210543 2.6524679483 
Si 8.4058344324 2.7856577993 0.0764516568 
Si 0.0867173016 5.5568759346 0.0381248665 
Si 2.7628867095 5.3882136366 2.6153030431 
Si 1.4370184468 6.8924353101 1.3746889427 
Si 4.1535899653 4.1469299608 1.2886674834 
Si 5.5678900703 5.3860194159 -0.0226741381 
Si 6.9372867575 6.7749709302 1.3276466278 
Si 9.8091128752 4.2041465450 1.2980875282 
Si 8.3804074241 5.5514664699 2.6397681141 
Si -0.0763634639 8.2989698155 2.7121713185 
Si 2.7267516826 8.1251037490 -0.0631973927 
Si 4.3131362056 9.5326512802 1.3126304463 
Si 5.7000844325 8.2955738459 2.6545391805 
Si 8.5434926712 8.3007398846 -0.0728961718 
Si 9.9151992799 9.6583130587 1.2687626479 
Si 0.0744059702 0.0828209684 5.3167912246 
Si 2.8054181964 2.7974295730 5.2477279927 
Si 1.4538433072 1.3305252998 6.5412708014 
Si 4.3194999889 1.3768596907 3.9183272412 
Si 5.5658473169 0.0781493071 5.2236891918 
Si 7.0548858511 1.4060696243 6.5911507069 
Si 9.7665631672 1.3849838530 3.8768085228 
Si 8.3932420880 2.8089324888 5.2899252318 
Si 1.4130438195 4.0888495093 3.8917498511 
Si -0.0360943062 5.4965964370 5.3289772824 
Si 1.3919213808 6.8577799949 6.5725410868 
Si 7.1000427217 4.0422343783 3.9426672204 
Si 4.1761590778 6.7622620370 4.0235961000 
Si 4.3052913381 4.0212474871 6.5606173443 
Si 5.5756756485 5.4121169020 5.3771029848 
Si 7.0596177105 6.7751711628 6.6367128465 
Si 9.9049299675 6.7867674755 4.0070491488 
Si 9.8277183151 4.0449041814 6.6050883244 
Si 1.3780209570 9.5871979472 3.9588279358 
Si 2.8343261623 8.2513076308 5.3060432123 
Si 7.1109599673 9.6032206699 3.9278684239 
Si 4.1366004913 9.6129871590 6.7143124965 
Si 8.4475576841 8.2799910495 5.2119541584 
Si 9.8768805501 9.4983850521 6.5240311960 
Si -0.0896349075 2.6800557457 7.8800095106 
Si 2.8571496509 0.0124185680 8.0193473035 
Si 4.2246434797 1.3832478174 9.3012312135 
Si 5.6180429492 2.6982356906 7.9510943264 
Si 8.4410107410 0.0355798677 7.9066515935 
Si 9.7644837535 1.4463164706 9.1897652700 
Si 1.5055977210 4.0602177799 9.1917645788 
Si 2.7831834566 5.4678913661 7.9348719798 
Si 6.9844002958 4.1050070355 9.3419083943 
Si 4.3092748511 6.8005339723 9.2943462770 
Si 8.5076631499 5.5135137520 7.9260448119 
Si 9.9233303391 6.9269990588 9.2012345958 
Si 0.1006263746 8.1303271687 7.8529558032 
Si 1.4265073978 9.6273035825 9.2311306840 
Si 5.6945558691 8.2596455642 7.9228805269 
Si 7.0616839904 9.5458869727 9.2388372262 

