&CONTROL
   calculation      = 'scf'
   tstress          = .true.
   tprnfor          = .true.
   outdir           = './'
   disk_io          = 'none'
   pseudo_dir       = '/home/ppiaggi/pseudos'
/
&SYSTEM
   ecutwfc          = 30
   occupations      = 'smearing'
   degauss          = 0.01
   smearing         = 'fermi-dirac'
   input_dft        = 'PBE'
   ntyp             = 1
   nat              = 64
   ibrav            = 0
/
&ELECTRONS
   electron_maxstep = 1000
   mixing_beta      = 0.5
/
&IONS
/
&CELL
/

ATOMIC_SPECIES
Si 28.085 Si_ONCV_PBE_sr.upf

K_POINTS gamma

CELL_PARAMETERS angstrom
11.29323840670524 0.00000000000000 0.00000000000000
0.00000000000000 11.02419373507846 0.00000000000000
0.00000000000000 0.00000000000000 10.66951236051171

ATOMIC_POSITIONS angstrom
Si 0.0579735849 -0.0166014429 -0.0191173276 
Si 0.0462858761 2.5926419481 2.5914404870 
Si 2.7079960946 0.0078078658 2.6280487300 
Si 2.7240889101 2.7796566878 0.0665957370 
Si 1.3048558428 1.3540441848 1.3257555114 
Si 5.6058717594 -0.0580477317 -0.0612456419 
Si 5.5787467882 2.5973866772 2.5754490239 
Si 6.9252966979 1.3308006649 1.2814790606 
Si 8.4097877203 0.0368836406 2.6575856836 
Si 8.3146984736 2.7307031607 0.0676988626 
Si 0.0051901385 5.3447518464 0.0282310185 
Si 2.7435420968 5.3722843990 2.6578806820 
Si 1.3019932039 6.6843319624 1.3310233085 
Si 4.1238302249 4.0885192555 1.3505409747 
Si 5.5140868602 5.3957637415 -0.0226984329 
Si 7.0635736663 6.8055848186 1.3876561116 
Si 9.8200963903 4.0729595326 1.2340351757 
Si 8.4506366959 5.3201367404 2.5389585313 
Si 0.0980987335 8.0705759094 2.5606323719 
Si 2.8060126492 8.0103289776 -0.0578775991 
Si 4.1166654713 9.4710495887 1.2780104303 
Si 5.5158661038 8.1247778984 2.6106857834 
Si 8.3444896641 8.1075766478 0.0789842947 
Si 9.7431165727 9.3954713881 1.2154565928 
Si -0.0069164846 0.0872511725 5.1502595758 
Si 2.7097522714 2.7416122585 5.1640004056 
Si 1.3914601537 1.3793231356 6.6160325294 
Si 4.1686783264 1.3804637881 3.8788162320 
Si 5.5067907295 0.0442761624 5.2425126423 
Si 6.9359983612 1.3269499298 6.6092866077 
Si 9.7591821346 1.4131928149 3.9721323839 
Si 8.3059485013 2.6842906032 5.2820147347 
Si 1.4839243584 4.1222819679 3.8597936059 
Si -0.0217838502 5.4429546288 5.2085204026 
Si 1.4478156334 6.6230198651 6.4946585291 
Si 7.0310305304 3.9882870412 3.9143703577 
Si 4.1501636166 6.7804644633 3.9403132178 
Si 4.2799111780 4.0385495189 6.6139919163 
Si 5.5811744724 5.2934177530 5.2254382520 
Si 6.9248974535 6.6236874027 6.5150948287 
Si 9.7088219116 6.6208743103 4.0042016628 
Si 9.8086181324 4.1281481870 6.4534036173 
Si 1.4622120193 9.4121098607 3.9981001213 
Si 2.7341099835 8.0160275195 5.2729384703 
Si 6.9122032788 9.4654879244 3.8995608396 
Si 4.1424625640 9.3606892487 6.4995395157 
Si 8.4627506546 7.9742619572 5.2030378371 
Si 9.8133601464 9.3572508004 6.4958199217 
Si -0.0271799010 2.6820994687 7.9173049219 
Si 2.8554915675 0.0497495459 7.8816524334 
Si 4.1210621817 1.3608280947 9.0693707043 
Si 5.4992778443 2.7602462821 7.9018335461 
Si 8.3557980257 0.0822722077 7.8993039858 
Si 9.6749619014 1.2530839300 9.2469838527 
Si 1.3316680742 4.1160857506 9.0709594999 
Si 2.7775986670 5.3667309571 7.9114173037 
Si 7.0001347413 4.0248680170 9.1162280492 
Si 4.1571185432 6.6744117411 9.1623027722 
Si 8.3908356257 5.4387190902 7.7683700961 
Si 9.6730844595 6.7796621488 9.2422921112 
Si -0.0990135318 8.1490330998 7.8230676459 
Si 1.4152252437 9.4133850926 9.2321658261 
Si 5.4882128636 8.0454489753 7.9156693109 
Si 6.8772681477 9.3118713820 9.2263515678 

