&CONTROL
   calculation      = 'scf'
   tstress          = .true.
   tprnfor          = .true.
   outdir           = './'
   disk_io          = 'none'
   pseudo_dir       = '/home/ppiaggi/pseudos'
/
&SYSTEM
   ecutwfc          = 30
   occupations      = 'smearing'
   degauss          = 0.01
   smearing         = 'fermi-dirac'
   input_dft        = 'PBE'
   ntyp             = 1
   nat              = 64
   ibrav            = 0
/
&ELECTRONS
   electron_maxstep = 1000
   mixing_beta      = 0.5
/
&IONS
/
&CELL
/

ATOMIC_SPECIES
Si 28.085 Si_ONCV_PBE_sr.upf

K_POINTS gamma

CELL_PARAMETERS angstrom
10.78568472985242 0.00000000000000 0.00000000000000
0.00000000000000 11.25239469173338 0.00000000000000
0.00000000000000 0.00000000000000 11.26503219694801

ATOMIC_POSITIONS angstrom
Si 0.0914044500 -0.0672299509 -0.0194331308 
Si 0.0947690865 2.8479199303 2.8362420937 
Si 2.8034612852 -0.0214806397 2.7543848872 
Si 2.7770508885 2.7922058190 0.0676665138 
Si 1.3725470790 1.3859650087 1.3378048116 
Si 5.4658443397 -0.0530083738 0.0452862089 
Si 5.4176748441 2.6511151980 2.7121969625 
Si 6.8230701235 1.4238230857 1.4077974427 
Si 8.0919359477 0.0767893332 2.7513256223 
Si 8.0584045612 2.8246335772 0.0994458175 
Si -0.0023314982 5.4287366778 -0.0943996892 
Si 2.6636085348 5.5804723140 2.8938034100 
Si 1.4117983742 6.8780675083 1.3944718525 
Si 4.1015185961 4.1815855110 1.4518144964 
Si 5.5127903615 5.4319672612 0.0371693185 
Si 6.6938864953 6.8257115825 1.3285155132 
Si 9.4134526013 4.0626646237 1.4366879388 
Si 8.2193088617 5.5893367343 2.8647669120 
Si 0.0681321170 8.2080796453 2.8513131912 
Si 2.7458171289 8.1762678640 0.0060146750 
Si 4.1342324664 9.5850308700 1.3130438808 
Si 5.3751457957 8.1996701427 2.8374978505 
Si 8.1437341425 8.2456426810 -0.0971107331 
Si 9.5245707788 9.6795730908 1.4026117058 
Si 0.0234389750 0.0337125730 5.5185440415 
Si 2.7361919200 2.7989946084 5.5294735144 
Si 1.3819261836 1.4680220329 6.9579707488 
Si 3.9791771466 1.2873637605 4.1724659403 
Si 5.4105192729 -0.0175075677 5.5822914596 
Si 6.8331883215 1.2820472949 7.0205940829 
Si 9.4738536367 1.4430137030 4.2080255931 
Si 8.2014489169 2.6523220551 5.6715040831 
Si 1.3473504720 4.1567384718 4.1077965863 
Si -0.0097169286 5.4505382614 5.6164845545 
Si 1.4328717313 6.9299886306 7.0782158171 
Si 6.7961373383 4.0451284571 4.1285315000 
Si 4.1340619249 6.8432348924 4.2541363679 
Si 4.0359917982 4.1396370317 7.0602612761 
Si 5.4898566824 5.5169110455 5.5580572068 
Si 6.8536044396 6.9325657903 6.9275595641 
Si 9.5449010679 6.9413506620 4.2396589209 
Si 9.5625823680 4.1128556767 7.0884538426 
Si 1.4130979086 9.7176485383 4.1436259019 
Si 2.6694603679 8.3398701154 5.5692564172 
Si 6.8022823446 9.6583970817 4.1593589064 
Si 4.1508966809 9.6044976395 7.0837944728 
Si 8.0755570144 8.1719874954 5.6230992108 
Si 9.5010339843 9.7226911480 7.0097677418 
Si 0.0645665169 2.7230173207 8.4994106945 
Si 2.7098183741 -0.0898211359 8.4422980687 
Si 4.0107618840 1.4739186563 9.9031736442 
Si 5.4408177648 2.8405802048 8.4372800450 
Si 8.2074466452 -0.0166002947 8.3505607102 
Si 9.4215677381 1.3159937278 9.8446796498 
Si 1.3361450852 4.0571112608 9.8712307829 
Si 2.8059082256 5.4599759646 8.3198851379 
Si 6.8038067819 4.2117065334 9.8176208734 
Si 4.1112708700 6.8329163092 9.9050346117 
Si 8.0957767829 5.4068286771 8.4099253493 
Si 9.4193179400 6.7797050008 9.7496665913 
Si -0.0975027433 8.2281189940 8.3903097072 
Si 1.3815477837 9.5551872435 9.7945044628 
Si 5.4542755322 8.2986409058 8.3558612161 
Si 6.8177987478 9.6720564659 9.8981363283 

