&CONTROL
   calculation      = 'scf'
   tstress          = .true.
   tprnfor          = .true.
   outdir           = './'
   disk_io          = 'none'
   pseudo_dir       = '/home/ppiaggi/pseudos'
/
&SYSTEM
   ecutwfc          = 30
   occupations      = 'smearing'
   degauss          = 0.01
   smearing         = 'fermi-dirac'
   input_dft        = 'PBE'
   ntyp             = 1
   nat              = 64
   ibrav            = 0
/
&ELECTRONS
   electron_maxstep = 1000
   mixing_beta      = 0.5
/
&IONS
/
&CELL
/

ATOMIC_SPECIES
Si 28.085 Si_ONCV_PBE_sr.upf

K_POINTS gamma

CELL_PARAMETERS angstrom
11.20130934241937 0.00000000000000 0.00000000000000
0.00000000000000 11.15305091362171 0.00000000000000
0.00000000000000 0.00000000000000 10.75722827904410

ATOMIC_POSITIONS angstrom
Si 0.0847726348 0.0488436684 -0.0637909310 
Si -0.0365862694 2.7745508985 2.6587065782 
Si 2.6917756124 0.0723822101 2.6877003337 
Si 2.7718058728 2.8180432045 -0.0863729520 
Si 1.3086409531 1.3722067694 1.3708820683 
Si 5.5196340200 0.0277231598 0.0284475005 
Si 5.4716342712 2.9005097605 2.6501307024 
Si 6.8947882948 1.4159495830 1.3223190066 
Si 8.1134930231 -0.0570580453 2.6269202783 
Si 8.1354560561 2.8781939942 0.0364748744 
Si -0.0183770210 5.8340448597 0.0346510328 
Si 2.7991494430 5.6598721476 2.6458703806 
Si 1.2719355006 7.1228683778 1.3327454281 
Si 4.0003343310 4.2331863714 1.4524206484 
Si 5.3575343944 5.7895701507 -0.0129971322 
Si 6.8639240315 7.1926844662 1.3813869705 
Si 9.5732506555 4.3894828093 1.2977495153 
Si 8.1139873562 5.8268989691 2.6390990246 
Si -0.0531524037 8.5748410638 2.6894173922 
Si 2.7918516310 8.5768904259 0.0500956530 
Si 4.1289366770 10.1091496994 1.4390476646 
Si 5.3655668971 8.5278566470 2.7353493843 
Si 8.1609128153 8.7113551732 0.0511604277 
Si 9.4935599288 10.0961069444 1.4457767734 
Si -0.0813951030 0.0218799911 5.3970801366 
Si 2.7765548623 2.9721882644 5.3934474971 
Si 1.3518913622 1.5098005395 6.8728718200 
Si 4.1604466531 1.4032599216 3.9821161069 
Si 5.4587797388 0.0003836036 5.4399605757 
Si 6.7779831370 1.4899596770 6.7731845384 
Si 9.5997372661 1.5046216695 4.0685164688 
Si 8.1806382653 2.8925391383 5.3499727956 
Si 1.3277873960 4.3858332553 4.1613115771 
Si -0.0570225248 5.6552362412 5.3946208838 
Si 1.3374472824 7.1477333136 6.8280515679 
Si 6.8016818019 4.3844493741 3.9842918083 
Si 4.1439194889 7.1554866568 4.0269800020 
Si 4.1678551271 4.3890051917 6.6970999483 
Si 5.4582882687 5.8258785953 5.3422799091 
Si 6.7918740674 7.0770992688 6.8523746857 
Si 9.5971536485 7.1263776254 4.1692572014 
Si 9.5459764519 4.2562671527 6.8015772504 
Si 1.3661008415 9.9563668485 4.1415496364 
Si 2.7770214743 8.6701277265 5.4175441787 
Si 6.7846807064 9.9985945871 4.0185577458 
Si 4.0323678953 10.0273925592 6.8921907524 
Si 8.1087852942 8.5500755695 5.4161997388 
Si 9.6362389534 9.9958696855 6.8209894279 
Si -0.0331174162 2.8950364543 8.2518997847 
Si 2.7641908773 -0.0213787093 8.1097377743 
Si 4.0956742783 1.5052584865 9.5480682947 
Si 5.4847217838 2.7855489510 8.2127282612 
Si 8.2600131811 0.0298616435 8.1412301721 
Si 9.5564081402 1.5324858107 9.6025420046 
Si 1.3788877734 4.3163706614 9.5924047315 
Si 2.7202108388 5.7075048491 8.1483613364 
Si 6.7779665379 4.4052375127 9.5769472343 
Si 4.0970074171 7.2380475228 9.5293191516 
Si 8.1120412326 5.7852907938 8.1013064014 
Si 9.4965092713 7.0903866317 9.4500169646 
Si 0.0208372840 8.5784561924 8.0878094010 
Si 1.4355650420 10.1103456818 9.5452793874 
Si 5.5309806469 8.5869085582 8.1252050367 
Si 6.8230025480 9.9652114246 9.5440233565 

