&CONTROL
   calculation      = 'scf'
   tstress          = .true.
   tprnfor          = .true.
   outdir           = './'
   disk_io          = 'none'
   pseudo_dir       = '/home/ppiaggi/pseudos'
/
&SYSTEM
   ecutwfc          = 30
   occupations      = 'smearing'
   degauss          = 0.01
   smearing         = 'fermi-dirac'
   input_dft        = 'PBE'
   ntyp             = 1
   nat              = 64
   ibrav            = 0
/
&ELECTRONS
   electron_maxstep = 1000
   mixing_beta      = 0.5
/
&IONS
/
&CELL
/

ATOMIC_SPECIES
Si 28.085 Si_ONCV_PBE_sr.upf

K_POINTS gamma

CELL_PARAMETERS angstrom
10.80266422302209 0.00000000000000 0.00000000000000
0.00000000000000 10.82109248458460 0.00000000000000
0.00000000000000 0.00000000000000 11.09861091502440

ATOMIC_POSITIONS angstrom
Si 0.0750458538 0.0230292070 0.0831028093 
Si 0.0942190915 2.8587645900 2.9030497753 
Si 2.6742974229 0.0516250718 2.8485063905 
Si 2.5928140063 2.7930032302 0.0591627769 
Si 1.2885404912 1.4445713907 1.3363819771 
Si 5.3524694344 -0.0995987318 0.0270977957 
Si 5.4125605814 2.7059332241 2.8163846913 
Si 6.6424720420 1.2919645015 1.3523069198 
Si 8.0332173634 -0.0234403671 2.8150701777 
Si 8.0377397274 2.7566335900 -0.0465893079 
Si -0.0251738005 5.6366576015 0.0744845795 
Si 2.7189658116 5.5889778483 2.8320146772 
Si 1.3320216073 6.8911366570 1.3626590265 
Si 3.9917286549 4.1056239233 1.3107109479 
Si 5.3160473896 5.6090789444 0.0076432603 
Si 6.7820384863 6.9799746060 1.4448714570 
Si 9.4532095054 4.1512303278 1.4776733561 
Si 8.0489743729 5.5322389032 2.8555089506 
Si 0.0756068370 8.2614960054 2.8848865056 
Si 2.5980299090 8.2170125850 0.0833623296 
Si 4.0283600558 9.6975004718 1.4391538283 
Si 5.4056617277 8.3930160264 2.8098536281 
Si 8.1048712024 8.4069440772 -0.0267477372 
Si 9.3411368078 9.7761772251 1.3527879966 
Si 0.0184557338 -0.0960136335 5.5406017432 
Si 2.6848435937 2.8055514829 5.5564591244 
Si 1.2743327005 1.3870169389 6.9593818654 
Si 4.0630945491 1.3505205087 4.1502490713 
Si 5.4452857052 0.0002737703 5.6648461348 
Si 6.6348799705 1.3150672980 6.9796187638 
Si 9.4483472417 1.3496853355 4.2372042138 
Si 8.0244156950 2.7671686827 5.5885425504 
Si 1.3038195748 4.2432219965 4.2532392204 
Si 0.0520764174 5.4987723015 5.6376789952 
Si 1.3069926463 7.0044538220 7.0308286635 
Si 6.6233681389 4.0862581643 4.1879425414 
Si 3.9774359171 6.9978501030 4.1866974199 
Si 4.0758152117 4.1433943032 7.1073912653 
Si 5.2685134168 5.4406679828 5.6117815452 
Si 6.7253882591 7.0119234003 7.1306090641 
Si 9.3873419366 7.0107222018 4.2610728778 
Si 9.2859981297 4.2251268930 7.0871917569 
Si 1.4334189236 9.7103402586 4.3141638808 
Si 2.6153457048 8.3221884572 5.6343104732 
Si 6.7329234051 9.6940563754 4.1386283494 
Si 3.9770589691 9.7779421573 7.0654456854 
Si 8.0571967241 8.3296060653 5.5562453536 
Si 9.3455108075 9.6718344456 6.9929275013 
Si -0.0137221941 2.8577469720 8.4630945119 
Si 2.6258125235 -0.0498003363 8.4557871059 
Si 4.0142646849 1.3155482794 9.8620702764 
Si 5.2938259289 2.8381212592 8.5088667755 
Si 7.9377962573 -0.0639694451 8.3483787833 
Si 9.3230453878 1.4240134791 9.9315913575 
Si 1.3778171765 4.0833637935 9.9005806187 
Si 2.6725609768 5.4900764400 8.4677617365 
Si 6.6521850736 4.2137750215 9.8159654230 
Si 4.0442927623 6.9054228740 9.8084507853 
Si 7.9998801736 5.5323766192 8.3537384558 
Si 9.3549915230 7.0086849704 9.7853055192 
Si 0.0476232435 8.2105415008 8.3623249109 
Si 1.4095068096 9.6907360032 9.8239890942 
Si 5.4340436389 8.3183469742 8.5403126586 
Si 6.7056334859 9.7080363459 9.9387858501 

