&CONTROL
   calculation      = 'scf'
   tstress          = .true.
   tprnfor          = .true.
   outdir           = './'
   disk_io          = 'none'
   pseudo_dir       = '/home/ppiaggi/pseudos'
/
&SYSTEM
   ecutwfc          = 30
   occupations      = 'smearing'
   degauss          = 0.01
   smearing         = 'fermi-dirac'
   input_dft        = 'PBE'
   ntyp             = 1
   nat              = 64
   ibrav            = 0
/
&ELECTRONS
   electron_maxstep = 1000
   mixing_beta      = 0.5
/
&IONS
/
&CELL
/

ATOMIC_SPECIES
Si 28.085 Si_ONCV_PBE_sr.upf

K_POINTS gamma

CELL_PARAMETERS angstrom
11.22337221201690 0.00000000000000 0.00000000000000
0.00000000000000 10.66250024343984 0.00000000000000
0.00000000000000 0.00000000000000 10.70223652680140

ATOMIC_POSITIONS angstrom
Si -0.0279394404 0.0268952297 -0.0887046151 
Si -0.0007769843 2.6306417437 2.7219996779 
Si 2.8385908196 0.0101539026 2.5597763378 
Si 2.7601842010 2.6927861526 -0.0430826968 
Si 1.3214675424 1.3881302493 1.3950188255 
Si 5.6931956060 -0.0454765920 -0.0221117771 
Si 5.6654630967 2.5734373348 2.5836100559 
Si 7.1079030353 1.2801795048 1.4171285938 
Si 8.5315973033 0.0301437273 2.6829456419 
Si 8.4512041756 2.5767625098 -0.0454466961 
Si 0.0042646602 5.3233046797 -0.0438230144 
Si 2.8783336755 5.3065241702 2.6555222023 
Si 1.4089059913 6.6430909776 1.3061579335 
Si 4.2243247665 4.0582546587 1.3699140694 
Si 5.7485035066 5.3451875111 -0.0390028644 
Si 7.0301910461 6.6267927922 1.2932753078 
Si 9.8286097220 3.9291851529 1.2856885497 
Si 8.3973281722 5.2627625065 2.6974155550 
Si -0.0478692305 7.9306148577 2.6922725634 
Si 2.8790307497 8.0930036202 -0.0086656465 
Si 4.2351434354 9.3068136384 1.2409883245 
Si 5.7310554897 7.9481615685 2.6876608831 
Si 8.3859532532 8.0494219105 -0.0278063298 
Si 9.9315342359 9.4104183547 1.2460943525 
Si -0.0141864131 -0.0070376836 5.3549961782 
Si 2.7901961258 2.7214153943 5.3135838462 
Si 1.4239880544 1.3049837828 6.5607644226 
Si 4.2590648396 1.2564598187 4.0299707475 
Si 5.6680117533 -0.0701799994 5.3954084484 
Si 7.0333709336 1.2878930484 6.6410319022 
Si 9.9566960474 1.3402257481 3.8956494060 
Si 8.3818835026 2.5966496390 5.3081703756 
Si 1.4850549567 4.0865585734 3.9734122025 
Si -0.0349354725 5.2410902308 5.2558780437 
Si 1.4182575168 6.5791538407 6.6694024808 
Si 7.0661111786 4.0786452747 4.0203774784 
Si 4.1963559589 6.7569915476 4.0334880528 
Si 4.2157127372 4.0614878446 6.7212502997 
Si 5.6794010894 5.3026370110 5.3786373773 
Si 7.1498747849 6.7384432979 6.6127081857 
Si 9.9108878994 6.7082892423 3.9206273666 
Si 9.9333556404 3.9365520699 6.6027983979 
Si 1.4234919905 9.4027597058 3.9308610417 
Si 2.7613548832 8.0417605111 5.2720783715 
Si 7.0856237739 9.4304538687 3.9271787697 
Si 4.2884770012 9.2827940269 6.7228276907 
Si 8.5624682207 7.9557553780 5.2612920885 
Si 9.9808751463 9.4082360967 6.7322467156 
Si -0.0951056200 2.7487584072 8.0140688274 
Si 2.8236827534 -0.0540898692 7.9268492330 
Si 4.1715044399 1.3423484299 9.1987725859 
Si 5.6732085414 2.7220415560 7.9829690106 
Si 8.5491653400 -0.0454343311 7.9617726443 
Si 9.9746383159 1.3235730940 9.3296691318 
Si 1.4216493762 3.9994402105 9.2833425454 
Si 2.9131544355 5.3751315749 7.8828176949 
Si 7.0533163158 3.9641826553 9.3339490680 
Si 4.1978999448 6.5902692036 9.2348546811 
Si 8.4586102211 5.3425451289 8.0318760793 
Si 9.8073390972 6.6868517666 9.2099382476 
Si -0.0480130203 8.0922589339 8.0028194007 
Si 1.4986516522 9.4276103495 9.3310985799 
Si 5.6976372100 7.9131765270 7.9065513865 
Si 7.0658373719 9.3151263388 9.3609113710 

