&CONTROL
   calculation      = 'scf'
   tstress          = .true.
   tprnfor          = .true.
   outdir           = './'
   disk_io          = 'none'
   pseudo_dir       = '/home/ppiaggi/pseudos'
/
&SYSTEM
   ecutwfc          = 30
   occupations      = 'smearing'
   degauss          = 0.01
   smearing         = 'fermi-dirac'
   input_dft        = 'PBE'
   ntyp             = 1
   nat              = 64
   ibrav            = 0
/
&ELECTRONS
   electron_maxstep = 1000
   mixing_beta      = 0.5
/
&IONS
/
&CELL
/

ATOMIC_SPECIES
Si 28.085 Si_ONCV_PBE_sr.upf

K_POINTS gamma

CELL_PARAMETERS angstrom
11.24654742611394 0.00000000000000 0.00000000000000
0.00000000000000 11.05627164042708 0.00000000000000
0.00000000000000 0.00000000000000 10.74374068703728

ATOMIC_POSITIONS angstrom
Si 0.1023369650 -0.0508063495 -0.0911163751 
Si 0.0049274178 2.7990971685 2.7960397720 
Si 2.9211353006 -0.0326033411 2.7694833516 
Si 2.8849817437 2.8064432159 -0.0477421523 
Si 1.3461170827 1.4546490109 1.4527219150 
Si 5.8268806332 -0.0928263364 0.0407711669 
Si 5.7234791903 2.8083783019 2.8157824570 
Si 7.2076378884 1.4446871529 1.3237976664 
Si 8.5712505683 -0.0453250561 2.7710761308 
Si 8.6117914542 2.7053875493 -0.0325304372 
Si 0.0171268916 5.4726936464 -0.0230115555 
Si 2.8007480530 5.5916930602 2.6910445687 
Si 1.4396778405 6.9216863400 1.2886888747 
Si 4.3635954857 4.1261008574 1.4012980937 
Si 5.8142821609 5.5924588253 0.0873815233 
Si 7.2495502126 6.9974427565 1.4790637201 
Si 10.0681226727 4.1051035169 1.4695580711 
Si 8.6052465662 5.6090450609 2.7789258465 
Si 0.0960846882 8.3103644621 2.7813591175 
Si 2.8108744389 8.3402573215 -0.0879067677 
Si 4.3488939075 9.7613325611 1.3561737050 
Si 5.7315983668 8.3563181051 2.6923112962 
Si 8.5907861019 8.2653967850 0.0651096553 
Si 10.0606347043 9.6415585575 1.4286719012 
Si -0.0520152585 0.0850077153 5.4434251871 
Si 2.8215037576 2.8431014137 5.4556996188 
Si 1.4233723486 1.4075030932 6.8545955112 
Si 4.3144577478 1.3766096387 4.1049710167 
Si 5.6517585091 0.0040314917 5.5385510165 
Si 7.1354144968 1.2856062323 6.8985278144 
Si 10.1298982973 1.4018529467 4.0542795453 
Si 8.7120996043 2.7918229270 5.4273950008 
Si 1.3364190823 4.0961862350 4.1030411839 
Si 0.0784890412 5.5148883921 5.5942860962 
Si 1.4517421841 6.8535442076 6.8966702978 
Si 7.1722001055 4.0663521335 4.1561375097 
Si 4.4073354033 6.8314719129 4.1145487930 
Si 4.2160852753 4.0439699833 6.9240512464 
Si 5.7679727006 5.5926286417 5.5367997260 
Si 7.1417705647 6.9024409259 6.9447895006 
Si 10.1493039100 6.8321885010 4.0609284203 
Si 10.0915563822 4.1023763148 6.8305185685 
Si 1.3570049673 9.7688424196 4.0668352086 
Si 2.8610076133 8.3374039901 5.4598814706 
Si 7.1222388485 9.6854213894 4.0700522721 
Si 4.3042892950 9.6750776918 6.9209341305 
Si 8.5573116349 8.3578913645 5.4614790037 
Si 10.1478627529 9.6789617319 6.8338888462 
Si 0.0640010745 2.8435655213 8.3562158681 
Si 2.7810992067 0.0130260786 8.2785439169 
Si 4.2876717238 1.4427987670 9.7234206718 
Si 5.7566724345 2.7787436715 8.2115032114 
Si 8.5755979599 0.0950574285 8.3112687113 
Si 10.0632843695 1.2842512683 9.6850553703 
Si 1.4551907373 4.1016461220 9.5575026999 
Si 2.8914214821 5.6153460537 8.2467474435 
Si 7.2583149507 4.0784302682 9.6141416698 
Si 4.2831100531 7.0045138280 9.7015566154 
Si 8.6552242091 5.5836391827 8.1891243700 
Si 10.1294573442 6.9081545144 9.7174447166 
Si 0.0402074291 8.2408279351 8.2764485588 
Si 1.3478800212 9.6578775261 9.6540749167 
Si 5.8304617544 8.3002005070 8.1828556400 
Si 7.2524181249 9.6677447552 9.6288389182 

