&CONTROL
   calculation      = 'scf'
   tstress          = .true.
   tprnfor          = .true.
   outdir           = './'
   disk_io          = 'none'
   pseudo_dir       = '/home/ppiaggi/pseudos'
/
&SYSTEM
   ecutwfc          = 30
   occupations      = 'smearing'
   degauss          = 0.01
   smearing         = 'fermi-dirac'
   input_dft        = 'PBE'
   ntyp             = 1
   nat              = 64
   ibrav            = 0
/
&ELECTRONS
   electron_maxstep = 1000
   mixing_beta      = 0.5
/
&IONS
/
&CELL
/

ATOMIC_SPECIES
Si 28.085 Si_ONCV_PBE_sr.upf

K_POINTS gamma

CELL_PARAMETERS angstrom
10.99303621447028 0.00000000000000 0.00000000000000
0.00000000000000 10.80451854678488 0.00000000000000
0.00000000000000 0.00000000000000 11.14088323204621

ATOMIC_POSITIONS angstrom
Si 0.0738618362 -0.0940187440 0.0335099643 
Si 0.0587778440 2.7727781818 2.9251903251 
Si 2.6608377431 0.0740973793 2.8815141629 
Si 2.6976822926 2.7602978162 -0.0406745547 
Si 1.4240468995 1.4674530979 1.4868017145 
Si 5.4534621674 -0.0850981963 0.0042370183 
Si 5.4213025543 2.8252515612 2.9504903580 
Si 6.8199998868 1.4063950010 1.3458507170 
Si 7.9964806717 -0.0233937437 2.9440730856 
Si 8.1618795538 2.7643745528 0.0709081208 
Si 0.0160918194 5.4935237843 0.0926293855 
Si 2.7307180134 5.6378057886 2.7847558294 
Si 1.3055534521 6.9294587334 1.4353164662 
Si 3.9881835235 4.1653232699 1.4438532623 
Si 5.4210693677 5.6358253142 0.0453013788 
Si 6.6367503282 6.9480944875 1.4246353258 
Si 9.3166320885 4.0969203586 1.5070850336 
Si 8.0427607172 5.5230274711 2.8940436935 
Si 0.0416017764 8.2986791832 2.9163961693 
Si 2.7635939686 8.4370104869 -0.0427797880 
Si 3.9534132254 9.7062889133 1.4601692685 
Si 5.3069243435 8.3599108267 2.9126666869 
Si 8.1484443899 8.3533062444 0.0237632379 
Si 9.4362757841 9.7242116209 1.4432072241 
Si -0.0423099754 -0.0445922150 5.6897186821 
Si 2.7814306539 2.8527097706 5.7198986850 
Si 1.3605205615 1.3972794326 7.2038099328 
Si 4.0424467781 1.4000059077 4.3154853986 
Si 5.4582604398 -0.0913383180 5.6366469833 
Si 6.7109538927 1.3091891753 7.0420149965 
Si 9.3544672903 1.4497745147 4.3725728303 
Si 8.1346047032 2.7286372730 5.7782716153 
Si 1.2496603874 4.1021048117 4.2658338773 
Si 0.0332260551 5.4719617628 5.7809466914 
Si 1.4060794016 6.9305283585 7.0873386254 
Si 6.7578863452 4.2454224928 4.2413122296 
Si 4.0229206204 6.9250082249 4.2009731974 
Si 4.0939579887 4.1607101978 7.1056911157 
Si 5.3449488620 5.5398464011 5.6741795938 
Si 6.6469791626 6.9357593585 7.0851257683 
Si 9.4761594441 6.9502322951 4.3784680903 
Si 9.3143155122 4.2699909921 7.2184396522 
Si 1.3232901373 9.6419031116 4.2221036127 
Si 2.6250968443 8.2905350441 5.6827343429 
Si 6.6568821291 9.7431283485 4.3132052603 
Si 3.9753591580 9.7914106155 7.1378012767 
Si 8.1210261923 8.3521588728 5.6703893828 
Si 9.4061663684 9.7690358928 7.0953506214 
Si -0.0048079064 2.7499340462 8.5176041455 
Si 2.5987298337 0.0811561616 8.5156081445 
Si 3.9375360202 1.3838252890 9.9297725375 
Si 5.4020706074 2.8819502815 8.5559039455 
Si 8.0377763557 -0.0444464356 8.5394205304 
Si 9.3449867595 1.2925830782 9.9944628600 
Si 1.4072940939 4.2568933251 10.0200633987 
Si 2.7758044790 5.4899386231 8.6421839636 
Si 6.7073904811 4.0865736142 10.0843358389 
Si 3.9516338411 7.0426169586 10.0817483003 
Si 8.1096527800 5.5487321658 8.4786834797 
Si 9.4369149562 7.0207654091 9.9433583701 
Si -0.0556088443 8.2673762098 8.5985904097 
Si 1.2931172690 9.7500756305 9.9994252073 
Si 5.3777530468 8.2548276853 8.5396553782 
Si 6.6864532517 9.7715430274 10.0997238412 

