&CONTROL
   calculation      = 'scf'
   tstress          = .true.
   tprnfor          = .true.
   outdir           = './'
   disk_io          = 'none'
   pseudo_dir       = '/home/ppiaggi/pseudos'
/
&SYSTEM
   ecutwfc          = 30
   occupations      = 'smearing'
   degauss          = 0.01
   smearing         = 'fermi-dirac'
   input_dft        = 'PBE'
   ntyp             = 1
   nat              = 64
   ibrav            = 0
/
&ELECTRONS
   electron_maxstep = 1000
   mixing_beta      = 0.5
/
&IONS
/
&CELL
/

ATOMIC_SPECIES
Si 28.085 Si_ONCV_PBE_sr.upf

K_POINTS gamma

CELL_PARAMETERS angstrom
10.91779828410492 0.00000000000000 0.00000000000000
0.00000000000000 11.16938114804268 0.00000000000000
0.00000000000000 0.00000000000000 11.18996544873631

ATOMIC_POSITIONS angstrom
Si -0.0952203099 0.0340675185 0.1029446832 
Si 0.0434507465 2.7049332651 2.8682427931 
Si 2.8504249672 -0.0493235344 2.8746505340 
Si 2.7717339672 2.8150817537 0.0104210191 
Si 1.4677333158 1.4145257745 1.4222513959 
Si 5.6116787163 -0.0302003525 0.0078402912 
Si 5.5307869849 2.6628024074 2.8715773596 
Si 6.8292403955 1.2940169892 1.4838998119 
Si 8.2059483578 -0.0696224718 2.7938044368 
Si 8.2640808075 2.6737660177 -0.0070306356 
Si 0.0582211234 5.5634006838 0.0331780931 
Si 2.8127012446 5.4496780702 2.9115597818 
Si 1.3370965554 6.8322682297 1.4266779754 
Si 4.0828492502 4.1016660353 1.4552136765 
Si 5.5548423365 5.4323365977 0.0572993423 
Si 6.8353791544 6.8218078993 1.3946977683 
Si 9.5797471280 4.1019829414 1.4073784077 
Si 8.3704850205 5.4162405198 2.9205324043 
Si 0.0861592137 8.3206946528 2.8238253689 
Si 2.7062799918 8.2948574188 -0.0113780632 
Si 4.2370181323 9.6602997586 1.3463961205 
Si 5.5152301329 8.1921936421 2.9159025578 
Si 8.3289517735 8.2716833512 0.0230584568 
Si 9.6957292501 9.5518509723 1.4568990238 
Si 0.0292854557 0.0169464202 5.6517798511 
Si 2.8231755273 2.6808796691 5.7649967367 
Si 1.4445098145 1.2928944250 7.1365644173 
Si 4.1618452290 1.2848919266 4.3066603463 
Si 5.4490442173 -0.0524653159 5.6369781169 
Si 6.8803256551 1.3762062382 7.1506902152 
Si 9.5902445889 1.3604473940 4.3238801814 
Si 8.3227258537 2.6936394816 5.7003578832 
Si 1.3641483910 4.0920064464 4.2889724752 
Si 0.0193857305 5.6054727784 5.6612277821 
Si 1.3539715987 6.9085190193 7.0512341283 
Si 6.9826831585 4.1115159541 4.3045179428 
Si 4.2372159543 6.8398308157 4.3343396189 
Si 4.2107329027 4.1887135970 7.1118850715 
Si 5.4874784696 5.4882153028 5.7039893423 
Si 6.9439501909 6.9645280477 7.2324608637 
Si 9.7410073528 6.8284780202 4.3881278875 
Si 9.6961364130 4.0377825404 7.1301553579 
Si 1.4615949889 9.6157730530 4.1957910497 
Si 2.6786920465 8.3490702162 5.6165461772 
Si 6.8159350712 9.6949179456 4.2946326868 
Si 4.0973712262 9.6565184532 7.2416167561 
Si 8.2180959666 8.3337286333 5.6152380594 
Si 9.7738911878 9.7337650333 7.1138939827 
Si 0.0858798661 2.7663834028 8.5078100927 
Si 2.7369755325 0.0844554846 8.5124212049 
Si 4.2134983840 1.3681962624 9.9236955703 
Si 5.4689758427 2.8134929541 8.4802942847 
Si 8.3815042545 0.0613520270 8.4754900120 
Si 9.6515925560 1.4482424371 10.0971311096 
Si 1.3922494330 4.0761661442 9.9095094995 
Si 2.7314928044 5.4525462005 8.4875308304 
Si 6.9780173930 4.1673985983 10.0197777529 
Si 4.1023596174 6.8534138228 10.0472178898 
Si 8.3708143787 5.4680404709 8.4796848563 
Si 9.7512312819 6.8821734799 10.0678703306 
Si -0.0269971737 8.3195609247 8.6689006847 
Si 1.2891740061 9.6897493135 10.0624306050 
Si 5.5555752924 8.2827735571 8.5724333807 
Si 6.9074617554 9.7396629269 10.1020793863 

