&CONTROL
   calculation      = 'scf'
   tstress          = .true.
   tprnfor          = .true.
   outdir           = './'
   disk_io          = 'none'
   pseudo_dir       = '/home/ppiaggi/pseudos'
/
&SYSTEM
   ecutwfc          = 30
   occupations      = 'smearing'
   degauss          = 0.01
   smearing         = 'fermi-dirac'
   input_dft        = 'PBE'
   ntyp             = 1
   nat              = 64
   ibrav            = 0
/
&ELECTRONS
   electron_maxstep = 1000
   mixing_beta      = 0.5
/
&IONS
/
&CELL
/

ATOMIC_SPECIES
Si 28.085 Si_ONCV_PBE_sr.upf

K_POINTS gamma

CELL_PARAMETERS angstrom
11.27522022769491 0.00000000000000 0.00000000000000
0.00000000000000 10.66886618687711 0.00000000000000
0.00000000000000 0.00000000000000 10.96560718108429

ATOMIC_POSITIONS angstrom
Si -0.0508672679 0.0751472155 0.0278638936 
Si -0.0464465688 2.5752276947 2.6116445236 
Si 2.9298189869 0.0869676868 2.6219152229 
Si 2.8542804057 2.6676140603 -0.0272940789 
Si 1.3552578424 1.3882259817 1.3267525999 
Si 5.7168909760 -0.0526498989 0.0454684900 
Si 5.6560625017 2.5851232214 2.7450613134 
Si 7.1651941722 1.2906042646 1.3713746221 
Si 8.4072062223 0.0207173348 2.7856402956 
Si 8.4232062871 2.6236307573 0.0932750236 
Si -0.0961146100 5.2529613429 0.0865853449 
Si 2.8673779267 5.2323617578 2.7533624463 
Si 1.5061753330 6.6157352275 1.3988913075 
Si 4.2199120260 3.8660519683 1.4079119501 
Si 5.7050806456 5.3336078974 0.0438102273 
Si 7.0453443126 6.5452316752 1.3655657872 
Si 9.9242857369 3.9577865189 1.4143176053 
Si 8.5459090333 5.2378450269 2.6414156067 
Si 0.0594932637 7.8415459498 2.6734039180 
Si 2.8168265574 7.8341671988 0.0676930458 
Si 4.2580800863 9.1176641703 1.4361365735 
Si 5.6396184887 7.8127102050 2.7383565751 
Si 8.4901177749 7.8493331466 -0.0361470358 
Si 9.9914913921 9.1813850882 1.2838596537 
Si 0.0218023471 -0.0826541147 5.3219125959 
Si 2.8411092352 2.5606623493 5.3196465156 
Si 1.4949455963 1.2944814937 6.7691680547 
Si 4.2120040871 1.3906456758 3.9958052241 
Si 5.7023198037 -0.0883295718 5.4524932393 
Si 7.0314723740 1.3456766870 6.8021396774 
Si 9.9272231131 1.2230294656 3.9874815624 
Si 8.5446667793 2.6536331093 5.3515535079 
Si 1.4241026060 3.9606077146 4.0819336265 
Si -0.0523026943 5.1738699881 5.2920373598 
Si 1.5009152950 6.5667255194 6.7646265508 
Si 7.0330223229 3.9564904659 4.1224546578 
Si 4.2314076914 6.5123111234 3.9833562666 
Si 4.3175838999 3.8463902112 6.6710681165 
Si 5.5754883166 5.2022795146 5.3749464235 
Si 7.0508941797 6.4921490439 6.7145871738 
Si 9.9225658118 6.5903412991 4.0955030359 
Si 9.9447330063 3.9664941845 6.6602866769 
Si 1.4432216485 9.0896030245 4.0004862287 
Si 2.7820541725 7.7800391114 5.3418024913 
Si 7.0589740257 9.1428847577 4.1086188320 
Si 4.3014708245 9.2570687722 6.6388876109 
Si 8.5331930720 7.8033358668 5.4597071551 
Si 9.9639818821 9.2653495139 6.6641918417 
Si -0.0232995379 2.6400251301 7.9964671504 
Si 2.7992061475 0.0095357324 8.1292707983 
Si 4.1969734174 1.3251131994 9.3266931701 
Si 5.7425896018 2.5855301502 8.0124601446 
Si 8.4089339710 0.0854469330 8.0631948221 
Si 9.8324157145 1.3638001558 9.3983334329 
Si 1.3149044441 3.8408590785 9.4368644320 
Si 2.9208745722 5.3240069151 7.9862121658 
Si 7.1566405658 3.9762843678 9.4683050782 
Si 4.3499181776 6.5138877374 9.4571111849 
Si 8.5130110631 5.3006254461 8.0092202394 
Si 10.0087335582 6.4818130140 9.4356586733 
Si 0.0048016816 7.8333557928 8.0722170011 
Si 1.4667324833 9.1192120303 9.3321000590 
Si 5.5749359725 7.9506217263 8.0754108564 
Si 7.1140851050 9.2324569063 9.4136888219 

