&CONTROL
   calculation      = 'scf'
   tstress          = .true.
   tprnfor          = .true.
   outdir           = './'
   disk_io          = 'none'
   pseudo_dir       = '/home/ppiaggi/pseudos'
/
&SYSTEM
   ecutwfc          = 30
   occupations      = 'smearing'
   degauss          = 0.01
   smearing         = 'fermi-dirac'
   input_dft        = 'PBE'
   ntyp             = 1
   nat              = 64
   ibrav            = 0
/
&ELECTRONS
   electron_maxstep = 100
   mixing_beta      = 0.5
/
&IONS
/
&CELL
/

ATOMIC_SPECIES
Si 28.085 Si_ONCV_PBE_sr.upf

K_POINTS gamma

CELL_PARAMETERS angstrom
10.63603391477933 0.00000000000000 0.00000000000000
0.00000000000000 10.63603391477933 0.00000000000000
0.00000000000000 0.00000000000000 10.63603391477933

ATOMIC_POSITIONS angstrom
Si 3.1292062660 3.8710164514 5.0641241918 
Si 6.4778551837 8.0428093058 6.3814182642 
Si 0.7598903794 2.9348008381 9.3052001712 
Si 2.5971705775 0.0535389230 10.0596459649 
Si 0.7800988439 9.3212286743 0.2955456016 
Si 8.3483825602 7.1404375525 6.4583167894 
Si 1.6905550466 3.4079554428 3.2921183975 
Si 0.4860018701 6.4095612100 3.5198996998 
Si 3.5367152694 5.8544240558 3.7250262499 
Si 9.0530198071 6.7562427354 4.3324714188 
Si 10.6200266837 1.1455327607 0.5813932675 
Si 3.6304400003 9.4068168392 6.5240368430 
Si 8.9539345151 1.3854710498 7.7231433065 
Si 6.7442771973 9.6911392978 8.6160596258 
Si 10.4781419913 7.6434155963 9.5703458607 
Si 7.8502120037 2.7792913862 0.6479482497 
Si 4.1364280417 1.3517335502 5.8330881718 
Si 4.1144433596 2.0947562435 3.3924374694 
Si 4.4775788295 1.0999998995 8.2950003060 
Si 5.7920118088 3.1668259180 1.8537968951 
Si 1.3653264016 5.7249303429 9.7683675401 
Si 2.6284192452 6.2135816490 5.8003717315 
Si 2.2624864983 2.7809506075 7.2260469895 
Si 6.8419798048 8.1260043631 0.5186810843 
Si 7.8099227072 5.3045091943 7.5375657868 
Si 10.3852043270 2.5927566234 2.5752709837 
Si 5.1848112686 7.6266106627 8.0014351339 
Si 8.6917030990 0.9787289044 2.9089020955 
Si 6.7030412938 0.7153190157 6.9393207872 
Si 1.8567430765 6.0181977060 1.7576684206 
Si 9.1813861004 2.7390233618 9.3972975889 
Si 2.1721865704 8.5699843268 2.2557964330 
Si 6.8292697443 0.5934407031 10.3759828856 
Si 8.8240685410 8.7250577013 2.5388744756 
Si 3.1825034319 2.0748668601 0.6671505453 
Si 7.4525626037 3.9681978933 5.8427988707 
Si 7.9819924639 6.1065937839 0.8859858795 
Si 2.6115611314 8.8121030029 8.6305778120 
Si 7.5223668943 9.8443726384 4.1735265280 
Si 5.8034242732 5.5210588448 1.8704635603 
Si 10.1290354501 5.8582104839 0.9718154824 
Si 6.4673786903 6.6357577432 4.2532861463 
Si 4.1926182089 7.4311522675 1.8921185253 
Si 2.7899912364 0.0923101383 4.7864067103 
Si 1.4763665956 8.2353321557 5.3146453346 
Si 8.6955958874 4.7417991840 9.6791524876 
Si 4.1515524819 5.0472767141 0.1497617391 
Si 3.6369173449 5.4235902300 7.6966383100 
Si 1.0626323216 0.2134992360 2.9547859458 
Si 9.7799820891 2.8593594495 6.2161662053 
Si 3.3318439841 3.3910441489 9.3420221206 
Si 8.7202289419 10.4830452029 0.7919941842 
Si 0.7098595395 0.2507998069 8.7157937158 
Si 5.6565938250 9.5941705766 1.7220589791 
Si 1.9772174327 0.6773696467 6.9677615419 
Si 9.1973720594 4.4065301230 4.0608271126 
Si 9.2790887079 9.9135600391 5.7844070446 
Si 5.0982658607 8.5041153688 4.2475001439 
Si 0.4544192310 0.9625355428 5.1072320373 
Si 6.6722712477 2.5249519072 4.0170811051 
Si 5.8083062128 2.6601784424 9.7118263838 
Si 10.4260360612 8.4293440504 7.1091357047 
Si 5.6276957209 4.1391083222 7.6186549094 
Si 0.6616687334 4.2577107364 5.6531690221 

