&CONTROL
   calculation      = 'scf'
   tstress          = .true.
   tprnfor          = .true.
   outdir           = './'
   disk_io          = 'none'
   pseudo_dir       = '/home/ppiaggi/pseudos'
/
&SYSTEM
   ecutwfc          = 30
   occupations      = 'smearing'
   degauss          = 0.01
   smearing         = 'fermi-dirac'
   input_dft        = 'PBE'
   ntyp             = 1
   nat              = 64
   ibrav            = 0
/
&ELECTRONS
   electron_maxstep = 100
   mixing_beta      = 0.5
/
&IONS
/
&CELL
/

ATOMIC_SPECIES
Si 28.085 Si_ONCV_PBE_sr.upf

K_POINTS gamma

CELL_PARAMETERS angstrom
10.95946797614332 0.00000000000000 0.00000000000000
0.00000000000000 10.95946797614332 0.00000000000000
0.00000000000000 0.00000000000000 10.95946797614332

ATOMIC_POSITIONS angstrom
Si 2.8367706099 2.7483167438 7.8956281493 
Si 9.7118859796 7.7762137862 6.4454823061 
Si 10.1968095592 3.3120608171 9.2220306395 
Si 4.3758634951 9.1557368177 0.3639354369 
Si 9.9940046043 0.6068071107 1.9443192136 
Si 3.0619438389 5.7626964917 6.4821198076 
Si 1.7570986222 1.0315456759 2.1348714833 
Si 0.1432490140 6.6633894079 0.0256725537 
Si 4.9626114916 4.6727554826 7.1435346594 
Si 8.2659266532 6.8281869279 3.3111183028 
Si 9.9071289016 1.2992010907 10.8305188759 
Si 3.4851217759 9.8383582401 6.1099581940 
Si 9.7979506816 10.2555084696 6.1132021966 
Si 7.2048528827 8.3623699714 7.4028027933 
Si 1.1241455087 0.3568490449 9.0529479675 
Si 7.4778532300 4.2731404018 1.6706503388 
Si 6.6530436701 1.6401063016 6.4157273506 
Si 4.5624593969 0.8227634272 7.3044963656 
Si 5.8834588694 0.1026704879 10.5114887632 
Si 5.7487998864 3.5627476876 3.4591478368 
Si 1.7547204177 5.0038190912 9.5009710184 
Si 1.2217943684 8.7020915598 4.5673801980 
Si 2.1556287157 7.5448922956 7.5580765356 
Si 7.4040960105 9.0610470144 9.8644088954 
Si 7.9428744157 3.9532335315 9.0512821284 
Si 0.1072726973 3.1602393072 0.6129509885 
Si 2.4557318273 7.3649487909 9.9775325239 
Si 1.0318898032 0.2657934011 4.4550894891 
Si 4.9297002093 9.8145323567 8.4138794709 
Si 3.8181252103 5.7029454723 10.6828181260 
Si 10.5317089816 5.5898766412 8.0699056090 
Si 10.6681214795 9.2982208609 0.6425459358 
Si 7.8364799006 1.9849350020 10.6434626765 
Si 6.8549828271 7.8978967591 1.5556416819 
Si 5.7022331069 5.9107041068 3.9828679330 
Si 7.0887592385 3.9739030881 6.9707367278 
Si 8.5169532672 6.2607933518 9.8065757829 
Si 1.2959132503 9.7584856374 6.8827979568 
Si 5.5039324934 8.5427737738 5.1842776909 
Si 5.5688235032 6.0434890208 1.5330542184 
Si 10.6928022013 8.0202482596 8.4921739101 
Si 7.5710854241 6.7331683405 5.5847804886 
Si 3.1497291774 6.8577884509 1.8652137738 
Si 1.7494269946 3.2765959787 5.9977661204 
Si 0.8133733551 7.5320368397 2.2032585635 
Si 9.3739398251 4.9348511592 0.6847486551 
Si 3.2631925494 4.8360625149 4.2738308483 
Si 5.9015091131 5.8936511746 9.3464644389 
Si 1.9925847106 9.7302978858 1.6920213014 
Si 10.4731744631 3.0295038137 4.0017839747 
Si 4.0727026920 2.9562288108 0.5094234702 
Si 7.3504932527 10.9484865892 1.7138963994 
Si 9.4819563415 10.1152163201 9.8592031481 
Si 6.3820050676 2.1599796245 1.6008604467 
Si 2.0910993683 1.7905797969 10.7686307603 
Si 8.0711221100 4.1670198734 4.6817312869 
Si 7.2326351340 10.3414306986 5.7478354532 
Si 3.4996759494 7.4317686672 4.0793112511 
Si 10.8552105573 1.3203638234 7.0165582634 
Si 8.0909587470 1.2783561826 3.7610044632 
Si 8.6078949325 1.6712202312 7.8345400748 
Si 10.4862271895 7.2765935601 4.2394400377 
Si 4.3268637138 4.0012031229 9.2865380680 
Si 1.3290546815 3.5643477699 2.8216355846 

