&CONTROL
   calculation      = 'scf'
   tstress          = .true.
   tprnfor          = .true.
   outdir           = './'
   disk_io          = 'none'
   pseudo_dir       = '/home/ppiaggi/pseudos'
/
&SYSTEM
   ecutwfc          = 30
   occupations      = 'smearing'
   degauss          = 0.01
   smearing         = 'fermi-dirac'
   input_dft        = 'PBE'
   ntyp             = 1
   nat              = 64
   ibrav            = 0
/
&ELECTRONS
   electron_maxstep = 100
   mixing_beta      = 0.5
/
&IONS
/
&CELL
/

ATOMIC_SPECIES
Si 28.085 Si_ONCV_PBE_sr.upf

K_POINTS gamma

CELL_PARAMETERS angstrom
10.77075747032317 0.00000000000000 0.00000000000000
0.00000000000000 10.77075747032317 0.00000000000000
0.00000000000000 0.00000000000000 10.77075747032317

ATOMIC_POSITIONS angstrom
Si 4.1909232732 4.0357058873 4.7734920033 
Si 5.5376664750 8.3054711052 6.2072521547 
Si 10.6604864553 2.8253635581 8.2427529845 
Si 3.0328729715 0.5640171774 10.1449656905 
Si 1.0406091935 10.0826030048 10.4572853449 
Si 8.2413635567 8.3056649788 6.1808530281 
Si 2.6554656298 3.8144852996 2.7071544949 
Si 0.5431369870 7.5101691444 5.3639341570 
Si 4.8635355357 6.0980689862 3.9083739925 
Si 9.2101824204 7.1382548889 3.9148256762 
Si 10.0649928163 0.7850223499 0.7102528286 
Si 3.9516185837 9.4465790054 7.4876151782 
Si 8.3046956107 0.8941301231 8.2297849925 
Si 6.1470328497 8.6687795254 8.8489958394 
Si 0.8263378985 7.5501717376 10.3411873501 
Si 7.1654187393 2.2123351259 1.6210851653 
Si 3.7906711549 2.6110685675 7.1652248656 
Si 5.0004426339 0.7073404158 4.2232247749 
Si 4.4881638671 0.9133623876 8.2922661566 
Si 4.4919659445 3.1020320052 1.3459677073 
Si 0.6090217104 5.0386680522 9.4965122370 
Si 2.6142351702 5.6552077513 6.6654940313 
Si 1.3771490502 2.6984624936 6.0847563300 
Si 6.8860576027 7.9065222485 0.3147064542 
Si 8.6623278417 6.3605415750 7.5910575330 
Si 10.4935935683 3.5162861083 2.7291052986 
Si 5.1183824282 6.3775162888 9.0457560369 
Si 8.6187062740 0.9631200559 3.0772915753 
Si 5.6858182440 0.9032206424 6.1098306534 
Si 1.9898543596 6.0399930619 2.0283490468 
Si 8.8802310361 2.2797923800 10.2562706982 
Si 3.2905525732 8.1437697233 3.6884135834 
Si 6.6511150700 1.4621087851 9.9872818012 
Si 9.7664058777 9.3673170012 3.4932474581 
Si 2.7391328738 1.5671990657 1.9416983030 
Si 7.5560418004 3.8774834601 5.2892174125 
Si 8.1082369944 5.8092618954 0.6762280058 
Si 3.4581455595 8.8376326903 10.2615268279 
Si 7.1659572771 10.2420748399 4.0089190135 
Si 6.1180595121 5.2208984978 1.9304428614 
Si 10.3848304594 5.8586781307 2.0848416697 
Si 6.9837806853 6.6379747459 4.8141731542 
Si 4.6842239654 9.2235704720 1.7633130177 
Si 1.9408366424 10.2717805890 2.3195795581 
Si 1.7858454424 7.8736714382 7.2885177264 
Si 8.9997433610 4.7918669155 9.5958832455 
Si 4.1881121055 5.9385217558 0.3582730911 
Si 4.7568511830 4.6154957619 6.9600957896 
Si 0.7259188954 8.1839231072 1.7696893062 
Si 8.2800628883 1.4730411039 5.3976681694 
Si 3.3358005254 4.2094274346 9.7481709853 
Si 8.6961372494 9.6265691335 1.5410799789 
Si 0.4280449809 0.6627462487 6.9760795937 
Si 6.5909388481 10.7672246619 1.4402656889 
Si 2.5403262324 0.9251369797 4.2054314835 
Si 9.3302117417 4.7482668893 4.2467911922 
Si 9.3870059458 10.1445348602 6.3316113204 
Si 5.8503092521 8.2765516214 3.6795061670 
Si 10.7561307817 1.4454895063 4.5711740949 
Si 5.9442087158 3.1084406059 3.5419743649 
Si 5.7786514027 4.0377523312 9.5418678967 
Si 0.0345143538 8.7332101966 8.4590297945 
Si 7.3283802998 4.3029283802 7.6558113269 
Si 0.5922204058 5.1418842210 5.7235482075 

