&CONTROL
   calculation      = 'scf'
   tstress          = .true.
   tprnfor          = .true.
   outdir           = './'
   disk_io          = 'none'
   pseudo_dir       = '/home/ppiaggi/pseudos'
/
&SYSTEM
   ecutwfc          = 30
   occupations      = 'smearing'
   degauss          = 0.01
   smearing         = 'fermi-dirac'
   input_dft        = 'PBE'
   ntyp             = 1
   nat              = 64
   ibrav            = 0
/
&ELECTRONS
   electron_maxstep = 100
   mixing_beta      = 0.5
/
&IONS
/
&CELL
/

ATOMIC_SPECIES
Si 28.085 Si_ONCV_PBE_sr.upf

K_POINTS gamma

CELL_PARAMETERS angstrom
10.77368864688606 0.00000000000000 0.00000000000000
0.00000000000000 10.77368864688606 0.00000000000000
0.00000000000000 0.00000000000000 10.77368864688606

ATOMIC_POSITIONS angstrom
Si 4.1022758787 4.0768607472 4.7071861752 
Si 5.5324507255 8.2137524875 6.3004531207 
Si 10.6164789822 2.7213583364 8.1053799534 
Si 2.9687437751 0.6209264620 10.0731834111 
Si 1.0296220313 10.1185514140 10.4529559359 
Si 8.1262809094 8.3249261806 6.1435882140 
Si 2.7374542272 3.8231619269 2.7475491735 
Si 0.5560171426 7.6157588992 5.4297990201 
Si 4.9190723098 5.9456755536 3.9004200482 
Si 9.2340100287 7.2069189624 3.8385252069 
Si 10.0220730321 0.7291330813 0.6974864483 
Si 3.9510240638 9.3846261960 7.4194084236 
Si 8.3122240017 0.9467292709 8.3144972500 
Si 6.1597918417 8.6852306501 8.7731870442 
Si 0.9187866320 7.5415174107 10.2640285318 
Si 7.0780010040 2.2083906988 1.6817727978 
Si 3.6523235460 2.6736093483 7.1669701249 
Si 5.0460186831 0.5581611067 4.1738131713 
Si 4.5166211704 0.9494797936 8.2820684472 
Si 4.4224914527 3.1867709122 1.2572679177 
Si 0.6738866833 5.0968489461 9.4795854877 
Si 2.6287692562 5.6222601941 6.7996627578 
Si 1.3357650132 2.6795133297 6.0576680470 
Si 6.9470144975 7.8359300003 0.3291437297 
Si 8.7898754879 6.3685751540 7.6524540827 
Si 10.5177488994 3.4865272515 2.7005651173 
Si 5.0943171293 6.2384182215 9.0873047104 
Si 8.6708800968 1.0154298513 3.0240127979 
Si 5.6460054038 1.0119003909 6.1900443594 
Si 1.9241807923 6.0008476131 2.1345155158 
Si 8.8608525487 2.2310154450 10.2440541130 
Si 3.2994421481 8.2191608792 3.7972727531 
Si 6.6886937648 1.4540493408 9.9038210255 
Si 9.8297734635 9.3527253039 3.6144217094 
Si 2.6802782616 1.5238951643 2.0523014977 
Si 7.5285458896 3.8503331697 5.2736774979 
Si 8.0394772999 5.8171023532 0.7318308129 
Si 3.4452424766 8.7812242159 10.4371293872 
Si 7.0743918183 10.2637699632 4.0128542629 
Si 6.1376195905 5.2945461328 1.7712267346 
Si 10.3090625503 5.8407936946 2.1735162687 
Si 7.0903584249 6.6386607547 4.8657210036 
Si 4.7270097623 9.3806507048 1.7665186327 
Si 1.7239410151 10.1652769016 2.1793340606 
Si 1.8112186669 7.8950129089 7.3102601839 
Si 9.0520639748 4.7519508515 9.6072321508 
Si 4.2131910033 5.9736225019 0.4659728077 
Si 4.8273235773 4.6630571465 6.9224289400 
Si 0.6515646778 8.0706671286 1.9232111604 
Si 8.2087427223 1.3583251172 5.3510864508 
Si 3.3194704353 4.2861827439 9.7226722246 
Si 8.7331412435 9.6501222053 1.5268794761 
Si 0.4495526288 0.6594219289 6.9756940566 
Si 6.6469457213 0.0341689690 1.3563104374 
Si 2.6419885721 0.9695921156 4.0050756597 
Si 9.4070031473 4.8004863188 4.3094646851 
Si 9.4371587018 10.0934163983 6.4868918027 
Si 5.9615128759 8.2963866794 3.6550600630 
Si 0.0456820559 1.5673346770 4.5277934855 
Si 5.9284376517 3.0779997517 3.5373790619 
Si 5.8159280212 4.0938185331 9.4624445491 
Si 0.0219531144 8.7758481453 8.5221708724 
Si 7.3517712062 4.3332422159 7.5903437676 
Si 0.5515600676 5.1032485172 5.6842735459 

