&CONTROL
   calculation      = 'scf'
   tstress          = .true.
   tprnfor          = .true.
   outdir           = './'
   disk_io          = 'none'
   pseudo_dir       = '/home/ppiaggi/pseudos'
/
&SYSTEM
   ecutwfc          = 30
   occupations      = 'smearing'
   degauss          = 0.01
   smearing         = 'fermi-dirac'
   input_dft        = 'PBE'
   ntyp             = 1
   nat              = 64
   ibrav            = 0
/
&ELECTRONS
   electron_maxstep = 100
   mixing_beta      = 0.5
/
&IONS
/
&CELL
/

ATOMIC_SPECIES
Si 28.085 Si_ONCV_PBE_sr.upf

K_POINTS gamma

CELL_PARAMETERS angstrom
10.76186600434461 0.00000000000000 0.00000000000000
0.00000000000000 10.76186600434461 0.00000000000000
0.00000000000000 0.00000000000000 10.76186600434461

ATOMIC_POSITIONS angstrom
Si 4.2105047411 3.9205693091 4.8895892479 
Si 5.6666605446 8.5876139299 6.0338984601 
Si 0.0439849302 3.0367187779 8.5948351420 
Si 3.1829832988 0.4160795682 10.4242124585 
Si 1.0044372398 9.9996783683 10.4517090261 
Si 8.4318897288 8.0294067021 6.2614796405 
Si 2.3323438861 3.8607010485 2.6566419562 
Si 0.4643702133 7.2994400929 5.0551175089 
Si 4.5834572075 6.3019765423 3.8564285877 
Si 9.1509545678 6.9997006009 4.1453631662 
Si 10.2361596119 0.7752407033 0.8788893110 
Si 3.7977871799 9.4229930166 7.6813679555 
Si 8.2902958578 0.7832798172 7.9357999916 
Si 6.0787323939 8.6608699518 8.9623205804 
Si 0.5660547805 7.3075653017 10.3108039145 
Si 7.4435091931 2.3651460536 1.4365153980 
Si 3.9557821347 2.4906509350 6.9163069013 
Si 4.7115664604 1.1685341726 3.9091832549 
Si 4.5866534817 0.6977681823 8.4947605500 
Si 4.8157520852 3.0172290386 1.4697265165 
Si 0.6633581919 4.8966490320 9.6276298987 
Si 2.7229027652 5.8562953855 6.3574754853 
Si 1.5977173889 2.8316729449 6.2487698768 
Si 6.8324073939 8.1167069591 0.3821463285 
Si 8.3212362225 6.2448956050 7.5357383848 
Si 10.6044629522 3.3735006126 2.7145623191 
Si 5.1435692856 6.7115839243 8.8816926803 
Si 8.7473523070 1.0317809889 3.0981367472 
Si 6.0238791629 0.6470711839 6.4212072558 
Si 2.3047612235 6.2061636493 1.7550773936 
Si 8.9475983477 2.5051471685 10.1956842339 
Si 3.1219635185 7.9367685595 3.2819063711 
Si 6.4006628535 1.4549504745 10.1611816914 
Si 9.7376915023 9.3950767362 3.4001469929 
Si 2.9352128578 1.7382996445 1.3885605231 
Si 7.4532271581 3.8244012745 5.4247660824 
Si 8.1935574443 5.9415724117 0.7825802959 
Si 3.5486284581 8.9281731796 9.8497010037 
Si 7.2751397995 10.0976651583 4.1574379799 
Si 6.0156786210 5.0470999187 2.2519204614 
Si 10.4427874392 5.9328337765 1.7348558474 
Si 6.8631755688 6.4482195394 4.8000289990 
Si 4.5118262274 8.7711467927 1.5484388044 
Si 2.4899836993 10.3209308304 2.7112907118 
Si 1.9926240619 7.9103589404 7.1962553217 
Si 8.8815420142 4.8518366219 9.3721754853 
Si 4.0582889084 5.9416907922 0.2548377584 
Si 4.6957034699 4.8043767929 7.2692638206 
Si 0.9461326783 8.6438554416 1.6097599169 
Si 8.4170491156 1.8098445297 5.6544673504 
Si 3.2241581981 3.9265959541 9.7901555991 
Si 8.5411872399 9.5417286842 1.1815022212 
Si 0.4202928387 0.7285029954 7.1593528831 
Si 6.2767722521 10.5706814548 1.5869555229 
Si 2.2122522233 0.7832561411 4.9538375879 
Si 9.2615542647 4.7131699785 4.1438995524 
Si 9.3114570373 10.3818214683 5.8987939943 
Si 5.5548985661 8.5297473764 3.6905451851 
Si 10.5335530171 1.1353230541 4.5626760443 
Si 6.0813905748 3.0741808335 3.5552470057 
Si 5.7145508483 3.7546966684 9.7817290580 
Si 10.7109300925 8.7741170677 8.2840216899 
Si 7.1989673119 4.3111819976 7.8288808529 
Si 0.5453683216 4.9699588632 5.7220411070 

