&CONTROL
   calculation      = 'scf'
   tstress          = .true.
   tprnfor          = .true.
   outdir           = './'
   disk_io          = 'none'
   pseudo_dir       = '/home/ppiaggi/pseudos'
/
&SYSTEM
   ecutwfc          = 30
   occupations      = 'smearing'
   degauss          = 0.01
   smearing         = 'fermi-dirac'
   input_dft        = 'PBE'
   ntyp             = 1
   nat              = 64
   ibrav            = 0
/
&ELECTRONS
   electron_maxstep = 100
   mixing_beta      = 0.5
/
&IONS
/
&CELL
/

ATOMIC_SPECIES
Si 28.085 Si_ONCV_PBE_sr.upf

K_POINTS gamma

CELL_PARAMETERS angstrom
11.71542056005926 0.00000000000000 0.00000000000000
0.00000000000000 11.71542056005926 0.00000000000000
0.00000000000000 0.00000000000000 11.71542056005926

ATOMIC_POSITIONS angstrom
Si 7.3355520066 2.3133855209 7.9946264210 
Si 10.0157707760 9.7912447410 5.3192929819 
Si 11.5892454806 11.5454532386 4.9911791983 
Si 11.1117132232 6.4735079309 5.4003519768 
Si 1.8740455345 0.9200541521 3.2338309680 
Si 6.8662322589 9.8692460111 0.9455000456 
Si 3.9336047535 8.9738481331 4.6176212983 
Si 4.4444322362 3.0420963951 0.0404364770 
Si 2.9256568302 10.8172695582 10.5575621153 
Si 10.4257402031 10.5820356288 8.5681899808 
Si 11.1333281741 8.2775303967 7.5598203024 
Si 8.7004805098 6.7824787174 4.8053374820 
Si 9.0822509196 1.3794907709 1.2284789999 
Si 9.7545754747 2.6191345667 6.8413487057 
Si 10.3241792223 3.7564324484 9.3747732555 
Si 3.5191248895 1.0867270973 6.1304804169 
Si 6.1068152674 0.2429555631 4.3126571857 
Si 7.3556673837 5.1832300875 1.1190147964 
Si 6.1596635295 9.3461524831 7.4742977323 
Si 5.3659672174 7.6472290552 0.3481143496 
Si 6.8170626389 0.0618778054 6.7431969122 
Si 1.0283854745 0.3117321111 10.1941966312 
Si 3.7276125138 8.0258714477 2.3323293559 
Si 1.6388701821 2.9714992709 6.1820282674 
Si 4.2240065983 3.7143506577 2.4745076999 
Si 1.2211568621 6.2748729753 7.3585845234 
Si 1.6472349924 0.1489018238 0.8608549605 
Si 5.9333098889 8.9943149728 3.1242683550 
Si 7.1212886800 0.3833555062 2.0773783737 
Si 8.7335882883 0.4962113240 7.6859250893 
Si 5.9883137884 2.1744640639 9.8536293555 
Si 2.4768156377 3.3571826311 3.8621289727 
Si 4.8829990049 11.2508924194 7.6531570580 
Si 7.5404898584 0.5047155478 11.2242046914 
Si 10.7374992596 5.6454737212 10.7992629568 
Si 5.9164748296 4.3643104750 10.9435383610 
Si 4.9945415240 0.1091278538 10.1675206186 
Si 6.8477336099 10.1969263242 10.4546890073 
Si 11.1150404026 4.7221579960 7.1322660290 
Si 11.3215364054 4.5950691137 3.0851857120 
Si 2.3280297966 10.9126682279 4.7068225105 
Si 9.0574025126 3.5315900970 1.5725843326 
Si 2.0098506896 3.9333118680 11.0164785694 
Si 1.5144524158 5.8262543758 0.2862100674 
Si 3.0267609096 5.9338839445 1.9603296069 
Si 2.2773957489 8.4702607803 6.4667364178 
Si 8.8125619383 4.3041283596 11.1324026559 
Si 1.9381406004 4.3324679619 8.2899487425 
Si 10.2347319863 2.4967904298 3.1997273788 
Si 7.4061139846 7.2692427262 2.4920691153 
Si 1.2610244382 5.9591658221 9.8075408910 
Si 11.5790647802 4.4190683507 0.7847351869 
Si 4.1268037540 1.7231860639 3.9774204264 
Si 2.5974493232 9.7258141172 0.7371366047 
Si 10.9754277358 3.4426466241 5.1720418609 
Si 1.2956552214 2.1233496840 8.4540583537 
Si 8.2292277177 8.9121312976 4.1462396367 
Si 8.2413648934 9.9033964620 8.0886426710 
Si 3.7948121661 8.8705415546 8.2600744201 
Si 8.7995695369 8.1802806906 6.5627208585 
Si 2.8675014825 8.6394197378 10.3120069003 
Si 0.9040743185 10.3138930830 7.1394710127 
Si 11.2045462157 1.0753197923 1.5579634878 
Si 5.2526556698 5.8720148085 2.1925643887 

