&CONTROL
   calculation      = 'scf'
   tstress          = .true.
   tprnfor          = .true.
   outdir           = './'
   disk_io          = 'none'
   pseudo_dir       = '/home/ppiaggi/pseudos'
/
&SYSTEM
   ecutwfc          = 30
   occupations      = 'smearing'
   degauss          = 0.01
   smearing         = 'fermi-dirac'
   input_dft        = 'PBE'
   ntyp             = 1
   nat              = 64
   ibrav            = 0
/
&ELECTRONS
   electron_maxstep = 100
   mixing_beta      = 0.5
/
&IONS
/
&CELL
/

ATOMIC_SPECIES
Si 28.085 Si_ONCV_PBE_sr.upf

K_POINTS gamma

CELL_PARAMETERS angstrom
11.94701002009222 0.00000000000000 0.00000000000000
0.00000000000000 11.94701002009222 0.00000000000000
0.00000000000000 0.00000000000000 11.94701002009222

ATOMIC_POSITIONS angstrom
Si 8.8463786156 0.8044065211 9.3490251681 
Si 10.7443284154 9.5094735127 3.4894468456 
Si 0.4374003468 10.7463235661 4.6895478962 
Si 10.6871619724 5.3587955035 4.6147835075 
Si 2.5344028646 11.1486152345 3.5794675661 
Si 8.7614712153 10.9550617251 0.8683911226 
Si 4.7983732104 8.4100379686 1.7217433490 
Si 5.3373745145 4.6051900584 9.7576129108 
Si 0.0979396766 9.7934897819 10.4851738740 
Si 9.8990535624 10.8165958790 9.9777485175 
Si 11.3920475106 8.1392350925 6.7718161666 
Si 8.5227341141 6.1001433163 3.5204612837 
Si 9.4610283871 1.4813336664 4.7530462544 
Si 8.1903921894 3.0431304453 9.4991751901 
Si 10.2420880612 4.2020620993 8.4613503766 
Si 4.6329549097 1.5640906048 5.7835953388 
Si 5.9009508182 11.7924634985 4.9714734386 
Si 7.3531815682 5.9899799369 1.5521435948 
Si 3.4673448771 1.3621502945 11.0841611154 
Si 5.3114972908 9.5271311935 11.8657464579 
Si 6.8025438764 1.3491280535 6.5475588415 
Si 2.0214340954 11.2394841927 10.9573436040 
Si 3.5276414367 7.9340213014 11.5736181689 
Si 1.7796982947 2.2463126650 5.6401236954 
Si 3.0574668573 2.1241903286 1.9060976607 
Si 11.7925710216 6.6800870237 8.5592083357 
Si 3.0947176346 11.7148796154 1.2247477322 
Si 6.6237688184 10.1006354625 2.1284434641 
Si 8.2132707136 11.7538627091 5.4279447975 
Si 7.7740149962 11.1684472711 10.7149985058 
Si 6.6630266934 3.2760971407 11.0769809624 
Si 3.6029792819 2.9529663607 3.8820494889 
Si 5.0169198647 2.2568021398 8.3257876539 
Si 9.3139367997 11.4895590064 3.3336936760 
Si 10.5934376788 5.0853164971 10.7202551902 
Si 6.7348760116 5.5035335299 11.4295850161 
Si 9.7432645518 0.4673467221 11.6483945046 
Si 5.3023339341 11.5377651919 10.4506709091 
Si 11.2683123279 5.5334130019 6.7988044622 
Si 11.4513763624 3.5472106391 3.3698094873 
Si 4.7724720927 10.3549275708 3.3924490713 
Si 9.3721904206 2.6097646038 2.4810594649 
Si 2.9760957721 4.2305198772 9.9448822929 
Si 4.1774870997 3.5018717361 0.0090850560 
Si 3.4440123665 4.4411934519 2.1349306906 
Si 0.3275189168 10.3754525340 7.0247941038 
Si 8.8569397724 6.3535871868 11.8897121600 
Si 0.7875922992 4.2854163882 8.2876527979 
Si 0.7254941305 0.9166845212 3.7778118265 
Si 6.7016872178 7.5780481908 2.9832281371 
Si 0.9812760309 5.5728978701 10.2080390826 
Si 10.1289976643 4.4149458709 1.1294751061 
Si 4.3651029451 0.8304533923 3.4098319709 
Si 3.5932663627 9.7288922987 10.2305114084 
Si 0.4670145952 4.0691874539 5.3959268106 
Si 2.6858073226 2.8015380087 7.9554542373 
Si 8.6378196616 9.6136753341 4.0290813412 
Si 6.5635200469 0.6472376307 8.8401064353 
Si 1.6926523796 9.9535199811 8.9525755876 
Si 9.8338587288 7.6761450901 4.6168025522 
Si 1.4517409226 8.0414368684 10.3177962637 
Si 10.2158285331 9.8046243952 5.6583428857 
Si 8.9030432841 2.6330134853 0.1395386876 
Si 4.8110250941 5.9881878854 1.0909913974 

