&CONTROL
   calculation      = 'scf'
   tstress          = .true.
   tprnfor          = .true.
   outdir           = './'
   disk_io          = 'none'
   pseudo_dir       = '/home/ppiaggi/pseudos'
/
&SYSTEM
   ecutwfc          = 30
   occupations      = 'smearing'
   degauss          = 0.01
   smearing         = 'fermi-dirac'
   input_dft        = 'PBE'
   ntyp             = 1
   nat              = 64
   ibrav            = 0
/
&ELECTRONS
   electron_maxstep = 100
   mixing_beta      = 0.5
/
&IONS
/
&CELL
/

ATOMIC_SPECIES
Si 28.085 Si_ONCV_PBE_sr.upf

K_POINTS gamma

CELL_PARAMETERS angstrom
11.84493788942934 0.00000000000000 0.00000000000000
0.00000000000000 11.84493788942934 0.00000000000000
0.00000000000000 0.00000000000000 11.84493788942934

ATOMIC_POSITIONS angstrom
Si 9.1248189727 0.9081608639 9.0131567433 
Si 10.3501659525 9.6889578296 3.6425434548 
Si 0.5799743543 10.8832710721 4.5737332470 
Si 11.1773098102 5.9358537245 5.1656840180 
Si 1.8926315557 11.8202530389 2.9205944905 
Si 7.8713284206 10.9558805413 0.4950722085 
Si 4.7230149992 9.0315282419 2.8698981563 
Si 4.8607242471 3.5569519336 10.2782671795 
Si 0.7320621723 9.9124125829 10.3941225170 
Si 10.6097951461 11.0186824020 9.6726710400 
Si 11.1358999074 8.4979967046 7.4831224262 
Si 8.6593958283 6.6323952971 4.9160401071 
Si 9.3903824802 1.4707977827 4.0232989833 
Si 9.4583368889 2.8482692997 9.9803788365 
Si 9.6257887758 5.7654406031 9.5299513834 
Si 4.4465186141 2.0335863166 5.5554890790 
Si 5.7574215802 11.7548216020 4.0249454296 
Si 7.1673245371 5.1439011772 1.7309481535 
Si 4.3540807188 11.5614411460 8.7062899374 
Si 5.0144360061 9.2627177397 0.0099865145 
Si 6.4621006251 1.4051649818 6.3487208796 
Si 2.6303105976 11.6431475275 10.1553996388 
Si 3.3850226602 8.2422052709 1.2711513545 
Si 2.0426121593 2.5808935167 5.5279495984 
Si 3.3666630064 2.3708827679 1.4225888855 
Si 11.7001335237 6.4871289788 8.7838861255 
Si 1.8174162001 0.6470842189 0.5383784859 
Si 6.7579042590 8.9089449797 1.6644862070 
Si 8.2507810059 10.8846095500 4.2784744802 
Si 8.0164525996 10.9139849960 9.9457442381 
Si 7.2608995465 2.8300162504 10.7486533529 
Si 3.9046127056 3.0749340312 3.5239519367 
Si 4.7379633108 1.6898225292 7.7157688513 
Si 9.3713002853 11.2903223626 2.2529782562 
Si 10.9243611616 5.6352292009 11.4156181156 
Si 6.1604100570 5.0501248040 11.6158804805 
Si 9.6079621443 0.0127532077 11.3165944349 
Si 5.8560899128 10.3395055084 9.7938092198 
Si 10.0751738744 5.3121466750 7.4112236532 
Si 11.0191088198 3.9259099039 3.8313636097 
Si 3.5099867549 10.6835180395 4.3275125231 
Si 8.8235429775 3.3121762921 2.7365715354 
Si 2.9985934065 4.1910943734 9.2682019459 
Si 2.6063838231 3.9715129148 11.4613869556 
Si 3.6026497040 4.5861941217 1.5887852090 
Si 0.8004003570 10.0333730886 6.8691519157 
Si 8.5306768882 5.6790080913 11.4788227042 
Si 1.8071111042 3.8202767479 7.3207046379 
Si 0.5082579934 1.7826513074 3.8857792544 
Si 6.7204979451 7.1999336512 3.1311264165 
Si 1.0178390663 5.2278344071 10.3200087406 
Si 10.2696085299 4.4479755414 1.3940781200 
Si 4.1498976794 0.6878852920 2.7927520758 
Si 2.7837854578 9.3707791080 11.2744027661 
Si 11.7128076073 3.9034992815 6.1157546412 
Si 2.4019046603 1.9737693803 8.0423930136 
Si 8.2932214183 8.5828656846 3.8890839921 
Si 6.7875876733 0.5738860562 8.6440447888 
Si 2.4501372474 9.5039872795 8.6651761579 
Si 10.2733159954 7.9393065191 5.4020023739 
Si 1.5410145745 7.6458955627 9.7507765605 
Si 10.5292732583 10.1744462989 5.7553013363 
Si 8.8016061526 2.6702635731 0.5742129765 
Si 4.8038922351 6.4285083812 1.8580443371 

