&CONTROL
   calculation      = 'scf'
   tstress          = .true.
   tprnfor          = .true.
   outdir           = './'
   disk_io          = 'none'
   pseudo_dir       = '/home/ppiaggi/pseudos'
/
&SYSTEM
   ecutwfc          = 30
   occupations      = 'smearing'
   degauss          = 0.01
   smearing         = 'fermi-dirac'
   input_dft        = 'PBE'
   ntyp             = 1
   nat              = 64
   ibrav            = 0
/
&ELECTRONS
   electron_maxstep = 100
   mixing_beta      = 0.5
/
&IONS
/
&CELL
/

ATOMIC_SPECIES
Si 28.085 Si_ONCV_PBE_sr.upf

K_POINTS gamma

CELL_PARAMETERS angstrom
10.73561532755079 0.00000000000000 0.00000000000000
0.00000000000000 10.73561532755079 0.00000000000000
0.00000000000000 0.00000000000000 10.73561532755079

ATOMIC_POSITIONS angstrom
Si 7.2900947375 0.1341511756 7.7091272749 
Si 9.2469934350 9.5358566366 5.5624443697 
Si 10.6083768147 8.1569956752 4.1100659145 
Si 9.1230936985 6.1145126523 5.4786099496 
Si 1.7957463758 0.6480156975 1.7511935722 
Si 5.0748756639 8.5378094221 10.4506920968 
Si 3.8290182408 9.0833719218 4.0735004087 
Si 4.7657221494 4.1679201455 0.7997303397 
Si 3.6901423209 0.4358799386 9.5357170736 
Si 10.5902121536 9.6972344062 8.4110110694 
Si 10.5738081333 7.3255115324 8.2888182958 
Si 9.2682714246 7.2754620938 2.4382944244 
Si 7.9868791147 0.7636704814 0.1273823701 
Si 9.6779425055 2.7368304155 5.7627816873 
Si 8.2949483321 4.3255726565 8.3322438598 
Si 2.8775635968 10.5486331154 5.7926803760 
Si 4.3520466839 0.5710993079 2.5864351803 
Si 9.0674080618 4.7304771242 2.3058706094 
Si 5.1055473169 9.6218703866 8.0414482474 
Si 7.2367602005 3.8849293254 1.1348833675 
Si 5.4231927033 0.6038225370 5.6935477040 
Si 10.3516882522 1.5099750314 9.0185288052 
Si 3.3419648446 8.6651230842 1.9042405043 
Si 2.4317456991 2.0416993230 6.3265732618 
Si 3.9379632651 4.3613544624 3.2129978977 
Si 0.7419963476 5.7128718116 6.2671194241 
Si 10.5010206614 10.6416572222 10.7334574689 
Si 7.1839302375 9.7741550900 4.0376971315 
Si 5.5602220973 0.1577480581 0.5481755485 
Si 9.8076824167 0.6249513015 6.9863197662 
Si 4.2653780614 4.9361071002 9.2759259183 
Si 2.2864606168 3.0841275713 4.1811142167 
Si 2.6000479406 9.3909473009 8.3364092785 
Si 6.6216845916 2.2744581989 8.7843313568 
Si 10.0586918387 4.6958762360 9.8821339090 
Si 6.3006467508 6.2095443191 10.0062913003 
Si 4.1586660450 2.1734790011 7.8088396701 
Si 8.7852653554 8.3813700355 9.3025287731 
Si 7.8368166837 4.1764871665 5.8033623132 
Si 10.5435766406 1.8082426321 3.6229588402 
Si 1.1526078684 10.1521238989 3.9036844454 
Si 9.4881905046 2.8004604075 0.1043277435 
Si 2.6340905768 2.5873477076 0.2465788335 
Si 1.3001044874 4.4311252264 0.9905795205 
Si 2.8802475006 6.1427687918 1.6643102374 
Si 3.3342137304 7.0611362694 5.1705514677 
Si 8.3705914777 6.6061823630 0.2743110750 
Si 0.4161661282 3.8229418825 7.7814960579 
Si 8.3727922789 0.7160569539 2.5383825661 
Si 6.2907055710 7.0844862327 3.9014621730 
Si 2.0461438677 5.4815622438 8.5991097856 
Si 0.3492048747 4.0178040363 2.9825257078 
Si 4.3480100926 2.2396640696 4.0728025937 
Si 2.2266739751 9.5464312177 10.6321025246 
Si 8.1338818954 2.9168452133 3.7235622914 
Si 1.7765188888 2.2235499110 8.9387739189 
Si 5.7284813963 8.3526522645 2.1013571374 
Si 6.1412443344 7.3688297403 7.4945545314 
Si 3.8215462525 6.5527082631 7.4932984644 
Si 8.3886273115 7.7399384909 7.1755564576 
Si 3.2859786107 7.1068914619 9.8738030715 
Si 1.5690853294 8.4115907927 6.1212009406 
Si 8.5083401580 9.4065676212 1.2318796520 
Si 5.8936058957 5.4412929507 2.2900785192 

