&CONTROL
   calculation      = 'scf'
   tstress          = .true.
   tprnfor          = .true.
   outdir           = './'
   disk_io          = 'none'
   pseudo_dir       = '/home/ppiaggi/pseudos'
/
&SYSTEM
   ecutwfc          = 30
   occupations      = 'smearing'
   degauss          = 0.01
   smearing         = 'fermi-dirac'
   input_dft        = 'PBE'
   ntyp             = 1
   nat              = 64
   ibrav            = 0
/
&ELECTRONS
   electron_maxstep = 100
   mixing_beta      = 0.5
/
&IONS
/
&CELL
/

ATOMIC_SPECIES
Si 28.085 Si_ONCV_PBE_sr.upf

K_POINTS gamma

CELL_PARAMETERS angstrom
11.86519658452976 0.00000000000000 0.00000000000000
0.00000000000000 11.86519658452976 0.00000000000000
0.00000000000000 0.00000000000000 11.86519658452976

ATOMIC_POSITIONS angstrom
Si 9.1838282692 0.6104287687 9.0084843941 
Si 10.4779533955 10.0093730519 3.5909424203 
Si 0.6230035040 10.7430930783 4.4994130620 
Si 10.9416571432 5.8007047670 5.1601502642 
Si 1.9272994768 0.0435736293 2.8970775893 
Si 7.5227244777 10.8112349023 0.3641274584 
Si 4.6844152072 9.1869606811 3.2267639416 
Si 4.9924831713 3.3642222440 10.3045435474 
Si 0.7759387689 10.0186279053 10.1910054813 
Si 10.6445407555 10.7894741318 9.4507595967 
Si 11.0526441920 8.8691039298 7.6292976735 
Si 8.6555659868 6.5488172769 5.0626658091 
Si 9.4741577644 1.5173925304 3.5996277442 
Si 9.7381702536 2.8647567938 10.1721042231 
Si 9.8953366476 5.8404769060 9.7634905831 
Si 4.4324933533 1.9156834494 5.2119418473 
Si 6.0396460959 0.0127480859 4.3738436866 
Si 6.8168402025 5.1126538823 2.0519433669 
Si 4.5630698417 11.4632393198 8.5109292405 
Si 4.9450579805 9.3366045404 0.0707344881 
Si 6.4234852054 1.1754601087 6.1673156111 
Si 2.4413116581 11.6810843291 9.9559915325 
Si 3.4073285032 8.1965845874 1.4735506290 
Si 2.2235853007 2.6231576609 5.5122855685 
Si 3.2268588631 2.2338368306 1.1694693710 
Si 11.7730751982 6.6740544268 8.4586155887 
Si 2.0068912155 0.5288982569 0.3722064708 
Si 6.6704592723 8.9284061823 1.7088493425 
Si 8.3200300926 11.1216640406 4.1366702720 
Si 8.2988269863 10.6404353975 9.9500114734 
Si 7.3126274418 2.5811429998 10.4390830114 
Si 3.8833127294 3.0261471977 3.3471007653 
Si 4.5603408465 1.7931278338 7.5500144299 
Si 9.1741818644 11.6787587506 2.0558944774 
Si 10.9462252439 5.8195704296 11.7197292744 
Si 6.1409274139 4.6797759153 11.7098218353 
Si 9.5538918855 0.2879505233 11.4910988014 
Si 5.9788488286 10.2747619039 9.9106783467 
Si 10.0631935836 5.1229054121 7.4180259831 
Si 10.8150673608 3.7973612453 3.9056548945 
Si 3.4929596269 10.8679030812 4.4057017394 
Si 8.4513422232 3.4498889633 2.5688625213 
Si 2.9567357977 4.2215894840 9.3034057204 
Si 2.4769903042 3.8377503745 11.5471381249 
Si 3.4378339236 4.5617765353 1.7993807924 
Si 1.1476516475 10.2400324735 6.7367382604 
Si 8.5539405781 5.3403232744 11.7770500391 
Si 1.7187923772 4.0863143777 7.2854798720 
Si 0.4674365386 2.0486567075 4.1613024201 
Si 6.8019968416 6.9606226547 3.2491772979 
Si 0.8819092126 4.8701529945 10.0929159011 
Si 10.2694937567 4.5405971594 1.6869461896 
Si 4.0288037699 0.7569141127 2.9804068649 
Si 2.7005424730 9.4600144501 11.3287710469 
Si 11.5502586716 3.9153250297 6.1887916169 
Si 2.2540669908 1.6393311557 8.3042849768 
Si 8.3980793558 8.6642275803 3.9561531712 
Si 6.7509171703 0.2894479111 8.4031576599 
Si 2.5495815769 9.9440551447 8.7245739702 
Si 10.4085894562 8.1440336317 5.3345093280 
Si 1.7292456154 7.9735663524 9.9382293332 
Si 10.8123739612 10.3656374446 6.0905952500 
Si 9.2441865242 2.8420349423 0.3834902727 
Si 4.9889592079 6.5218120895 1.9248671115 

